*SPEF "ieee 1481-1999"
*DESIGN "bist_top"
*DATE "11:11:11 Fri 11 11, 1111"
*VENDOR "OpenRCX"
*PROGRAM "Parallel Extraction"
*VERSION "1.0"
*DESIGN_FLOW "NAME_SCOPE LOCAL" "PIN_CAP NONE"
*DIVIDER /
*DELIMITER :
*BUS_DELIMITER []
*T_UNIT 1 NS
*C_UNIT 1 PF
*R_UNIT 1 OHM
*L_UNIT 1 HENRY

*NAME_MAP
*3 clk
*4 done
*5 pass_fail
*6 rst_n
*7 start
*8 _0000_
*9 _0001_
*10 _0002_
*11 _0003_
*12 _0004_
*13 _0005_
*14 _0006_
*15 _0007_
*16 _0008_
*17 _0009_
*18 _0010_
*19 _0011_
*20 _0012_
*21 _0013_
*22 _0014_
*23 _0015_
*24 _0016_
*25 _0017_
*26 _0018_
*27 _0019_
*28 _0020_
*29 _0021_
*30 _0022_
*31 _0023_
*32 _0024_
*33 _0025_
*34 _0026_
*35 _0027_
*36 _0028_
*37 _0029_
*38 _0030_
*39 _0031_
*40 _0032_
*41 _0033_
*42 _0034_
*43 _0035_
*44 _0036_
*45 _0037_
*46 _0038_
*47 _0039_
*48 _0040_
*49 _0041_
*50 _0042_
*51 _0043_
*52 _0044_
*53 _0045_
*54 _0046_
*55 _0047_
*56 _0048_
*57 _0049_
*58 _0050_
*59 _0051_
*60 _0052_
*61 _0053_
*62 _0054_
*63 _0055_
*64 _0056_
*65 _0057_
*66 _0058_
*67 _0059_
*68 _0060_
*69 _0061_
*70 _0062_
*71 _0063_
*72 _0064_
*73 _0065_
*74 _0066_
*75 _0067_
*76 _0068_
*77 _0069_
*78 _0070_
*79 _0071_
*80 _0072_
*81 _0073_
*82 _0074_
*83 _0075_
*84 _0076_
*85 _0077_
*86 _0078_
*87 _0079_
*88 _0080_
*89 _0081_
*90 _0082_
*91 _0083_
*92 _0084_
*93 _0085_
*94 _0086_
*95 _0087_
*96 _0088_
*97 _0089_
*98 _0090_
*99 _0091_
*100 _0092_
*101 _0093_
*102 _0094_
*103 _0095_
*104 _0096_
*105 _0097_
*106 _0098_
*107 _0099_
*108 _0100_
*109 _0101_
*110 _0102_
*111 _0103_
*112 _0104_
*113 _0105_
*114 _0106_
*115 _0107_
*116 _0108_
*117 _0109_
*118 _0110_
*119 _0111_
*120 _0112_
*121 _0113_
*122 _0114_
*123 _0115_
*124 _0116_
*125 _0117_
*126 _0118_
*127 _0119_
*128 _0120_
*129 _0121_
*130 _0122_
*131 _0123_
*132 _0124_
*133 _0125_
*134 _0126_
*135 _0127_
*136 _0128_
*137 _0129_
*138 _0130_
*139 _0131_
*140 _0132_
*141 _0133_
*142 _0134_
*143 _0135_
*144 _0136_
*145 _0137_
*146 _0138_
*147 _0139_
*148 _0140_
*149 _0141_
*150 _0142_
*151 _0143_
*152 _0144_
*153 _0145_
*154 _0146_
*155 _0147_
*156 _0148_
*157 _0149_
*158 _0150_
*159 _0151_
*160 _0152_
*161 _0153_
*162 _0154_
*163 _0155_
*164 _0156_
*165 _0157_
*166 _0158_
*167 _0159_
*168 _0160_
*169 _0161_
*170 _0162_
*171 _0163_
*172 _0164_
*173 _0165_
*174 _0166_
*175 _0167_
*176 _0168_
*177 _0169_
*178 _0170_
*179 _0171_
*180 _0172_
*181 _0173_
*182 _0174_
*183 _0175_
*184 _0176_
*185 _0177_
*186 _0178_
*187 _0179_
*188 _0180_
*189 _0181_
*190 _0182_
*191 _0183_
*192 _0184_
*193 _0185_
*194 _0186_
*195 _0187_
*196 _0188_
*197 _0189_
*198 _0190_
*199 _0191_
*200 _0192_
*201 _0193_
*202 _0194_
*203 _0195_
*204 _0196_
*205 _0197_
*206 _0198_
*207 _0199_
*208 _0200_
*209 _0201_
*210 _0202_
*211 _0203_
*212 _0204_
*213 _0205_
*214 _0206_
*215 _0207_
*216 _0208_
*217 _0209_
*218 _0210_
*219 _0211_
*220 _0212_
*221 _0213_
*222 _0214_
*223 _0215_
*224 _0216_
*225 _0217_
*226 _0218_
*227 _0219_
*228 _0220_
*229 _0221_
*230 _0222_
*231 _0223_
*232 _0224_
*233 _0225_
*234 _0226_
*235 _0227_
*236 _0228_
*237 _0229_
*238 _0230_
*239 _0231_
*240 _0232_
*241 _0233_
*242 _0234_
*243 _0235_
*244 _0236_
*245 _0237_
*246 _0238_
*247 _0239_
*248 _0240_
*249 _0241_
*250 _0242_
*251 _0243_
*252 _0244_
*253 _0245_
*254 _0246_
*255 _0247_
*256 _0248_
*257 _0249_
*258 _0250_
*259 _0251_
*260 _0252_
*261 _0253_
*262 _0254_
*263 _0255_
*264 _0256_
*265 _0257_
*266 _0258_
*267 _0259_
*268 _0260_
*269 _0261_
*270 _0262_
*271 _0263_
*272 _0264_
*273 _0265_
*274 _0266_
*275 _0267_
*276 _0268_
*277 _0269_
*278 _0270_
*279 _0271_
*280 _0272_
*281 _0273_
*282 _0274_
*283 _0275_
*284 _0276_
*285 _0277_
*286 _0278_
*287 _0279_
*288 _0280_
*289 _0281_
*290 _0282_
*291 _0283_
*292 _0284_
*293 _0285_
*294 _0286_
*295 _0287_
*296 _0288_
*297 _0289_
*298 _0290_
*299 _0291_
*300 _0292_
*301 _0293_
*302 _0294_
*303 _0295_
*304 _0296_
*305 _0297_
*306 _0298_
*307 _0299_
*308 _0300_
*309 _0301_
*310 _0302_
*311 _0303_
*312 _0304_
*313 _0305_
*314 _0306_
*315 _0307_
*316 _0308_
*317 _0309_
*318 _0310_
*319 _0311_
*320 _0312_
*321 _0313_
*322 _0314_
*323 _0315_
*324 _0316_
*325 _0317_
*326 _0318_
*327 _0319_
*328 _0320_
*329 _0321_
*330 _0322_
*331 _0323_
*332 _0324_
*333 _0325_
*334 _0326_
*335 _0327_
*336 _0328_
*337 _0329_
*338 _0330_
*339 _0331_
*340 _0332_
*341 _0333_
*342 _0334_
*343 _0335_
*344 _0336_
*345 _0337_
*346 _0338_
*347 _0339_
*348 _0340_
*349 _0341_
*350 _0342_
*351 _0343_
*352 _0344_
*353 _0345_
*354 _0346_
*355 _0347_
*356 _0348_
*357 _0349_
*358 _0350_
*359 _0351_
*360 _0352_
*361 _0353_
*362 _0354_
*363 _0355_
*364 _0356_
*365 _0357_
*366 _0358_
*367 _0359_
*368 _0360_
*369 _0361_
*370 _0362_
*371 _0363_
*372 _0364_
*373 _0365_
*374 _0366_
*375 _0367_
*376 _0368_
*377 _0369_
*378 _0370_
*379 _0371_
*380 _0372_
*381 _0373_
*382 _0374_
*383 _0375_
*384 _0376_
*385 _0377_
*386 _0378_
*387 _0379_
*388 _0380_
*389 _0381_
*390 _0382_
*391 _0383_
*392 _0384_
*393 _0385_
*394 _0386_
*395 _0387_
*396 _0388_
*397 _0389_
*398 _0390_
*399 _0391_
*400 _0392_
*401 _0393_
*402 _0394_
*403 _0395_
*404 _0396_
*405 _0397_
*406 _0398_
*407 _0399_
*408 _0400_
*409 _0401_
*410 _0402_
*411 _0403_
*412 _0404_
*413 _0405_
*414 _0406_
*415 _0407_
*416 _0408_
*417 _0409_
*418 _0410_
*419 _0411_
*420 _0412_
*421 _0413_
*422 _0414_
*423 _0415_
*424 _0416_
*425 _0417_
*426 _0418_
*427 _0419_
*428 _0420_
*429 _0421_
*430 _0422_
*431 _0423_
*432 _0424_
*433 _0425_
*434 _0426_
*435 _0427_
*436 _0428_
*437 _0429_
*438 _0430_
*439 _0431_
*440 _0432_
*441 _0433_
*442 _0434_
*443 _0435_
*444 _0436_
*445 _0437_
*446 _0438_
*447 _0439_
*448 _0440_
*449 _0441_
*450 _0442_
*451 _0443_
*452 _0444_
*453 _0445_
*454 _0446_
*455 _0447_
*456 _0448_
*457 _0449_
*458 _0450_
*459 _0451_
*460 _0452_
*461 _0453_
*462 _0454_
*463 _0455_
*464 _0456_
*465 _0457_
*466 _0458_
*467 _0459_
*468 _0460_
*469 _0461_
*470 _0462_
*471 _0463_
*472 _0464_
*473 _0465_
*474 _0466_
*475 _0467_
*476 _0468_
*477 _0469_
*478 _0470_
*479 _0471_
*480 _0472_
*481 _0473_
*482 _0474_
*483 _0475_
*484 _0476_
*485 _0477_
*486 _0478_
*487 _0479_
*488 _0480_
*489 _0481_
*490 _0482_
*491 _0483_
*492 _0484_
*493 _0485_
*494 _0486_
*495 _0487_
*496 _0488_
*497 _0489_
*498 _0490_
*499 _0491_
*500 _0492_
*501 _0493_
*502 _0494_
*503 _0495_
*504 _0496_
*505 _0497_
*506 _0498_
*507 _0499_
*508 _0500_
*509 _0501_
*510 _0502_
*511 _0503_
*512 _0504_
*513 _0505_
*514 _0506_
*515 _0507_
*516 _0508_
*517 _0509_
*518 _0510_
*519 _0511_
*520 _0512_
*521 _0513_
*522 _0514_
*523 _0515_
*524 _0516_
*525 _0517_
*526 _0518_
*527 _0519_
*528 _0520_
*529 _0521_
*530 _0522_
*531 _0523_
*532 _0524_
*533 _0525_
*534 _0526_
*535 _0527_
*536 _0528_
*537 _0529_
*538 _0530_
*539 _0531_
*540 _0532_
*541 _0533_
*542 _0534_
*543 _0535_
*544 _0536_
*545 _0537_
*546 _0538_
*547 _0539_
*548 _0540_
*549 _0541_
*550 _0542_
*551 _0543_
*552 _0544_
*553 _0545_
*554 _0546_
*555 _0547_
*556 _0548_
*557 _0549_
*558 _0550_
*559 _0551_
*560 _0552_
*561 _0553_
*562 _0554_
*563 _0555_
*564 _0556_
*565 _0557_
*566 _0558_
*567 _0559_
*568 _0560_
*569 _0561_
*570 _0562_
*571 _0563_
*572 _0564_
*573 _0565_
*574 _0566_
*575 _0567_
*576 _0568_
*577 _0569_
*578 _0570_
*579 _0571_
*580 _0572_
*581 _0573_
*582 _0574_
*583 _0575_
*584 _0576_
*585 _0577_
*586 _0578_
*587 _0579_
*588 _0580_
*589 _0581_
*590 clknet_0_clk
*591 clknet_4_0_0_clk
*592 clknet_4_10_0_clk
*593 clknet_4_11_0_clk
*594 clknet_4_12_0_clk
*595 clknet_4_13_0_clk
*596 clknet_4_14_0_clk
*597 clknet_4_15_0_clk
*598 clknet_4_1_0_clk
*599 clknet_4_2_0_clk
*600 clknet_4_3_0_clk
*601 clknet_4_4_0_clk
*602 clknet_4_5_0_clk
*603 clknet_4_6_0_clk
*604 clknet_4_7_0_clk
*605 clknet_4_8_0_clk
*606 clknet_4_9_0_clk
*607 net1
*608 net10
*609 net100
*610 net101
*611 net102
*612 net103
*613 net104
*614 net105
*615 net106
*616 net107
*617 net108
*618 net109
*619 net11
*620 net110
*621 net111
*622 net112
*623 net113
*624 net114
*625 net115
*626 net116
*627 net117
*628 net118
*629 net119
*630 net12
*631 net120
*632 net121
*633 net122
*634 net123
*635 net124
*636 net125
*637 net126
*638 net127
*639 net128
*640 net129
*641 net13
*642 net130
*643 net131
*644 net132
*645 net133
*646 net134
*647 net135
*648 net136
*649 net137
*650 net138
*651 net139
*652 net14
*653 net140
*654 net141
*655 net142
*656 net143
*657 net144
*658 net145
*659 net146
*660 net147
*661 net148
*662 net149
*663 net15
*664 net150
*665 net151
*666 net152
*667 net153
*668 net154
*669 net155
*670 net156
*671 net157
*672 net158
*673 net159
*674 net16
*675 net160
*676 net161
*677 net162
*678 net163
*679 net17
*680 net18
*681 net19
*682 net2
*683 net20
*684 net21
*685 net22
*686 net23
*687 net24
*688 net25
*689 net26
*690 net27
*691 net28
*692 net29
*693 net3
*694 net30
*695 net31
*696 net32
*697 net33
*698 net34
*699 net35
*700 net36
*701 net37
*702 net38
*703 net39
*704 net4
*705 net40
*706 net41
*707 net42
*708 net43
*709 net44
*710 net45
*711 net46
*712 net47
*713 net48
*714 net49
*715 net5
*716 net50
*717 net51
*718 net52
*719 net53
*720 net54
*721 net55
*722 net56
*723 net57
*724 net58
*725 net59
*726 net6
*727 net60
*728 net61
*729 net62
*730 net63
*731 net64
*732 net65
*733 net66
*734 net67
*735 net68
*736 net69
*737 net7
*738 net70
*739 net71
*740 net72
*741 net73
*742 net74
*743 net75
*744 net76
*745 net77
*746 net78
*747 net79
*748 net8
*749 net80
*750 net81
*751 net82
*752 net83
*753 net84
*754 net85
*755 net86
*756 net87
*757 net88
*758 net89
*759 net9
*760 net90
*761 net91
*762 net92
*763 net93
*764 net94
*765 net95
*766 net96
*767 net97
*768 net98
*769 net99
*770 u_addr_gen\.addr\[0\]
*771 u_addr_gen\.addr\[1\]
*772 u_addr_gen\.addr\[2\]
*773 u_addr_gen\.addr\[3\]
*774 u_addr_gen\.addr\[4\]
*775 u_addr_gen\.addr\[5\]
*776 u_addr_gen\.addr_valid
*777 u_addr_gen\.done
*778 u_addr_gen\.start
*779 u_addr_gen\.state\[0\]
*780 u_addr_gen\.state\[1\]
*781 u_comparator\.compare_done
*782 u_comparator\.enable
*783 u_comparator\.pass_fail
*784 u_comparator\.read_data\[0\]
*785 u_comparator\.read_data\[1\]
*786 u_fsm\.addr_done_seen
*787 u_fsm\.fail_latch
*788 u_fsm\.next_state\[0\]
*789 u_fsm\.next_state\[1\]
*790 u_fsm\.next_state\[2\]
*791 u_fsm\.protocol_error
*792 u_fsm\.rvalid
*793 u_fsm\.state\[0\]
*794 u_fsm\.state\[1\]
*795 u_fsm\.state\[2\]
*796 u_pattern_gen\.state_r\[0\]
*797 u_pattern_gen\.state_r\[1\]
*798 u_sram\.addr_r\[0\]
*799 u_sram\.addr_r\[1\]
*800 u_sram\.addr_r\[2\]
*801 u_sram\.addr_r\[3\]
*802 u_sram\.addr_r\[4\]
*803 u_sram\.addr_r\[5\]
*804 u_sram\.mem\[0\]\[0\]
*805 u_sram\.mem\[0\]\[1\]
*806 u_sram\.mem\[10\]\[0\]
*807 u_sram\.mem\[10\]\[1\]
*808 u_sram\.mem\[11\]\[0\]
*809 u_sram\.mem\[11\]\[1\]
*810 u_sram\.mem\[12\]\[0\]
*811 u_sram\.mem\[12\]\[1\]
*812 u_sram\.mem\[13\]\[0\]
*813 u_sram\.mem\[13\]\[1\]
*814 u_sram\.mem\[14\]\[0\]
*815 u_sram\.mem\[14\]\[1\]
*816 u_sram\.mem\[15\]\[0\]
*817 u_sram\.mem\[15\]\[1\]
*818 u_sram\.mem\[16\]\[0\]
*819 u_sram\.mem\[16\]\[1\]
*820 u_sram\.mem\[17\]\[0\]
*821 u_sram\.mem\[17\]\[1\]
*822 u_sram\.mem\[18\]\[0\]
*823 u_sram\.mem\[18\]\[1\]
*824 u_sram\.mem\[19\]\[0\]
*825 u_sram\.mem\[19\]\[1\]
*826 u_sram\.mem\[1\]\[0\]
*827 u_sram\.mem\[1\]\[1\]
*828 u_sram\.mem\[20\]\[0\]
*829 u_sram\.mem\[20\]\[1\]
*830 u_sram\.mem\[21\]\[0\]
*831 u_sram\.mem\[21\]\[1\]
*832 u_sram\.mem\[22\]\[0\]
*833 u_sram\.mem\[22\]\[1\]
*834 u_sram\.mem\[23\]\[0\]
*835 u_sram\.mem\[23\]\[1\]
*836 u_sram\.mem\[24\]\[0\]
*837 u_sram\.mem\[24\]\[1\]
*838 u_sram\.mem\[25\]\[0\]
*839 u_sram\.mem\[25\]\[1\]
*840 u_sram\.mem\[26\]\[0\]
*841 u_sram\.mem\[26\]\[1\]
*842 u_sram\.mem\[27\]\[0\]
*843 u_sram\.mem\[27\]\[1\]
*844 u_sram\.mem\[28\]\[0\]
*845 u_sram\.mem\[28\]\[1\]
*846 u_sram\.mem\[29\]\[0\]
*847 u_sram\.mem\[29\]\[1\]
*848 u_sram\.mem\[2\]\[0\]
*849 u_sram\.mem\[2\]\[1\]
*850 u_sram\.mem\[30\]\[0\]
*851 u_sram\.mem\[30\]\[1\]
*852 u_sram\.mem\[31\]\[0\]
*853 u_sram\.mem\[31\]\[1\]
*854 u_sram\.mem\[32\]\[0\]
*855 u_sram\.mem\[32\]\[1\]
*856 u_sram\.mem\[33\]\[0\]
*857 u_sram\.mem\[33\]\[1\]
*858 u_sram\.mem\[34\]\[0\]
*859 u_sram\.mem\[34\]\[1\]
*860 u_sram\.mem\[35\]\[0\]
*861 u_sram\.mem\[35\]\[1\]
*862 u_sram\.mem\[36\]\[0\]
*863 u_sram\.mem\[36\]\[1\]
*864 u_sram\.mem\[37\]\[0\]
*865 u_sram\.mem\[37\]\[1\]
*866 u_sram\.mem\[38\]\[0\]
*867 u_sram\.mem\[38\]\[1\]
*868 u_sram\.mem\[39\]\[0\]
*869 u_sram\.mem\[39\]\[1\]
*870 u_sram\.mem\[3\]\[0\]
*871 u_sram\.mem\[3\]\[1\]
*872 u_sram\.mem\[40\]\[0\]
*873 u_sram\.mem\[40\]\[1\]
*874 u_sram\.mem\[41\]\[0\]
*875 u_sram\.mem\[41\]\[1\]
*876 u_sram\.mem\[42\]\[0\]
*877 u_sram\.mem\[42\]\[1\]
*878 u_sram\.mem\[43\]\[0\]
*879 u_sram\.mem\[43\]\[1\]
*880 u_sram\.mem\[44\]\[0\]
*881 u_sram\.mem\[44\]\[1\]
*882 u_sram\.mem\[45\]\[0\]
*883 u_sram\.mem\[45\]\[1\]
*884 u_sram\.mem\[46\]\[0\]
*885 u_sram\.mem\[46\]\[1\]
*886 u_sram\.mem\[47\]\[0\]
*887 u_sram\.mem\[47\]\[1\]
*888 u_sram\.mem\[48\]\[0\]
*889 u_sram\.mem\[48\]\[1\]
*890 u_sram\.mem\[49\]\[0\]
*891 u_sram\.mem\[49\]\[1\]
*892 u_sram\.mem\[4\]\[0\]
*893 u_sram\.mem\[4\]\[1\]
*894 u_sram\.mem\[50\]\[0\]
*895 u_sram\.mem\[50\]\[1\]
*896 u_sram\.mem\[51\]\[0\]
*897 u_sram\.mem\[51\]\[1\]
*898 u_sram\.mem\[52\]\[0\]
*899 u_sram\.mem\[52\]\[1\]
*900 u_sram\.mem\[53\]\[0\]
*901 u_sram\.mem\[53\]\[1\]
*902 u_sram\.mem\[54\]\[0\]
*903 u_sram\.mem\[54\]\[1\]
*904 u_sram\.mem\[55\]\[0\]
*905 u_sram\.mem\[55\]\[1\]
*906 u_sram\.mem\[56\]\[0\]
*907 u_sram\.mem\[56\]\[1\]
*908 u_sram\.mem\[57\]\[0\]
*909 u_sram\.mem\[57\]\[1\]
*910 u_sram\.mem\[58\]\[0\]
*911 u_sram\.mem\[58\]\[1\]
*912 u_sram\.mem\[59\]\[0\]
*913 u_sram\.mem\[59\]\[1\]
*914 u_sram\.mem\[5\]\[0\]
*915 u_sram\.mem\[5\]\[1\]
*916 u_sram\.mem\[60\]\[0\]
*917 u_sram\.mem\[60\]\[1\]
*918 u_sram\.mem\[61\]\[0\]
*919 u_sram\.mem\[61\]\[1\]
*920 u_sram\.mem\[62\]\[0\]
*921 u_sram\.mem\[62\]\[1\]
*922 u_sram\.mem\[63\]\[0\]
*923 u_sram\.mem\[63\]\[1\]
*924 u_sram\.mem\[6\]\[0\]
*925 u_sram\.mem\[6\]\[1\]
*926 u_sram\.mem\[7\]\[0\]
*927 u_sram\.mem\[7\]\[1\]
*928 u_sram\.mem\[8\]\[0\]
*929 u_sram\.mem\[8\]\[1\]
*930 u_sram\.mem\[9\]\[0\]
*931 u_sram\.mem\[9\]\[1\]
*932 u_sram\.re_r
*933 u_sram\.read_req
*934 FILLER_0_0_109
*935 FILLER_0_0_113
*936 FILLER_0_0_125
*937 FILLER_0_0_137
*938 FILLER_0_0_141
*939 FILLER_0_0_153
*940 FILLER_0_0_165
*941 FILLER_0_0_169
*942 FILLER_0_0_181
*943 FILLER_0_0_193
*944 FILLER_0_0_197
*945 FILLER_0_0_209
*946 FILLER_0_0_21
*947 FILLER_0_0_221
*948 FILLER_0_0_225
*949 FILLER_0_0_237
*950 FILLER_0_0_249
*951 FILLER_0_0_253
*952 FILLER_0_0_258
*953 FILLER_0_0_27
*954 FILLER_0_0_270
*955 FILLER_0_0_278
*956 FILLER_0_0_281
*957 FILLER_0_0_29
*958 FILLER_0_0_293
*959 FILLER_0_0_305
*960 FILLER_0_0_41
*961 FILLER_0_0_53
*962 FILLER_0_0_57
*963 FILLER_0_0_69
*964 FILLER_0_0_81
*965 FILLER_0_0_85
*966 FILLER_0_0_9
*967 FILLER_0_0_97
*968 FILLER_0_10_107
*969 FILLER_0_10_111
*970 FILLER_0_10_121
*971 FILLER_0_10_125
*972 FILLER_0_10_149
*973 FILLER_0_10_15
*974 FILLER_0_10_161
*975 FILLER_0_10_197
*976 FILLER_0_10_229
*977 FILLER_0_10_249
*978 FILLER_0_10_253
*979 FILLER_0_10_26
*980 FILLER_0_10_265
*981 FILLER_0_10_296
*982 FILLER_0_10_3
*983 FILLER_0_10_58
*984 FILLER_0_10_74
*985 FILLER_0_10_85
*986 FILLER_0_11_107
*987 FILLER_0_11_111
*988 FILLER_0_11_113
*989 FILLER_0_11_117
*990 FILLER_0_11_143
*991 FILLER_0_11_15
*992 FILLER_0_11_151
*993 FILLER_0_11_182
*994 FILLER_0_11_191
*995 FILLER_0_11_196
*996 FILLER_0_11_205
*997 FILLER_0_11_217
*998 FILLER_0_11_223
*999 FILLER_0_11_231
*1000 FILLER_0_11_249
*1001 FILLER_0_11_261
*1002 FILLER_0_11_269
*1003 FILLER_0_11_27
*1004 FILLER_0_11_284
*1005 FILLER_0_11_3
*1006 FILLER_0_11_305
*1007 FILLER_0_11_33
*1008 FILLER_0_11_42
*1009 FILLER_0_11_54
*1010 FILLER_0_11_64
*1011 FILLER_0_11_70
*1012 FILLER_0_11_76
*1013 FILLER_0_11_85
*1014 FILLER_0_12_119
*1015 FILLER_0_12_128
*1016 FILLER_0_12_135
*1017 FILLER_0_12_139
*1018 FILLER_0_12_149
*1019 FILLER_0_12_15
*1020 FILLER_0_12_156
*1021 FILLER_0_12_187
*1022 FILLER_0_12_195
*1023 FILLER_0_12_216
*1024 FILLER_0_12_228
*1025 FILLER_0_12_249
*1026 FILLER_0_12_257
*1027 FILLER_0_12_269
*1028 FILLER_0_12_27
*1029 FILLER_0_12_277
*1030 FILLER_0_12_29
*1031 FILLER_0_12_3
*1032 FILLER_0_12_302
*1033 FILLER_0_12_41
*1034 FILLER_0_12_53
*1035 FILLER_0_12_57
*1036 FILLER_0_12_75
*1037 FILLER_0_12_83
*1038 FILLER_0_12_85
*1039 FILLER_0_12_94
*1040 FILLER_0_13_11
*1041 FILLER_0_13_111
*1042 FILLER_0_13_113
*1043 FILLER_0_13_121
*1044 FILLER_0_13_139
*1045 FILLER_0_13_147
*1046 FILLER_0_13_15
*1047 FILLER_0_13_164
*1048 FILLER_0_13_178
*1049 FILLER_0_13_191
*1050 FILLER_0_13_215
*1051 FILLER_0_13_223
*1052 FILLER_0_13_225
*1053 FILLER_0_13_253
*1054 FILLER_0_13_265
*1055 FILLER_0_13_277
*1056 FILLER_0_13_281
*1057 FILLER_0_13_3
*1058 FILLER_0_13_305
*1059 FILLER_0_13_32
*1060 FILLER_0_13_79
*1061 FILLER_0_13_91
*1062 FILLER_0_14_101
*1063 FILLER_0_14_114
*1064 FILLER_0_14_138
*1065 FILLER_0_14_156
*1066 FILLER_0_14_187
*1067 FILLER_0_14_216
*1068 FILLER_0_14_220
*1069 FILLER_0_14_264
*1070 FILLER_0_14_268
*1071 FILLER_0_14_272
*1072 FILLER_0_14_290
*1073 FILLER_0_14_3
*1074 FILLER_0_14_300
*1075 FILLER_0_14_38
*1076 FILLER_0_14_83
*1077 FILLER_0_14_93
*1078 FILLER_0_15_104
*1079 FILLER_0_15_154
*1080 FILLER_0_15_158
*1081 FILLER_0_15_162
*1082 FILLER_0_15_180
*1083 FILLER_0_15_193
*1084 FILLER_0_15_222
*1085 FILLER_0_15_233
*1086 FILLER_0_15_245
*1087 FILLER_0_15_257
*1088 FILLER_0_15_3
*1089 FILLER_0_15_300
*1090 FILLER_0_15_43
*1091 FILLER_0_15_49
*1092 FILLER_0_15_84
*1093 FILLER_0_16_105
*1094 FILLER_0_16_131
*1095 FILLER_0_16_137
*1096 FILLER_0_16_146
*1097 FILLER_0_16_155
*1098 FILLER_0_16_166
*1099 FILLER_0_16_175
*1100 FILLER_0_16_187
*1101 FILLER_0_16_195
*1102 FILLER_0_16_197
*1103 FILLER_0_16_225
*1104 FILLER_0_16_237
*1105 FILLER_0_16_249
*1106 FILLER_0_16_26
*1107 FILLER_0_16_273
*1108 FILLER_0_16_3
*1109 FILLER_0_16_53
*1110 FILLER_0_16_79
*1111 FILLER_0_16_83
*1112 FILLER_0_16_85
*1113 FILLER_0_16_9
*1114 FILLER_0_17_11
*1115 FILLER_0_17_110
*1116 FILLER_0_17_129
*1117 FILLER_0_17_141
*1118 FILLER_0_17_154
*1119 FILLER_0_17_166
*1120 FILLER_0_17_177
*1121 FILLER_0_17_183
*1122 FILLER_0_17_190
*1123 FILLER_0_17_194
*1124 FILLER_0_17_207
*1125 FILLER_0_17_215
*1126 FILLER_0_17_223
*1127 FILLER_0_17_225
*1128 FILLER_0_17_233
*1129 FILLER_0_17_25
*1130 FILLER_0_17_258
*1131 FILLER_0_17_262
*1132 FILLER_0_17_266
*1133 FILLER_0_17_29
*1134 FILLER_0_17_3
*1135 FILLER_0_17_304
*1136 FILLER_0_17_38
*1137 FILLER_0_17_50
*1138 FILLER_0_17_89
*1139 FILLER_0_18_107
*1140 FILLER_0_18_134
*1141 FILLER_0_18_141
*1142 FILLER_0_18_15
*1143 FILLER_0_18_161
*1144 FILLER_0_18_173
*1145 FILLER_0_18_185
*1146 FILLER_0_18_221
*1147 FILLER_0_18_227
*1148 FILLER_0_18_245
*1149 FILLER_0_18_251
*1150 FILLER_0_18_253
*1151 FILLER_0_18_259
*1152 FILLER_0_18_27
*1153 FILLER_0_18_29
*1154 FILLER_0_18_3
*1155 FILLER_0_18_300
*1156 FILLER_0_18_41
*1157 FILLER_0_18_65
*1158 FILLER_0_18_80
*1159 FILLER_0_18_85
*1160 FILLER_0_18_97
*1161 FILLER_0_19_101
*1162 FILLER_0_19_11
*1163 FILLER_0_19_113
*1164 FILLER_0_19_123
*1165 FILLER_0_19_135
*1166 FILLER_0_19_165
*1167 FILLER_0_19_169
*1168 FILLER_0_19_175
*1169 FILLER_0_19_182
*1170 FILLER_0_19_190
*1171 FILLER_0_19_199
*1172 FILLER_0_19_249
*1173 FILLER_0_19_261
*1174 FILLER_0_19_269
*1175 FILLER_0_19_278
*1176 FILLER_0_19_288
*1177 FILLER_0_19_3
*1178 FILLER_0_19_30
*1179 FILLER_0_19_300
*1180 FILLER_0_19_38
*1181 FILLER_0_19_77
*1182 FILLER_0_19_89
*1183 FILLER_0_1_105
*1184 FILLER_0_1_111
*1185 FILLER_0_1_113
*1186 FILLER_0_1_137
*1187 FILLER_0_1_149
*1188 FILLER_0_1_15
*1189 FILLER_0_1_161
*1190 FILLER_0_1_167
*1191 FILLER_0_1_169
*1192 FILLER_0_1_179
*1193 FILLER_0_1_191
*1194 FILLER_0_1_203
*1195 FILLER_0_1_220
*1196 FILLER_0_1_225
*1197 FILLER_0_1_237
*1198 FILLER_0_1_249
*1199 FILLER_0_1_261
*1200 FILLER_0_1_27
*1201 FILLER_0_1_273
*1202 FILLER_0_1_279
*1203 FILLER_0_1_281
*1204 FILLER_0_1_293
*1205 FILLER_0_1_3
*1206 FILLER_0_1_305
*1207 FILLER_0_1_39
*1208 FILLER_0_1_51
*1209 FILLER_0_1_55
*1210 FILLER_0_1_57
*1211 FILLER_0_1_69
*1212 FILLER_0_1_81
*1213 FILLER_0_1_93
*1214 FILLER_0_20_109
*1215 FILLER_0_20_132
*1216 FILLER_0_20_141
*1217 FILLER_0_20_148
*1218 FILLER_0_20_15
*1219 FILLER_0_20_172
*1220 FILLER_0_20_181
*1221 FILLER_0_20_190
*1222 FILLER_0_20_202
*1223 FILLER_0_20_214
*1224 FILLER_0_20_22
*1225 FILLER_0_20_251
*1226 FILLER_0_20_253
*1227 FILLER_0_20_265
*1228 FILLER_0_20_271
*1229 FILLER_0_20_281
*1230 FILLER_0_20_293
*1231 FILLER_0_20_3
*1232 FILLER_0_20_305
*1233 FILLER_0_20_46
*1234 FILLER_0_20_81
*1235 FILLER_0_20_85
*1236 FILLER_0_20_97
*1237 FILLER_0_21_109
*1238 FILLER_0_21_123
*1239 FILLER_0_21_135
*1240 FILLER_0_21_143
*1241 FILLER_0_21_15
*1242 FILLER_0_21_166
*1243 FILLER_0_21_169
*1244 FILLER_0_21_196
*1245 FILLER_0_21_202
*1246 FILLER_0_21_21
*1247 FILLER_0_21_210
*1248 FILLER_0_21_222
*1249 FILLER_0_21_225
*1250 FILLER_0_21_250
*1251 FILLER_0_21_262
*1252 FILLER_0_21_278
*1253 FILLER_0_21_285
*1254 FILLER_0_21_293
*1255 FILLER_0_21_297
*1256 FILLER_0_21_3
*1257 FILLER_0_21_40
*1258 FILLER_0_21_51
*1259 FILLER_0_21_55
*1260 FILLER_0_21_57
*1261 FILLER_0_21_85
*1262 FILLER_0_21_97
*1263 FILLER_0_22_11
*1264 FILLER_0_22_141
*1265 FILLER_0_22_147
*1266 FILLER_0_22_151
*1267 FILLER_0_22_160
*1268 FILLER_0_22_204
*1269 FILLER_0_22_217
*1270 FILLER_0_22_242
*1271 FILLER_0_22_250
*1272 FILLER_0_22_253
*1273 FILLER_0_22_261
*1274 FILLER_0_22_288
*1275 FILLER_0_22_299
*1276 FILLER_0_22_3
*1277 FILLER_0_22_305
*1278 FILLER_0_22_90
*1279 FILLER_0_22_98
*1280 FILLER_0_23_110
*1281 FILLER_0_23_113
*1282 FILLER_0_23_134
*1283 FILLER_0_23_146
*1284 FILLER_0_23_15
*1285 FILLER_0_23_154
*1286 FILLER_0_23_160
*1287 FILLER_0_23_174
*1288 FILLER_0_23_196
*1289 FILLER_0_23_208
*1290 FILLER_0_23_223
*1291 FILLER_0_23_230
*1292 FILLER_0_23_251
*1293 FILLER_0_23_263
*1294 FILLER_0_23_27
*1295 FILLER_0_23_279
*1296 FILLER_0_23_281
*1297 FILLER_0_23_3
*1298 FILLER_0_23_305
*1299 FILLER_0_23_49
*1300 FILLER_0_23_55
*1301 FILLER_0_23_79
*1302 FILLER_0_24_139
*1303 FILLER_0_24_15
*1304 FILLER_0_24_165
*1305 FILLER_0_24_185
*1306 FILLER_0_24_193
*1307 FILLER_0_24_197
*1308 FILLER_0_24_211
*1309 FILLER_0_24_230
*1310 FILLER_0_24_251
*1311 FILLER_0_24_253
*1312 FILLER_0_24_261
*1313 FILLER_0_24_27
*1314 FILLER_0_24_29
*1315 FILLER_0_24_3
*1316 FILLER_0_24_302
*1317 FILLER_0_24_37
*1318 FILLER_0_24_41
*1319 FILLER_0_24_70
*1320 FILLER_0_24_78
*1321 FILLER_0_25_108
*1322 FILLER_0_25_127
*1323 FILLER_0_25_15
*1324 FILLER_0_25_166
*1325 FILLER_0_25_178
*1326 FILLER_0_25_187
*1327 FILLER_0_25_199
*1328 FILLER_0_25_205
*1329 FILLER_0_25_216
*1330 FILLER_0_25_239
*1331 FILLER_0_25_251
*1332 FILLER_0_25_27
*1333 FILLER_0_25_279
*1334 FILLER_0_25_281
*1335 FILLER_0_25_293
*1336 FILLER_0_25_3
*1337 FILLER_0_25_305
*1338 FILLER_0_25_39
*1339 FILLER_0_25_51
*1340 FILLER_0_25_55
*1341 FILLER_0_25_57
*1342 FILLER_0_25_69
*1343 FILLER_0_25_81
*1344 FILLER_0_25_87
*1345 FILLER_0_26_109
*1346 FILLER_0_26_126
*1347 FILLER_0_26_138
*1348 FILLER_0_26_15
*1349 FILLER_0_26_150
*1350 FILLER_0_26_190
*1351 FILLER_0_26_202
*1352 FILLER_0_26_215
*1353 FILLER_0_26_241
*1354 FILLER_0_26_249
*1355 FILLER_0_26_253
*1356 FILLER_0_26_261
*1357 FILLER_0_26_267
*1358 FILLER_0_26_27
*1359 FILLER_0_26_29
*1360 FILLER_0_26_292
*1361 FILLER_0_26_3
*1362 FILLER_0_26_304
*1363 FILLER_0_26_41
*1364 FILLER_0_26_53
*1365 FILLER_0_26_61
*1366 FILLER_0_26_79
*1367 FILLER_0_26_83
*1368 FILLER_0_26_85
*1369 FILLER_0_26_97
*1370 FILLER_0_27_108
*1371 FILLER_0_27_113
*1372 FILLER_0_27_125
*1373 FILLER_0_27_137
*1374 FILLER_0_27_15
*1375 FILLER_0_27_150
*1376 FILLER_0_27_178
*1377 FILLER_0_27_211
*1378 FILLER_0_27_217
*1379 FILLER_0_27_223
*1380 FILLER_0_27_228
*1381 FILLER_0_27_240
*1382 FILLER_0_27_252
*1383 FILLER_0_27_27
*1384 FILLER_0_27_284
*1385 FILLER_0_27_298
*1386 FILLER_0_27_3
*1387 FILLER_0_27_55
*1388 FILLER_0_27_74
*1389 FILLER_0_27_78
*1390 FILLER_0_27_96
*1391 FILLER_0_28_123
*1392 FILLER_0_28_135
*1393 FILLER_0_28_139
*1394 FILLER_0_28_141
*1395 FILLER_0_28_145
*1396 FILLER_0_28_15
*1397 FILLER_0_28_154
*1398 FILLER_0_28_160
*1399 FILLER_0_28_166
*1400 FILLER_0_28_170
*1401 FILLER_0_28_184
*1402 FILLER_0_28_217
*1403 FILLER_0_28_222
*1404 FILLER_0_28_234
*1405 FILLER_0_28_246
*1406 FILLER_0_28_27
*1407 FILLER_0_28_29
*1408 FILLER_0_28_299
*1409 FILLER_0_28_3
*1410 FILLER_0_28_305
*1411 FILLER_0_28_37
*1412 FILLER_0_28_82
*1413 FILLER_0_29_129
*1414 FILLER_0_29_141
*1415 FILLER_0_29_145
*1416 FILLER_0_29_15
*1417 FILLER_0_29_157
*1418 FILLER_0_29_165
*1419 FILLER_0_29_169
*1420 FILLER_0_29_183
*1421 FILLER_0_29_19
*1422 FILLER_0_29_23
*1423 FILLER_0_29_241
*1424 FILLER_0_29_279
*1425 FILLER_0_29_281
*1426 FILLER_0_29_288
*1427 FILLER_0_29_3
*1428 FILLER_0_29_300
*1429 FILLER_0_29_33
*1430 FILLER_0_29_48
*1431 FILLER_0_29_57
*1432 FILLER_0_29_95
*1433 FILLER_0_2_109
*1434 FILLER_0_2_15
*1435 FILLER_0_2_152
*1436 FILLER_0_2_193
*1437 FILLER_0_2_200
*1438 FILLER_0_2_232
*1439 FILLER_0_2_244
*1440 FILLER_0_2_253
*1441 FILLER_0_2_265
*1442 FILLER_0_2_27
*1443 FILLER_0_2_277
*1444 FILLER_0_2_289
*1445 FILLER_0_2_29
*1446 FILLER_0_2_3
*1447 FILLER_0_2_301
*1448 FILLER_0_2_305
*1449 FILLER_0_2_41
*1450 FILLER_0_2_53
*1451 FILLER_0_2_65
*1452 FILLER_0_2_77
*1453 FILLER_0_2_83
*1454 FILLER_0_2_85
*1455 FILLER_0_2_97
*1456 FILLER_0_30_11
*1457 FILLER_0_30_128
*1458 FILLER_0_30_138
*1459 FILLER_0_30_150
*1460 FILLER_0_30_162
*1461 FILLER_0_30_193
*1462 FILLER_0_30_205
*1463 FILLER_0_30_220
*1464 FILLER_0_30_230
*1465 FILLER_0_30_242
*1466 FILLER_0_30_246
*1467 FILLER_0_30_275
*1468 FILLER_0_30_287
*1469 FILLER_0_30_299
*1470 FILLER_0_30_3
*1471 FILLER_0_30_305
*1472 FILLER_0_30_69
*1473 FILLER_0_30_82
*1474 FILLER_0_31_104
*1475 FILLER_0_31_164
*1476 FILLER_0_31_169
*1477 FILLER_0_31_186
*1478 FILLER_0_31_194
*1479 FILLER_0_31_206
*1480 FILLER_0_31_223
*1481 FILLER_0_31_233
*1482 FILLER_0_31_241
*1483 FILLER_0_31_268
*1484 FILLER_0_31_281
*1485 FILLER_0_31_293
*1486 FILLER_0_31_3
*1487 FILLER_0_31_305
*1488 FILLER_0_31_31
*1489 FILLER_0_31_53
*1490 FILLER_0_31_64
*1491 FILLER_0_31_76
*1492 FILLER_0_32_120
*1493 FILLER_0_32_128
*1494 FILLER_0_32_15
*1495 FILLER_0_32_165
*1496 FILLER_0_32_185
*1497 FILLER_0_32_193
*1498 FILLER_0_32_197
*1499 FILLER_0_32_203
*1500 FILLER_0_32_207
*1501 FILLER_0_32_240
*1502 FILLER_0_32_27
*1503 FILLER_0_32_276
*1504 FILLER_0_32_288
*1505 FILLER_0_32_3
*1506 FILLER_0_32_300
*1507 FILLER_0_32_37
*1508 FILLER_0_32_74
*1509 FILLER_0_32_82
*1510 FILLER_0_32_85
*1511 FILLER_0_32_97
*1512 FILLER_0_33_100
*1513 FILLER_0_33_113
*1514 FILLER_0_33_125
*1515 FILLER_0_33_137
*1516 FILLER_0_33_15
*1517 FILLER_0_33_158
*1518 FILLER_0_33_166
*1519 FILLER_0_33_169
*1520 FILLER_0_33_187
*1521 FILLER_0_33_195
*1522 FILLER_0_33_207
*1523 FILLER_0_33_215
*1524 FILLER_0_33_223
*1525 FILLER_0_33_225
*1526 FILLER_0_33_237
*1527 FILLER_0_33_264
*1528 FILLER_0_33_27
*1529 FILLER_0_33_276
*1530 FILLER_0_33_281
*1531 FILLER_0_33_293
*1532 FILLER_0_33_3
*1533 FILLER_0_33_305
*1534 FILLER_0_33_38
*1535 FILLER_0_33_54
*1536 FILLER_0_33_65
*1537 FILLER_0_33_73
*1538 FILLER_0_34_101
*1539 FILLER_0_34_113
*1540 FILLER_0_34_125
*1541 FILLER_0_34_137
*1542 FILLER_0_34_141
*1543 FILLER_0_34_147
*1544 FILLER_0_34_15
*1545 FILLER_0_34_168
*1546 FILLER_0_34_178
*1547 FILLER_0_34_187
*1548 FILLER_0_34_197
*1549 FILLER_0_34_214
*1550 FILLER_0_34_223
*1551 FILLER_0_34_235
*1552 FILLER_0_34_247
*1553 FILLER_0_34_253
*1554 FILLER_0_34_258
*1555 FILLER_0_34_27
*1556 FILLER_0_34_270
*1557 FILLER_0_34_282
*1558 FILLER_0_34_29
*1559 FILLER_0_34_294
*1560 FILLER_0_34_3
*1561 FILLER_0_34_41
*1562 FILLER_0_34_53
*1563 FILLER_0_34_57
*1564 FILLER_0_34_69
*1565 FILLER_0_35_106
*1566 FILLER_0_35_113
*1567 FILLER_0_35_128
*1568 FILLER_0_35_140
*1569 FILLER_0_35_15
*1570 FILLER_0_35_183
*1571 FILLER_0_35_223
*1572 FILLER_0_35_237
*1573 FILLER_0_35_249
*1574 FILLER_0_35_261
*1575 FILLER_0_35_27
*1576 FILLER_0_35_273
*1577 FILLER_0_35_279
*1578 FILLER_0_35_281
*1579 FILLER_0_35_293
*1580 FILLER_0_35_3
*1581 FILLER_0_35_305
*1582 FILLER_0_35_39
*1583 FILLER_0_35_43
*1584 FILLER_0_35_47
*1585 FILLER_0_35_51
*1586 FILLER_0_35_55
*1587 FILLER_0_35_57
*1588 FILLER_0_35_69
*1589 FILLER_0_35_76
*1590 FILLER_0_35_83
*1591 FILLER_0_35_93
*1592 FILLER_0_36_106
*1593 FILLER_0_36_15
*1594 FILLER_0_36_168
*1595 FILLER_0_36_186
*1596 FILLER_0_36_195
*1597 FILLER_0_36_207
*1598 FILLER_0_36_215
*1599 FILLER_0_36_248
*1600 FILLER_0_36_253
*1601 FILLER_0_36_265
*1602 FILLER_0_36_27
*1603 FILLER_0_36_277
*1604 FILLER_0_36_289
*1605 FILLER_0_36_29
*1606 FILLER_0_36_3
*1607 FILLER_0_36_301
*1608 FILLER_0_36_305
*1609 FILLER_0_36_33
*1610 FILLER_0_36_37
*1611 FILLER_0_36_72
*1612 FILLER_0_36_85
*1613 FILLER_0_36_97
*1614 FILLER_0_37_135
*1615 FILLER_0_37_143
*1616 FILLER_0_37_15
*1617 FILLER_0_37_178
*1618 FILLER_0_37_215
*1619 FILLER_0_37_222
*1620 FILLER_0_37_23
*1621 FILLER_0_37_243
*1622 FILLER_0_37_255
*1623 FILLER_0_37_267
*1624 FILLER_0_37_279
*1625 FILLER_0_37_281
*1626 FILLER_0_37_293
*1627 FILLER_0_37_3
*1628 FILLER_0_37_305
*1629 FILLER_0_37_66
*1630 FILLER_0_37_79
*1631 FILLER_0_37_91
*1632 FILLER_0_38_113
*1633 FILLER_0_38_137
*1634 FILLER_0_38_149
*1635 FILLER_0_38_15
*1636 FILLER_0_38_161
*1637 FILLER_0_38_168
*1638 FILLER_0_38_174
*1639 FILLER_0_38_178
*1640 FILLER_0_38_190
*1641 FILLER_0_38_197
*1642 FILLER_0_38_209
*1643 FILLER_0_38_221
*1644 FILLER_0_38_23
*1645 FILLER_0_38_247
*1646 FILLER_0_38_251
*1647 FILLER_0_38_253
*1648 FILLER_0_38_265
*1649 FILLER_0_38_277
*1650 FILLER_0_38_289
*1651 FILLER_0_38_29
*1652 FILLER_0_38_3
*1653 FILLER_0_38_301
*1654 FILLER_0_38_305
*1655 FILLER_0_38_58
*1656 FILLER_0_38_74
*1657 FILLER_0_38_82
*1658 FILLER_0_38_85
*1659 FILLER_0_38_89
*1660 FILLER_0_39_15
*1661 FILLER_0_39_158
*1662 FILLER_0_39_167
*1663 FILLER_0_39_169
*1664 FILLER_0_39_181
*1665 FILLER_0_39_193
*1666 FILLER_0_39_199
*1667 FILLER_0_39_211
*1668 FILLER_0_39_225
*1669 FILLER_0_39_231
*1670 FILLER_0_39_247
*1671 FILLER_0_39_259
*1672 FILLER_0_39_27
*1673 FILLER_0_39_271
*1674 FILLER_0_39_279
*1675 FILLER_0_39_281
*1676 FILLER_0_39_293
*1677 FILLER_0_39_3
*1678 FILLER_0_39_305
*1679 FILLER_0_39_54
*1680 FILLER_0_39_64
*1681 FILLER_0_39_77
*1682 FILLER_0_3_105
*1683 FILLER_0_3_111
*1684 FILLER_0_3_113
*1685 FILLER_0_3_135
*1686 FILLER_0_3_15
*1687 FILLER_0_3_155
*1688 FILLER_0_3_188
*1689 FILLER_0_3_242
*1690 FILLER_0_3_254
*1691 FILLER_0_3_266
*1692 FILLER_0_3_27
*1693 FILLER_0_3_278
*1694 FILLER_0_3_281
*1695 FILLER_0_3_293
*1696 FILLER_0_3_3
*1697 FILLER_0_3_305
*1698 FILLER_0_3_39
*1699 FILLER_0_3_51
*1700 FILLER_0_3_55
*1701 FILLER_0_3_57
*1702 FILLER_0_3_69
*1703 FILLER_0_3_81
*1704 FILLER_0_3_93
*1705 FILLER_0_40_106
*1706 FILLER_0_40_131
*1707 FILLER_0_40_139
*1708 FILLER_0_40_141
*1709 FILLER_0_40_15
*1710 FILLER_0_40_157
*1711 FILLER_0_40_181
*1712 FILLER_0_40_193
*1713 FILLER_0_40_220
*1714 FILLER_0_40_228
*1715 FILLER_0_40_250
*1716 FILLER_0_40_253
*1717 FILLER_0_40_265
*1718 FILLER_0_40_27
*1719 FILLER_0_40_277
*1720 FILLER_0_40_289
*1721 FILLER_0_40_29
*1722 FILLER_0_40_3
*1723 FILLER_0_40_301
*1724 FILLER_0_40_305
*1725 FILLER_0_40_45
*1726 FILLER_0_40_53
*1727 FILLER_0_40_81
*1728 FILLER_0_41_107
*1729 FILLER_0_41_111
*1730 FILLER_0_41_113
*1731 FILLER_0_41_15
*1732 FILLER_0_41_176
*1733 FILLER_0_41_219
*1734 FILLER_0_41_223
*1735 FILLER_0_41_253
*1736 FILLER_0_41_265
*1737 FILLER_0_41_27
*1738 FILLER_0_41_277
*1739 FILLER_0_41_281
*1740 FILLER_0_41_293
*1741 FILLER_0_41_3
*1742 FILLER_0_41_305
*1743 FILLER_0_41_34
*1744 FILLER_0_41_46
*1745 FILLER_0_41_54
*1746 FILLER_0_41_57
*1747 FILLER_0_41_65
*1748 FILLER_0_41_73
*1749 FILLER_0_41_83
*1750 FILLER_0_42_120
*1751 FILLER_0_42_132
*1752 FILLER_0_42_141
*1753 FILLER_0_42_15
*1754 FILLER_0_42_183
*1755 FILLER_0_42_195
*1756 FILLER_0_42_197
*1757 FILLER_0_42_23
*1758 FILLER_0_42_253
*1759 FILLER_0_42_265
*1760 FILLER_0_42_277
*1761 FILLER_0_42_289
*1762 FILLER_0_42_3
*1763 FILLER_0_42_301
*1764 FILLER_0_42_305
*1765 FILLER_0_42_62
*1766 FILLER_0_42_66
*1767 FILLER_0_42_83
*1768 FILLER_0_42_85
*1769 FILLER_0_42_97
*1770 FILLER_0_43_109
*1771 FILLER_0_43_125
*1772 FILLER_0_43_137
*1773 FILLER_0_43_15
*1774 FILLER_0_43_165
*1775 FILLER_0_43_169
*1776 FILLER_0_43_173
*1777 FILLER_0_43_179
*1778 FILLER_0_43_187
*1779 FILLER_0_43_194
*1780 FILLER_0_43_215
*1781 FILLER_0_43_223
*1782 FILLER_0_43_225
*1783 FILLER_0_43_237
*1784 FILLER_0_43_249
*1785 FILLER_0_43_261
*1786 FILLER_0_43_27
*1787 FILLER_0_43_273
*1788 FILLER_0_43_279
*1789 FILLER_0_43_281
*1790 FILLER_0_43_293
*1791 FILLER_0_43_3
*1792 FILLER_0_43_305
*1793 FILLER_0_43_52
*1794 FILLER_0_43_57
*1795 FILLER_0_43_83
*1796 FILLER_0_43_95
*1797 FILLER_0_44_135
*1798 FILLER_0_44_139
*1799 FILLER_0_44_141
*1800 FILLER_0_44_15
*1801 FILLER_0_44_153
*1802 FILLER_0_44_157
*1803 FILLER_0_44_165
*1804 FILLER_0_44_169
*1805 FILLER_0_44_175
*1806 FILLER_0_44_183
*1807 FILLER_0_44_189
*1808 FILLER_0_44_195
*1809 FILLER_0_44_197
*1810 FILLER_0_44_209
*1811 FILLER_0_44_221
*1812 FILLER_0_44_233
*1813 FILLER_0_44_245
*1814 FILLER_0_44_251
*1815 FILLER_0_44_253
*1816 FILLER_0_44_265
*1817 FILLER_0_44_27
*1818 FILLER_0_44_277
*1819 FILLER_0_44_289
*1820 FILLER_0_44_29
*1821 FILLER_0_44_3
*1822 FILLER_0_44_301
*1823 FILLER_0_44_305
*1824 FILLER_0_44_41
*1825 FILLER_0_44_49
*1826 FILLER_0_44_79
*1827 FILLER_0_44_83
*1828 FILLER_0_44_85
*1829 FILLER_0_44_93
*1830 FILLER_0_45_108
*1831 FILLER_0_45_128
*1832 FILLER_0_45_140
*1833 FILLER_0_45_15
*1834 FILLER_0_45_152
*1835 FILLER_0_45_166
*1836 FILLER_0_45_169
*1837 FILLER_0_45_181
*1838 FILLER_0_45_185
*1839 FILLER_0_45_202
*1840 FILLER_0_45_214
*1841 FILLER_0_45_222
*1842 FILLER_0_45_225
*1843 FILLER_0_45_237
*1844 FILLER_0_45_249
*1845 FILLER_0_45_261
*1846 FILLER_0_45_27
*1847 FILLER_0_45_273
*1848 FILLER_0_45_279
*1849 FILLER_0_45_281
*1850 FILLER_0_45_293
*1851 FILLER_0_45_3
*1852 FILLER_0_45_305
*1853 FILLER_0_45_39
*1854 FILLER_0_45_51
*1855 FILLER_0_45_82
*1856 FILLER_0_45_88
*1857 FILLER_0_46_125
*1858 FILLER_0_46_137
*1859 FILLER_0_46_141
*1860 FILLER_0_46_145
*1861 FILLER_0_46_15
*1862 FILLER_0_46_170
*1863 FILLER_0_46_180
*1864 FILLER_0_46_213
*1865 FILLER_0_46_225
*1866 FILLER_0_46_237
*1867 FILLER_0_46_249
*1868 FILLER_0_46_253
*1869 FILLER_0_46_265
*1870 FILLER_0_46_27
*1871 FILLER_0_46_277
*1872 FILLER_0_46_289
*1873 FILLER_0_46_29
*1874 FILLER_0_46_3
*1875 FILLER_0_46_301
*1876 FILLER_0_46_305
*1877 FILLER_0_46_41
*1878 FILLER_0_46_53
*1879 FILLER_0_46_57
*1880 FILLER_0_46_61
*1881 FILLER_0_46_71
*1882 FILLER_0_46_83
*1883 FILLER_0_46_85
*1884 FILLER_0_46_89
*1885 FILLER_0_46_93
*1886 FILLER_0_47_111
*1887 FILLER_0_47_15
*1888 FILLER_0_47_187
*1889 FILLER_0_47_206
*1890 FILLER_0_47_218
*1891 FILLER_0_47_225
*1892 FILLER_0_47_237
*1893 FILLER_0_47_249
*1894 FILLER_0_47_261
*1895 FILLER_0_47_27
*1896 FILLER_0_47_273
*1897 FILLER_0_47_279
*1898 FILLER_0_47_281
*1899 FILLER_0_47_293
*1900 FILLER_0_47_3
*1901 FILLER_0_47_305
*1902 FILLER_0_47_39
*1903 FILLER_0_47_51
*1904 FILLER_0_47_55
*1905 FILLER_0_47_57
*1906 FILLER_0_47_69
*1907 FILLER_0_47_81
*1908 FILLER_0_48_130
*1909 FILLER_0_48_15
*1910 FILLER_0_48_195
*1911 FILLER_0_48_205
*1912 FILLER_0_48_217
*1913 FILLER_0_48_229
*1914 FILLER_0_48_241
*1915 FILLER_0_48_249
*1916 FILLER_0_48_253
*1917 FILLER_0_48_265
*1918 FILLER_0_48_27
*1919 FILLER_0_48_277
*1920 FILLER_0_48_289
*1921 FILLER_0_48_29
*1922 FILLER_0_48_3
*1923 FILLER_0_48_301
*1924 FILLER_0_48_305
*1925 FILLER_0_48_41
*1926 FILLER_0_48_53
*1927 FILLER_0_48_65
*1928 FILLER_0_48_77
*1929 FILLER_0_48_83
*1930 FILLER_0_48_85
*1931 FILLER_0_49_101
*1932 FILLER_0_49_129
*1933 FILLER_0_49_15
*1934 FILLER_0_49_165
*1935 FILLER_0_49_193
*1936 FILLER_0_49_205
*1937 FILLER_0_49_217
*1938 FILLER_0_49_223
*1939 FILLER_0_49_225
*1940 FILLER_0_49_237
*1941 FILLER_0_49_249
*1942 FILLER_0_49_261
*1943 FILLER_0_49_27
*1944 FILLER_0_49_273
*1945 FILLER_0_49_279
*1946 FILLER_0_49_281
*1947 FILLER_0_49_293
*1948 FILLER_0_49_3
*1949 FILLER_0_49_305
*1950 FILLER_0_49_39
*1951 FILLER_0_49_51
*1952 FILLER_0_49_55
*1953 FILLER_0_49_57
*1954 FILLER_0_49_69
*1955 FILLER_0_49_81
*1956 FILLER_0_49_93
*1957 FILLER_0_4_109
*1958 FILLER_0_4_138
*1959 FILLER_0_4_149
*1960 FILLER_0_4_15
*1961 FILLER_0_4_174
*1962 FILLER_0_4_191
*1963 FILLER_0_4_195
*1964 FILLER_0_4_197
*1965 FILLER_0_4_236
*1966 FILLER_0_4_248
*1967 FILLER_0_4_253
*1968 FILLER_0_4_265
*1969 FILLER_0_4_27
*1970 FILLER_0_4_277
*1971 FILLER_0_4_289
*1972 FILLER_0_4_29
*1973 FILLER_0_4_3
*1974 FILLER_0_4_301
*1975 FILLER_0_4_305
*1976 FILLER_0_4_41
*1977 FILLER_0_4_53
*1978 FILLER_0_4_65
*1979 FILLER_0_4_77
*1980 FILLER_0_4_83
*1981 FILLER_0_4_85
*1982 FILLER_0_4_97
*1983 FILLER_0_50_112
*1984 FILLER_0_50_124
*1985 FILLER_0_50_135
*1986 FILLER_0_50_139
*1987 FILLER_0_50_15
*1988 FILLER_0_50_157
*1989 FILLER_0_50_169
*1990 FILLER_0_50_177
*1991 FILLER_0_50_182
*1992 FILLER_0_50_194
*1993 FILLER_0_50_197
*1994 FILLER_0_50_209
*1995 FILLER_0_50_221
*1996 FILLER_0_50_233
*1997 FILLER_0_50_245
*1998 FILLER_0_50_251
*1999 FILLER_0_50_253
*2000 FILLER_0_50_265
*2001 FILLER_0_50_27
*2002 FILLER_0_50_277
*2003 FILLER_0_50_289
*2004 FILLER_0_50_29
*2005 FILLER_0_50_3
*2006 FILLER_0_50_301
*2007 FILLER_0_50_305
*2008 FILLER_0_50_41
*2009 FILLER_0_50_53
*2010 FILLER_0_50_65
*2011 FILLER_0_50_77
*2012 FILLER_0_50_83
*2013 FILLER_0_50_85
*2014 FILLER_0_50_97
*2015 FILLER_0_51_109
*2016 FILLER_0_51_113
*2017 FILLER_0_51_125
*2018 FILLER_0_51_137
*2019 FILLER_0_51_141
*2020 FILLER_0_51_15
*2021 FILLER_0_51_153
*2022 FILLER_0_51_165
*2023 FILLER_0_51_169
*2024 FILLER_0_51_181
*2025 FILLER_0_51_195
*2026 FILLER_0_51_197
*2027 FILLER_0_51_209
*2028 FILLER_0_51_221
*2029 FILLER_0_51_225
*2030 FILLER_0_51_237
*2031 FILLER_0_51_249
*2032 FILLER_0_51_253
*2033 FILLER_0_51_265
*2034 FILLER_0_51_27
*2035 FILLER_0_51_277
*2036 FILLER_0_51_281
*2037 FILLER_0_51_29
*2038 FILLER_0_51_293
*2039 FILLER_0_51_3
*2040 FILLER_0_51_305
*2041 FILLER_0_51_41
*2042 FILLER_0_51_53
*2043 FILLER_0_51_57
*2044 FILLER_0_51_69
*2045 FILLER_0_51_81
*2046 FILLER_0_51_85
*2047 FILLER_0_51_97
*2048 FILLER_0_5_105
*2049 FILLER_0_5_111
*2050 FILLER_0_5_113
*2051 FILLER_0_5_117
*2052 FILLER_0_5_121
*2053 FILLER_0_5_15
*2054 FILLER_0_5_150
*2055 FILLER_0_5_195
*2056 FILLER_0_5_203
*2057 FILLER_0_5_223
*2058 FILLER_0_5_241
*2059 FILLER_0_5_253
*2060 FILLER_0_5_265
*2061 FILLER_0_5_27
*2062 FILLER_0_5_277
*2063 FILLER_0_5_281
*2064 FILLER_0_5_293
*2065 FILLER_0_5_3
*2066 FILLER_0_5_305
*2067 FILLER_0_5_39
*2068 FILLER_0_5_51
*2069 FILLER_0_5_55
*2070 FILLER_0_5_57
*2071 FILLER_0_5_69
*2072 FILLER_0_5_81
*2073 FILLER_0_5_93
*2074 FILLER_0_6_109
*2075 FILLER_0_6_121
*2076 FILLER_0_6_129
*2077 FILLER_0_6_138
*2078 FILLER_0_6_148
*2079 FILLER_0_6_15
*2080 FILLER_0_6_160
*2081 FILLER_0_6_187
*2082 FILLER_0_6_195
*2083 FILLER_0_6_205
*2084 FILLER_0_6_247
*2085 FILLER_0_6_251
*2086 FILLER_0_6_253
*2087 FILLER_0_6_265
*2088 FILLER_0_6_27
*2089 FILLER_0_6_277
*2090 FILLER_0_6_289
*2091 FILLER_0_6_29
*2092 FILLER_0_6_3
*2093 FILLER_0_6_301
*2094 FILLER_0_6_305
*2095 FILLER_0_6_41
*2096 FILLER_0_6_49
*2097 FILLER_0_6_68
*2098 FILLER_0_6_80
*2099 FILLER_0_6_85
*2100 FILLER_0_6_97
*2101 FILLER_0_7_105
*2102 FILLER_0_7_110
*2103 FILLER_0_7_116
*2104 FILLER_0_7_128
*2105 FILLER_0_7_132
*2106 FILLER_0_7_136
*2107 FILLER_0_7_15
*2108 FILLER_0_7_153
*2109 FILLER_0_7_159
*2110 FILLER_0_7_166
*2111 FILLER_0_7_169
*2112 FILLER_0_7_178
*2113 FILLER_0_7_190
*2114 FILLER_0_7_202
*2115 FILLER_0_7_216
*2116 FILLER_0_7_220
*2117 FILLER_0_7_234
*2118 FILLER_0_7_258
*2119 FILLER_0_7_27
*2120 FILLER_0_7_270
*2121 FILLER_0_7_278
*2122 FILLER_0_7_281
*2123 FILLER_0_7_293
*2124 FILLER_0_7_3
*2125 FILLER_0_7_305
*2126 FILLER_0_7_39
*2127 FILLER_0_7_73
*2128 FILLER_0_7_97
*2129 FILLER_0_8_15
*2130 FILLER_0_8_161
*2131 FILLER_0_8_165
*2132 FILLER_0_8_182
*2133 FILLER_0_8_194
*2134 FILLER_0_8_197
*2135 FILLER_0_8_202
*2136 FILLER_0_8_220
*2137 FILLER_0_8_23
*2138 FILLER_0_8_232
*2139 FILLER_0_8_242
*2140 FILLER_0_8_250
*2141 FILLER_0_8_253
*2142 FILLER_0_8_259
*2143 FILLER_0_8_280
*2144 FILLER_0_8_29
*2145 FILLER_0_8_292
*2146 FILLER_0_8_3
*2147 FILLER_0_8_304
*2148 FILLER_0_9_113
*2149 FILLER_0_9_15
*2150 FILLER_0_9_150
*2151 FILLER_0_9_185
*2152 FILLER_0_9_189
*2153 FILLER_0_9_221
*2154 FILLER_0_9_225
*2155 FILLER_0_9_233
*2156 FILLER_0_9_262
*2157 FILLER_0_9_274
*2158 FILLER_0_9_3
*2159 FILLER_0_9_301
*2160 FILLER_0_9_305
*2161 FILLER_0_9_53
*2162 FILLER_0_9_93
*2163 PHY_0
*2164 PHY_1
*2165 PHY_10
*2166 PHY_100
*2167 PHY_101
*2168 PHY_102
*2169 PHY_103
*2170 PHY_11
*2171 PHY_12
*2172 PHY_13
*2173 PHY_14
*2174 PHY_15
*2175 PHY_16
*2176 PHY_17
*2177 PHY_18
*2178 PHY_19
*2179 PHY_2
*2180 PHY_20
*2181 PHY_21
*2182 PHY_22
*2183 PHY_23
*2184 PHY_24
*2185 PHY_25
*2186 PHY_26
*2187 PHY_27
*2188 PHY_28
*2189 PHY_29
*2190 PHY_3
*2191 PHY_30
*2192 PHY_31
*2193 PHY_32
*2194 PHY_33
*2195 PHY_34
*2196 PHY_35
*2197 PHY_36
*2198 PHY_37
*2199 PHY_38
*2200 PHY_39
*2201 PHY_4
*2202 PHY_40
*2203 PHY_41
*2204 PHY_42
*2205 PHY_43
*2206 PHY_44
*2207 PHY_45
*2208 PHY_46
*2209 PHY_47
*2210 PHY_48
*2211 PHY_49
*2212 PHY_5
*2213 PHY_50
*2214 PHY_51
*2215 PHY_52
*2216 PHY_53
*2217 PHY_54
*2218 PHY_55
*2219 PHY_56
*2220 PHY_57
*2221 PHY_58
*2222 PHY_59
*2223 PHY_6
*2224 PHY_60
*2225 PHY_61
*2226 PHY_62
*2227 PHY_63
*2228 PHY_64
*2229 PHY_65
*2230 PHY_66
*2231 PHY_67
*2232 PHY_68
*2233 PHY_69
*2234 PHY_7
*2235 PHY_70
*2236 PHY_71
*2237 PHY_72
*2238 PHY_73
*2239 PHY_74
*2240 PHY_75
*2241 PHY_76
*2242 PHY_77
*2243 PHY_78
*2244 PHY_79
*2245 PHY_8
*2246 PHY_80
*2247 PHY_81
*2248 PHY_82
*2249 PHY_83
*2250 PHY_84
*2251 PHY_85
*2252 PHY_86
*2253 PHY_87
*2254 PHY_88
*2255 PHY_89
*2256 PHY_9
*2257 PHY_90
*2258 PHY_91
*2259 PHY_92
*2260 PHY_93
*2261 PHY_94
*2262 PHY_95
*2263 PHY_96
*2264 PHY_97
*2265 PHY_98
*2266 PHY_99
*2267 TAP_104
*2268 TAP_105
*2269 TAP_106
*2270 TAP_107
*2271 TAP_108
*2272 TAP_109
*2273 TAP_110
*2274 TAP_111
*2275 TAP_112
*2276 TAP_113
*2277 TAP_114
*2278 TAP_115
*2279 TAP_116
*2280 TAP_117
*2281 TAP_118
*2282 TAP_119
*2283 TAP_120
*2284 TAP_121
*2285 TAP_122
*2286 TAP_123
*2287 TAP_124
*2288 TAP_125
*2289 TAP_126
*2290 TAP_127
*2291 TAP_128
*2292 TAP_129
*2293 TAP_130
*2294 TAP_131
*2295 TAP_132
*2296 TAP_133
*2297 TAP_134
*2298 TAP_135
*2299 TAP_136
*2300 TAP_137
*2301 TAP_138
*2302 TAP_139
*2303 TAP_140
*2304 TAP_141
*2305 TAP_142
*2306 TAP_143
*2307 TAP_144
*2308 TAP_145
*2309 TAP_146
*2310 TAP_147
*2311 TAP_148
*2312 TAP_149
*2313 TAP_150
*2314 TAP_151
*2315 TAP_152
*2316 TAP_153
*2317 TAP_154
*2318 TAP_155
*2319 TAP_156
*2320 TAP_157
*2321 TAP_158
*2322 TAP_159
*2323 TAP_160
*2324 TAP_161
*2325 TAP_162
*2326 TAP_163
*2327 TAP_164
*2328 TAP_165
*2329 TAP_166
*2330 TAP_167
*2331 TAP_168
*2332 TAP_169
*2333 TAP_170
*2334 TAP_171
*2335 TAP_172
*2336 TAP_173
*2337 TAP_174
*2338 TAP_175
*2339 TAP_176
*2340 TAP_177
*2341 TAP_178
*2342 TAP_179
*2343 TAP_180
*2344 TAP_181
*2345 TAP_182
*2346 TAP_183
*2347 TAP_184
*2348 TAP_185
*2349 TAP_186
*2350 TAP_187
*2351 TAP_188
*2352 TAP_189
*2353 TAP_190
*2354 TAP_191
*2355 TAP_192
*2356 TAP_193
*2357 TAP_194
*2358 TAP_195
*2359 TAP_196
*2360 TAP_197
*2361 TAP_198
*2362 TAP_199
*2363 TAP_200
*2364 TAP_201
*2365 TAP_202
*2366 TAP_203
*2367 TAP_204
*2368 TAP_205
*2369 TAP_206
*2370 TAP_207
*2371 TAP_208
*2372 TAP_209
*2373 TAP_210
*2374 TAP_211
*2375 TAP_212
*2376 TAP_213
*2377 TAP_214
*2378 TAP_215
*2379 TAP_216
*2380 TAP_217
*2381 TAP_218
*2382 TAP_219
*2383 TAP_220
*2384 TAP_221
*2385 TAP_222
*2386 TAP_223
*2387 TAP_224
*2388 TAP_225
*2389 TAP_226
*2390 TAP_227
*2391 TAP_228
*2392 TAP_229
*2393 TAP_230
*2394 TAP_231
*2395 TAP_232
*2396 TAP_233
*2397 TAP_234
*2398 TAP_235
*2399 TAP_236
*2400 TAP_237
*2401 TAP_238
*2402 TAP_239
*2403 TAP_240
*2404 TAP_241
*2405 TAP_242
*2406 TAP_243
*2407 TAP_244
*2408 TAP_245
*2409 TAP_246
*2410 TAP_247
*2411 TAP_248
*2412 TAP_249
*2413 TAP_250
*2414 TAP_251
*2415 TAP_252
*2416 TAP_253
*2417 TAP_254
*2418 TAP_255
*2419 TAP_256
*2420 TAP_257
*2421 TAP_258
*2422 TAP_259
*2423 TAP_260
*2424 TAP_261
*2425 TAP_262
*2426 TAP_263
*2427 TAP_264
*2428 TAP_265
*2429 TAP_266
*2430 TAP_267
*2431 TAP_268
*2432 TAP_269
*2433 TAP_270
*2434 TAP_271
*2435 TAP_272
*2436 TAP_273
*2437 TAP_274
*2438 TAP_275
*2439 TAP_276
*2440 TAP_277
*2441 TAP_278
*2442 TAP_279
*2443 TAP_280
*2444 TAP_281
*2445 TAP_282
*2446 TAP_283
*2447 TAP_284
*2448 TAP_285
*2449 TAP_286
*2450 TAP_287
*2451 TAP_288
*2452 TAP_289
*2453 TAP_290
*2454 TAP_291
*2455 TAP_292
*2456 TAP_293
*2457 TAP_294
*2458 TAP_295
*2459 TAP_296
*2460 TAP_297
*2461 TAP_298
*2462 TAP_299
*2463 TAP_300
*2464 TAP_301
*2465 TAP_302
*2466 TAP_303
*2467 TAP_304
*2468 TAP_305
*2469 TAP_306
*2470 TAP_307
*2471 TAP_308
*2472 TAP_309
*2473 TAP_310
*2474 TAP_311
*2475 TAP_312
*2476 TAP_313
*2477 TAP_314
*2478 TAP_315
*2479 TAP_316
*2480 TAP_317
*2481 TAP_318
*2482 TAP_319
*2483 TAP_320
*2484 TAP_321
*2485 TAP_322
*2486 TAP_323
*2487 TAP_324
*2488 TAP_325
*2489 TAP_326
*2490 TAP_327
*2491 TAP_328
*2492 TAP_329
*2493 TAP_330
*2494 TAP_331
*2495 TAP_332
*2496 TAP_333
*2497 TAP_334
*2498 TAP_335
*2499 TAP_336
*2500 TAP_337
*2501 TAP_338
*2502 TAP_339
*2503 TAP_340
*2504 TAP_341
*2505 TAP_342
*2506 TAP_343
*2507 TAP_344
*2508 TAP_345
*2509 TAP_346
*2510 TAP_347
*2511 TAP_348
*2512 TAP_349
*2513 TAP_350
*2514 TAP_351
*2515 TAP_352
*2516 TAP_353
*2517 TAP_354
*2518 TAP_355
*2519 TAP_356
*2520 TAP_357
*2521 TAP_358
*2522 TAP_359
*2523 TAP_360
*2524 TAP_361
*2525 TAP_362
*2526 TAP_363
*2527 TAP_364
*2528 TAP_365
*2529 TAP_366
*2530 TAP_367
*2531 TAP_368
*2532 TAP_369
*2533 TAP_370
*2534 TAP_371
*2535 TAP_372
*2536 TAP_373
*2537 _0582_
*2538 _0583_
*2539 _0584_
*2540 _0585_
*2541 _0586_
*2542 _0587_
*2543 _0588_
*2544 _0589_
*2545 _0590_
*2546 _0591_
*2547 _0592_
*2548 _0593_
*2549 _0594_
*2550 _0595_
*2551 _0596_
*2552 _0597_
*2553 _0598_
*2554 _0599_
*2555 _0600_
*2556 _0601_
*2557 _0602_
*2558 _0603_
*2559 _0604_
*2560 _0605_
*2561 _0606_
*2562 _0607_
*2563 _0608_
*2564 _0609_
*2565 _0610_
*2566 _0611_
*2567 _0612_
*2568 _0613_
*2569 _0614_
*2570 _0615_
*2571 _0616_
*2572 _0617_
*2573 _0618_
*2574 _0619_
*2575 _0620_
*2576 _0621_
*2577 _0622_
*2578 _0623_
*2579 _0624_
*2580 _0625_
*2581 _0626_
*2582 _0627_
*2583 _0628_
*2584 _0629_
*2585 _0630_
*2586 _0631_
*2587 _0632_
*2588 _0633_
*2589 _0634_
*2590 _0635_
*2591 _0636_
*2592 _0637_
*2593 _0638_
*2594 _0639_
*2595 _0640_
*2596 _0641_
*2597 _0642_
*2598 _0643_
*2599 _0644_
*2600 _0645_
*2601 _0646_
*2602 _0647_
*2603 _0648_
*2604 _0649_
*2605 _0650_
*2606 _0651_
*2607 _0652_
*2608 _0653_
*2609 _0654_
*2610 _0655_
*2611 _0656_
*2612 _0657_
*2613 _0658_
*2614 _0659_
*2615 _0660_
*2616 _0661_
*2617 _0662_
*2618 _0663_
*2619 _0664_
*2620 _0665_
*2621 _0666_
*2622 _0667_
*2623 _0668_
*2624 _0669_
*2625 _0670_
*2626 _0671_
*2627 _0672_
*2628 _0673_
*2629 _0674_
*2630 _0675_
*2631 _0676_
*2632 _0677_
*2633 _0678_
*2634 _0679_
*2635 _0680_
*2636 _0681_
*2637 _0682_
*2638 _0683_
*2639 _0684_
*2640 _0685_
*2641 _0686_
*2642 _0687_
*2643 _0688_
*2644 _0689_
*2645 _0690_
*2646 _0691_
*2647 _0692_
*2648 _0693_
*2649 _0694_
*2650 _0695_
*2651 _0696_
*2652 _0697_
*2653 _0698_
*2654 _0699_
*2655 _0700_
*2656 _0701_
*2657 _0702_
*2658 _0703_
*2659 _0704_
*2660 _0705_
*2661 _0706_
*2662 _0707_
*2663 _0708_
*2664 _0709_
*2665 _0710_
*2666 _0711_
*2667 _0712_
*2668 _0713_
*2669 _0714_
*2670 _0715_
*2671 _0716_
*2672 _0717_
*2673 _0718_
*2674 _0719_
*2675 _0720_
*2676 _0721_
*2677 _0722_
*2678 _0723_
*2679 _0724_
*2680 _0725_
*2681 _0726_
*2682 _0727_
*2683 _0728_
*2684 _0729_
*2685 _0730_
*2686 _0731_
*2687 _0732_
*2688 _0733_
*2689 _0734_
*2690 _0735_
*2691 _0736_
*2692 _0737_
*2693 _0738_
*2694 _0739_
*2695 _0740_
*2696 _0741_
*2697 _0742_
*2698 _0743_
*2699 _0744_
*2700 _0745_
*2701 _0746_
*2702 _0747_
*2703 _0748_
*2704 _0749_
*2705 _0750_
*2706 _0751_
*2707 _0752_
*2708 _0753_
*2709 _0754_
*2710 _0755_
*2711 _0756_
*2712 _0757_
*2713 _0758_
*2714 _0759_
*2715 _0760_
*2716 _0761_
*2717 _0762_
*2718 _0763_
*2719 _0764_
*2720 _0765_
*2721 _0766_
*2722 _0767_
*2723 _0768_
*2724 _0769_
*2725 _0770_
*2726 _0771_
*2727 _0772_
*2728 _0773_
*2729 _0774_
*2730 _0775_
*2731 _0776_
*2732 _0777_
*2733 _0778_
*2734 _0779_
*2735 _0780_
*2736 _0781_
*2737 _0782_
*2738 _0783_
*2739 _0784_
*2740 _0785_
*2741 _0786_
*2742 _0787_
*2743 _0788_
*2744 _0789_
*2745 _0790_
*2746 _0791_
*2747 _0792_
*2748 _0793_
*2749 _0794_
*2750 _0795_
*2751 _0796_
*2752 _0797_
*2753 _0798_
*2754 _0799_
*2755 _0800_
*2756 _0801_
*2757 _0802_
*2758 _0803_
*2759 _0804_
*2760 _0805_
*2761 _0806_
*2762 _0807_
*2763 _0808_
*2764 _0809_
*2765 _0810_
*2766 _0811_
*2767 _0812_
*2768 _0813_
*2769 _0814_
*2770 _0815_
*2771 _0816_
*2772 _0817_
*2773 _0818_
*2774 _0819_
*2775 _0820_
*2776 _0821_
*2777 _0822_
*2778 _0823_
*2779 _0824_
*2780 _0825_
*2781 _0826_
*2782 _0827_
*2783 _0828_
*2784 _0829_
*2785 _0830_
*2786 _0831_
*2787 _0832_
*2788 _0833_
*2789 _0834_
*2790 _0835_
*2791 _0836_
*2792 _0837_
*2793 _0838_
*2794 _0839_
*2795 _0840_
*2796 _0841_
*2797 _0842_
*2798 _0843_
*2799 _0844_
*2800 _0845_
*2801 _0846_
*2802 _0847_
*2803 _0848_
*2804 _0849_
*2805 _0850_
*2806 _0851_
*2807 _0852_
*2808 _0853_
*2809 _0854_
*2810 _0855_
*2811 _0856_
*2812 _0857_
*2813 _0858_
*2814 _0859_
*2815 _0860_
*2816 _0861_
*2817 _0862_
*2818 _0863_
*2819 _0864_
*2820 _0865_
*2821 _0866_
*2822 _0867_
*2823 _0868_
*2824 _0869_
*2825 _0870_
*2826 _0871_
*2827 _0872_
*2828 _0873_
*2829 _0874_
*2830 _0875_
*2831 _0876_
*2832 _0877_
*2833 _0878_
*2834 _0879_
*2835 _0880_
*2836 _0881_
*2837 _0882_
*2838 _0883_
*2839 _0884_
*2840 _0885_
*2841 _0886_
*2842 _0887_
*2843 _0888_
*2844 _0889_
*2845 _0890_
*2846 _0891_
*2847 _0892_
*2848 _0893_
*2849 _0894_
*2850 _0895_
*2851 _0896_
*2852 _0897_
*2853 _0898_
*2854 _0899_
*2855 _0900_
*2856 _0901_
*2857 _0902_
*2858 _0903_
*2859 _0904_
*2860 _0905_
*2861 _0906_
*2862 _0907_
*2863 _0908_
*2864 _0909_
*2865 _0910_
*2866 _0911_
*2867 _0912_
*2868 _0913_
*2869 _0914_
*2870 _0915_
*2871 _0916_
*2872 _0917_
*2873 _0918_
*2874 _0919_
*2875 _0920_
*2876 _0921_
*2877 _0922_
*2878 _0923_
*2879 _0924_
*2880 _0925_
*2881 _0926_
*2882 _0927_
*2883 _0928_
*2884 _0929_
*2885 _0930_
*2886 _0931_
*2887 _0932_
*2888 _0933_
*2889 _0934_
*2890 _0935_
*2891 _0936_
*2892 _0937_
*2893 _0938_
*2894 _0939_
*2895 _0940_
*2896 _0941_
*2897 _0942_
*2898 _0943_
*2899 _0944_
*2900 _0945_
*2901 _0946_
*2902 _0947_
*2903 _0948_
*2904 _0949_
*2905 _0950_
*2906 _0951_
*2907 _0952_
*2908 _0953_
*2909 _0954_
*2910 _0955_
*2911 _0956_
*2912 _0957_
*2913 _0958_
*2914 _0959_
*2915 _0960_
*2916 _0961_
*2917 _0962_
*2918 _0963_
*2919 _0964_
*2920 _0965_
*2921 _0966_
*2922 _0967_
*2923 _0968_
*2924 _0969_
*2925 _0970_
*2926 _0971_
*2927 _0972_
*2928 _0973_
*2929 _0974_
*2930 _0975_
*2931 _0976_
*2932 _0977_
*2933 _0978_
*2934 _0979_
*2935 _0980_
*2936 _0981_
*2937 _0982_
*2938 _0983_
*2939 _0984_
*2940 _0985_
*2941 _0986_
*2942 _0987_
*2943 _0988_
*2944 _0989_
*2945 _0990_
*2946 _0991_
*2947 _0992_
*2948 _0993_
*2949 _0994_
*2950 _0995_
*2951 _0996_
*2952 _0997_
*2953 _0998_
*2954 _0999_
*2955 _1000_
*2956 _1001_
*2957 _1002_
*2958 _1003_
*2959 _1004_
*2960 _1005_
*2961 _1006_
*2962 _1007_
*2963 _1008_
*2964 _1009_
*2965 _1010_
*2966 _1011_
*2967 _1012_
*2968 _1013_
*2969 _1014_
*2970 _1015_
*2971 _1016_
*2972 _1017_
*2973 _1018_
*2974 _1019_
*2975 _1020_
*2976 _1021_
*2977 _1022_
*2978 _1023_
*2979 _1024_
*2980 _1025_
*2981 _1026_
*2982 _1027_
*2983 _1028_
*2984 _1029_
*2985 _1030_
*2986 _1031_
*2987 _1032_
*2988 _1033_
*2989 _1034_
*2990 _1035_
*2991 _1036_
*2992 _1037_
*2993 _1038_
*2994 _1039_
*2995 _1040_
*2996 _1041_
*2997 _1042_
*2998 _1043_
*2999 _1044_
*3000 _1045_
*3001 _1046_
*3002 _1047_
*3003 _1048_
*3004 _1049_
*3005 _1050_
*3006 _1051_
*3007 _1052_
*3008 _1053_
*3009 _1054_
*3010 _1055_
*3011 _1056_
*3012 _1057_
*3013 _1058_
*3014 _1059_
*3015 _1060_
*3016 _1061_
*3017 _1062_
*3018 _1063_
*3019 _1064_
*3020 _1065_
*3021 _1066_
*3022 _1067_
*3023 _1068_
*3024 _1069_
*3025 _1070_
*3026 _1071_
*3027 _1072_
*3028 _1073_
*3029 _1074_
*3030 _1075_
*3031 _1076_
*3032 _1077_
*3033 _1078_
*3034 _1079_
*3035 _1080_
*3036 _1081_
*3037 _1082_
*3038 _1083_
*3039 _1084_
*3040 _1085_
*3041 _1086_
*3042 _1087_
*3043 _1088_
*3044 _1089_
*3045 _1090_
*3046 _1091_
*3047 _1092_
*3048 _1093_
*3049 _1094_
*3050 _1095_
*3051 _1096_
*3052 _1097_
*3053 _1098_
*3054 _1099_
*3055 _1100_
*3056 _1101_
*3057 _1102_
*3058 _1103_
*3059 _1104_
*3060 _1105_
*3061 _1106_
*3062 _1107_
*3063 _1108_
*3064 _1109_
*3065 _1110_
*3066 _1111_
*3067 _1112_
*3068 _1113_
*3069 _1114_
*3070 _1115_
*3071 _1116_
*3072 _1117_
*3073 _1118_
*3074 _1119_
*3075 _1120_
*3076 _1121_
*3077 _1122_
*3078 _1123_
*3079 _1124_
*3080 _1125_
*3081 _1126_
*3082 _1127_
*3083 _1128_
*3084 _1129_
*3085 _1130_
*3086 _1131_
*3087 _1132_
*3088 _1133_
*3089 _1134_
*3090 _1135_
*3091 _1136_
*3092 _1137_
*3093 _1138_
*3094 _1139_
*3095 _1140_
*3096 _1141_
*3097 _1142_
*3098 _1143_
*3099 _1144_
*3100 _1145_
*3101 _1146_
*3102 _1147_
*3103 _1148_
*3104 _1149_
*3105 _1150_
*3106 _1151_
*3107 _1152_
*3108 _1153_
*3109 _1154_
*3110 _1155_
*3111 _1156_
*3112 _1157_
*3113 _1158_
*3114 _1159_
*3115 _1160_
*3116 _1161_
*3117 _1162_
*3118 _1163_
*3119 _1164_
*3120 _1165_
*3121 _1166_
*3122 _1167_
*3123 _1168_
*3124 _1169_
*3125 _1170_
*3126 _1171_
*3127 _1172_
*3128 _1173_
*3129 _1174_
*3130 _1175_
*3131 _1176_
*3132 _1177_
*3133 _1178_
*3134 _1179_
*3135 _1180_
*3136 _1181_
*3137 _1182_
*3138 _1183_
*3139 _1184_
*3140 _1185_
*3141 _1186_
*3142 _1187_
*3143 _1188_
*3144 _1189_
*3145 _1190_
*3146 _1191_
*3147 _1192_
*3148 _1193_
*3149 _1194_
*3150 _1195_
*3151 _1196_
*3152 _1197_
*3153 _1198_
*3154 _1199_
*3155 _1200_
*3156 _1201_
*3157 _1202_
*3158 _1203_
*3159 _1204_
*3160 _1205_
*3161 _1206_
*3162 _1207_
*3163 _1208_
*3164 _1209_
*3165 _1210_
*3166 _1211_
*3167 _1212_
*3168 _1213_
*3169 _1214_
*3170 _1215_
*3171 _1216_
*3172 _1217_
*3173 _1218_
*3174 _1219_
*3175 _1220_
*3176 _1221_
*3177 _1222_
*3178 _1223_
*3179 _1224_
*3180 _1225_
*3181 _1226_
*3182 _1227_
*3183 _1228_
*3184 _1229_
*3185 _1230_
*3186 _1231_
*3187 _1232_
*3188 _1233_
*3189 _1234_
*3190 _1235_
*3191 _1236_
*3192 _1237_
*3193 _1238_
*3194 _1239_
*3195 _1240_
*3196 _1241_
*3197 _1242_
*3198 _1243_
*3199 _1244_
*3200 _1245_
*3201 _1246_
*3202 _1247_
*3203 _1248_
*3204 _1249_
*3205 _1250_
*3206 _1251_
*3207 _1252_
*3208 _1253_
*3209 _1254_
*3210 _1255_
*3211 _1256_
*3212 _1257_
*3213 _1258_
*3214 _1259_
*3215 _1260_
*3216 _1261_
*3217 _1262_
*3218 _1263_
*3219 _1264_
*3220 _1265_
*3221 _1266_
*3222 _1267_
*3223 _1268_
*3224 _1269_
*3225 _1270_
*3226 _1271_
*3227 _1272_
*3228 _1273_
*3229 _1274_
*3230 _1275_
*3231 _1276_
*3232 _1277_
*3233 _1278_
*3234 _1279_
*3235 _1280_
*3236 _1281_
*3237 _1282_
*3238 _1283_
*3239 _1284_
*3240 _1285_
*3241 _1286_
*3242 _1287_
*3243 _1288_
*3244 _1289_
*3245 _1290_
*3246 _1291_
*3247 _1292_
*3248 _1293_
*3249 _1294_
*3250 _1295_
*3251 _1296_
*3252 _1297_
*3253 _1298_
*3254 _1299_
*3255 _1300_
*3256 _1301_
*3257 _1302_
*3258 _1303_
*3259 _1304_
*3260 _1305_
*3261 _1306_
*3262 _1307_
*3263 _1308_
*3264 _1309_
*3265 _1310_
*3266 _1311_
*3267 _1312_
*3268 _1313_
*3269 _1314_
*3270 _1315_
*3271 _1316_
*3272 _1317_
*3273 _1318_
*3274 _1319_
*3275 _1320_
*3276 _1321_
*3277 _1322_
*3278 _1323_
*3279 _1324_
*3280 _1325_
*3281 _1326_
*3282 _1327_
*3283 _1328_
*3284 _1329_
*3285 clkbuf_0_clk
*3286 clkbuf_4_0_0_clk
*3287 clkbuf_4_10_0_clk
*3288 clkbuf_4_11_0_clk
*3289 clkbuf_4_12_0_clk
*3290 clkbuf_4_13_0_clk
*3291 clkbuf_4_14_0_clk
*3292 clkbuf_4_15_0_clk
*3293 clkbuf_4_1_0_clk
*3294 clkbuf_4_2_0_clk
*3295 clkbuf_4_3_0_clk
*3296 clkbuf_4_4_0_clk
*3297 clkbuf_4_5_0_clk
*3298 clkbuf_4_6_0_clk
*3299 clkbuf_4_7_0_clk
*3300 clkbuf_4_8_0_clk
*3301 clkbuf_4_9_0_clk
*3302 fanout11
*3303 fanout12
*3304 fanout13
*3305 fanout14
*3306 fanout15
*3307 hold1
*3308 hold10
*3309 hold100
*3310 hold101
*3311 hold102
*3312 hold103
*3313 hold104
*3314 hold105
*3315 hold106
*3316 hold107
*3317 hold108
*3318 hold109
*3319 hold11
*3320 hold110
*3321 hold111
*3322 hold112
*3323 hold113
*3324 hold114
*3325 hold115
*3326 hold116
*3327 hold117
*3328 hold118
*3329 hold119
*3330 hold12
*3331 hold120
*3332 hold121
*3333 hold122
*3334 hold123
*3335 hold124
*3336 hold125
*3337 hold126
*3338 hold127
*3339 hold128
*3340 hold129
*3341 hold13
*3342 hold130
*3343 hold131
*3344 hold132
*3345 hold133
*3346 hold134
*3347 hold135
*3348 hold136
*3349 hold137
*3350 hold138
*3351 hold139
*3352 hold14
*3353 hold140
*3354 hold141
*3355 hold142
*3356 hold143
*3357 hold144
*3358 hold145
*3359 hold146
*3360 hold15
*3361 hold16
*3362 hold17
*3363 hold18
*3364 hold19
*3365 hold2
*3366 hold20
*3367 hold21
*3368 hold22
*3369 hold23
*3370 hold24
*3371 hold25
*3372 hold26
*3373 hold27
*3374 hold28
*3375 hold29
*3376 hold3
*3377 hold30
*3378 hold31
*3379 hold32
*3380 hold33
*3381 hold34
*3382 hold35
*3383 hold36
*3384 hold37
*3385 hold38
*3386 hold39
*3387 hold4
*3388 hold40
*3389 hold41
*3390 hold42
*3391 hold43
*3392 hold44
*3393 hold45
*3394 hold46
*3395 hold47
*3396 hold48
*3397 hold49
*3398 hold5
*3399 hold50
*3400 hold51
*3401 hold52
*3402 hold53
*3403 hold54
*3404 hold55
*3405 hold56
*3406 hold57
*3407 hold58
*3408 hold59
*3409 hold6
*3410 hold60
*3411 hold61
*3412 hold62
*3413 hold63
*3414 hold64
*3415 hold65
*3416 hold66
*3417 hold67
*3418 hold68
*3419 hold69
*3420 hold7
*3421 hold70
*3422 hold71
*3423 hold72
*3424 hold73
*3425 hold74
*3426 hold75
*3427 hold76
*3428 hold77
*3429 hold78
*3430 hold79
*3431 hold8
*3432 hold80
*3433 hold81
*3434 hold82
*3435 hold83
*3436 hold84
*3437 hold85
*3438 hold86
*3439 hold87
*3440 hold88
*3441 hold89
*3442 hold9
*3443 hold90
*3444 hold91
*3445 hold92
*3446 hold93
*3447 hold94
*3448 hold95
*3449 hold96
*3450 hold97
*3451 hold98
*3452 hold99
*3453 input1
*3454 input2
*3455 max_cap10
*3456 max_cap2
*3457 max_cap5
*3458 max_cap6
*3459 max_cap7
*3460 output3
*3461 output4
*3462 wire1
*3463 wire8
*3464 wire9

*PORTS
clk I
done O
pass_fail O
rst_n I
start I

*D_NET *3 0.016554
*CONN
*P clk I
*I *3285:A I *D sky130_fd_sc_hd__clkbuf_16
*CAP
1 clk 0.00656013
2 *3285:A 0.00656013
3 *3285:A *2790:A2 7.54285e-05
4 *3285:A *187:24 1.92979e-05
5 *3285:A *218:102 0.00333239
6 *3285:A *321:61 0
7 *3285:A *350:140 6.63219e-06
8 *3285:A *419:67 0
*RES
1 clk *3285:A 20.7808 
*END

*D_NET *4 0.00132797
*CONN
*P done O
*I *3460:X O *D sky130_fd_sc_hd__clkbuf_4
*CAP
1 done 0.000663984
2 *3460:X 0.000663984
*RES
1 *3460:X done 14.925 
*END

*D_NET *5 0.000763859
*CONN
*P pass_fail O
*I *3461:X O *D sky130_fd_sc_hd__buf_2
*CAP
1 pass_fail 0.00038193
2 *3461:X 0.00038193
*RES
1 *3461:X pass_fail 7.71697 
*END

*D_NET *6 0.000894546
*CONN
*P rst_n I
*I *3453:A I *D sky130_fd_sc_hd__dlymetal6s2s_1
*CAP
1 rst_n 0.000447273
2 *3453:A 0.000447273
*RES
1 rst_n *3453:A 11.37 
*END

*D_NET *7 0.000772376
*CONN
*P start I
*I *3454:A I *D sky130_fd_sc_hd__buf_1
*CAP
1 start 0.000386188
2 *3454:A 0.000386188
3 *3454:A *693:10 0
*RES
1 start *3454:A 10.455 
*END

*D_NET *8 0.00304601
*CONN
*I *2633:A2 I *D sky130_fd_sc_hd__a22o_1
*I *2838:B1_N I *D sky130_fd_sc_hd__o21ba_2
*I *3126:D I *D sky130_fd_sc_hd__dfstp_1
*I *2816:X O *D sky130_fd_sc_hd__buf_1
*CAP
1 *2633:A2 7.56899e-05
2 *2838:B1_N 0.000133679
3 *3126:D 3.37454e-05
4 *2816:X 5.51691e-05
5 *8:18 0.000744767
6 *8:6 0.000708201
7 *2633:A2 *2633:B1 2.61042e-05
8 *2633:A2 *2814:A3 4.38721e-06
9 *2633:A2 *2814:B1 3.45117e-05
10 *2633:A2 *310:16 7.01303e-05
11 *2838:B1_N *3268:D 0.000108021
12 *2838:B1_N *3292:A 0
13 *2838:B1_N *330:18 8.53113e-06
14 *2838:B1_N *663:25 0
15 *8:6 *2814:A3 8.40269e-05
16 *8:18 *2814:A3 0.00020226
17 *8:18 *3267:D 0.000311282
18 *8:18 *3268:D 0.000121152
19 *8:18 *3308:A 9.25387e-05
20 *8:18 *159:58 0
21 *8:18 *310:25 2.19562e-06
22 *8:18 *596:16 0.00013878
23 *8:18 *596:49 9.08384e-05
24 *8:18 *779:12 0
*RES
1 *2816:X *8:6 2.395 
2 *8:6 *8:18 13.265 
3 *8:18 *3126:D 4.05 
4 *8:18 *2838:B1_N 6.285 
5 *8:6 *2633:A2 7.235 
*END

*D_NET *9 0.000424684
*CONN
*I *3127:D I *D sky130_fd_sc_hd__dfrtp_1
*I *2659:X O *D sky130_fd_sc_hd__clkbuf_1
*CAP
1 *3127:D 0.000173387
2 *2659:X 0.000173387
3 *3127:D *3127:RESET_B 3.00381e-05
4 *3127:D *780:14 2.75145e-05
5 *3127:D *780:38 2.03578e-05
*RES
1 *2659:X *3127:D 9.825 
*END

*D_NET *10 0.0049896
*CONN
*I *3282:D I *D sky130_fd_sc_hd__dfrtp_1
*I *2663:C1 I *D sky130_fd_sc_hd__a211o_1
*I *2635:A I *D sky130_fd_sc_hd__inv_2
*I *2661:X O *D sky130_fd_sc_hd__buf_1
*CAP
1 *3282:D 0.000390632
2 *2663:C1 7.29719e-05
3 *2635:A 0.000139477
4 *2661:X 8.4162e-05
5 *10:25 0.000767635
6 *10:8 0.00052767
7 *2635:A *2647:B 3.3652e-05
8 *2635:A *2666:A 3.45252e-05
9 *2635:A *619:50 0.000116158
10 *2635:A *782:10 2.97004e-06
11 *2663:C1 *2656:B 6.33849e-05
12 *2663:C1 *2663:A2 0.00023912
13 *2663:C1 *2663:B1 9.12671e-06
14 *2663:C1 *162:10 2.69153e-05
15 *3282:D *2638:S 0.000104451
16 *3282:D *2639:A 0
17 *3282:D *3278:CLK 0.000168156
18 *3282:D *3282:RESET_B 0
19 *3282:D *3303:A 0
20 *3282:D *11:23 9.66814e-05
21 *3282:D *630:18 0.000489486
22 *3282:D *630:36 0
23 *10:8 *2657:A 0.000123225
24 *10:25 *2647:B 2.16389e-05
25 *10:25 *2657:A 0
26 *10:25 *2660:C 0
27 *10:25 *2664:B1 0.00062657
28 *10:25 *3279:RESET_B 0.000138544
29 *10:25 *11:23 2.94928e-05
30 *10:25 *619:50 9.37731e-05
31 *10:25 *630:18 0.000245192
32 *10:25 *794:39 1.73877e-05
33 *10:25 *795:86 0.000152294
34 *10:25 *795:90 0.000174305
*RES
1 *2661:X *10:8 4.74 
2 *10:8 *2635:A 6.15 
3 *10:8 *10:25 10.05 
4 *10:25 *2663:C1 5.79 
5 *10:25 *3282:D 13.59 
*END

*D_NET *11 0.00951247
*CONN
*I *2638:S I *D sky130_fd_sc_hd__mux2_1
*I *2656:A I *D sky130_fd_sc_hd__or3b_1
*I *2653:C1 I *D sky130_fd_sc_hd__a221o_1
*I *3284:D I *D sky130_fd_sc_hd__dfrtp_1
*I *2860:A2 I *D sky130_fd_sc_hd__o21bai_1
*I *2652:X O *D sky130_fd_sc_hd__clkbuf_2
*CAP
1 *2638:S 0.000334401
2 *2656:A 0.000335679
3 *2653:C1 6.59261e-05
4 *3284:D 0.00092623
5 *2860:A2 0.000392712
6 *2652:X 0
7 *11:31 0.00113762
8 *11:23 0.000929801
9 *11:19 0.000993791
10 *11:4 0.000603443
11 *2638:S *2639:A 4.82919e-05
12 *2638:S *630:36 0.000161529
13 *2653:C1 *2653:A1 0.000118081
14 *2653:C1 *2653:A2 1.27998e-05
15 *2653:C1 *2653:B1 4.37121e-05
16 *2656:A *2653:A1 6.32125e-05
17 *2656:A *2656:C_N 2.11084e-05
18 *2656:A *2665:B 0.000306674
19 *2656:A *794:39 1.92979e-05
20 *2860:A2 *2860:A1 0.000233557
21 *2860:A2 *3135:D 0.000123961
22 *2860:A2 *3442:A 6.50953e-05
23 *3284:D *2653:A1 4.77719e-05
24 *3284:D *2653:A2 2.47149e-05
25 *3284:D *2665:B 9.6949e-06
26 *3284:D *3283:D 0.000134373
27 *3284:D *163:20 0.000783458
28 *3284:D *593:29 5.72372e-05
29 *3284:D *619:64 2.84514e-05
30 *3284:D *682:20 0
31 *3284:D *792:6 1.08758e-05
32 *3284:D *792:27 7.32549e-05
33 *11:23 *2637:A 0
34 *11:23 *2653:A1 5.0176e-05
35 *11:23 *2653:A2 3.86814e-05
36 *11:23 *2664:B1 0.000225153
37 *11:31 *2653:A1 0.00041585
38 *11:31 *2665:B 0.000407932
39 *11:31 *793:63 3.72952e-05
40 *3282:D *2638:S 0.000104451
41 *3282:D *11:23 9.66814e-05
42 *10:25 *11:23 2.94928e-05
*RES
1 *2652:X *11:4 1.6 
2 *11:4 *2860:A2 8.71 
3 *11:4 *11:19 4.175 
4 *11:19 *11:23 9.9125 
5 *11:23 *11:31 3.60817 
6 *11:31 *3284:D 23.93 
7 *11:31 *2653:C1 3.04375 
8 *11:23 *2656:A 5.5197 
9 *11:19 *2638:S 9.99 
*END

*D_NET *12 0.00430164
*CONN
*I *3271:D I *D sky130_fd_sc_hd__dfrtp_1
*I *2809:X O *D sky130_fd_sc_hd__o31a_1
*CAP
1 *3271:D 0.00119158
2 *2809:X 0.00119158
3 *3271:D *2625:S 7.73574e-06
4 *3271:D *2808:A1 9.5799e-06
5 *3271:D *2808:B1 4.66108e-05
6 *3271:D *2809:A1 8.65961e-05
7 *3271:D *2809:A2 1.61831e-05
8 *3271:D *2809:B1 0.000123955
9 *3271:D *2971:A0 1.94636e-05
10 *3271:D *3258:CLK 0.000152301
11 *3271:D *3259:CLK 5.39961e-05
12 *3271:D *3261:D 1.63618e-05
13 *3271:D *3352:A 0.000119762
14 *3271:D *3411:A 0.000206824
15 *3271:D *316:33 0.000455601
16 *3271:D *328:18 5.73633e-05
17 *3271:D *511:22 0
18 *3271:D *574:14 9.95393e-05
19 *3271:D *593:69 0.000180997
20 *3271:D *593:73 0.000265604
*RES
1 *2809:X *3271:D 33.205 
*END

*D_NET *13 0.00174301
*CONN
*I *3270:D I *D sky130_fd_sc_hd__dfrtp_1
*I *2753:X O *D sky130_fd_sc_hd__o221a_1
*CAP
1 *3270:D 0.000403405
2 *2753:X 0.000403405
3 *3270:D *2808:A1 1.7635e-05
4 *3270:D *2808:A2 8.23457e-05
5 *3270:D *3352:A 0.000266618
6 *3270:D *316:14 4.5783e-05
7 *3270:D *325:16 0.000157595
8 *3270:D *356:14 9.37396e-05
9 *3270:D *593:69 6.52265e-05
10 *3270:D *593:73 0.000160641
11 *3270:D *692:6 4.66108e-05
*RES
1 *2753:X *3270:D 16.08 
*END

*D_NET *14 0.00101553
*CONN
*I *3124:D I *D sky130_fd_sc_hd__dfxtp_1
*I *2830:X O *D sky130_fd_sc_hd__clkbuf_1
*CAP
1 *3124:D 0.000372527
2 *2830:X 0.000372527
3 *3124:D *2608:A0 3.32056e-05
4 *3124:D *599:36 0.000237271
*RES
1 *2830:X *3124:D 12.7087 
*END

*D_NET *15 0.000404256
*CONN
*I *3125:D I *D sky130_fd_sc_hd__dfxtp_1
*I *2833:X O *D sky130_fd_sc_hd__clkbuf_1
*CAP
1 *3125:D 0.000104955
2 *2833:X 0.000104955
3 *3125:D *2830:A 5.18362e-05
4 *3125:D *599:43 5.14473e-05
5 *3125:D *599:49 9.10613e-05
*RES
1 *2833:X *3125:D 9.25875 
*END

*D_NET *16 0.000413623
*CONN
*I *3128:D I *D sky130_fd_sc_hd__dfrtp_1
*I *2840:X O *D sky130_fd_sc_hd__o21a_1
*CAP
1 *3128:D 0.000111387
2 *2840:X 0.000111387
3 *3128:D *2849:A 8.8266e-05
4 *3128:D *652:53 9.50342e-06
5 *3128:D *652:59 9.30787e-05
*RES
1 *2840:X *3128:D 9.12 
*END

*D_NET *17 0.00234567
*CONN
*I *3129:D I *D sky130_fd_sc_hd__dfrtp_1
*I *2844:X O *D sky130_fd_sc_hd__a2bb2o_1
*CAP
1 *3129:D 0.000609168
2 *2844:X 0.000609168
3 *3129:D *2844:B1 5.21627e-05
4 *3129:D *2845:A1 4.99619e-05
5 *3129:D *2847:B1 2.67394e-05
6 *3129:D *2849:A 0.000178496
7 *3129:D *2863:A 4.54351e-05
8 *3129:D *2864:A 0.000209209
9 *3129:D *2864:B 7.23533e-05
10 *3129:D *3128:CLK 5.21714e-05
11 *3129:D *3129:CLK 4.82919e-05
12 *3129:D *3263:D 0
13 *3129:D *3265:D 9.66106e-05
14 *3129:D *211:18 0
15 *3129:D *318:16 1.48502e-06
16 *3129:D *773:29 0.000294414
*RES
1 *2844:X *3129:D 21.825 
*END

*D_NET *18 0.000868841
*CONN
*I *3130:D I *D sky130_fd_sc_hd__dfrtp_2
*I *2849:X O *D sky130_fd_sc_hd__clkbuf_1
*CAP
1 *3130:D 0.000327702
2 *2849:X 0.000327702
3 *3130:D *2820:A 1.34594e-05
4 *3130:D *2849:A 4.80285e-05
5 *3130:D *3263:D 0.000102508
6 *3130:D *318:14 2.49909e-05
7 *3130:D *652:31 4.18603e-06
8 *3130:D *770:28 1.80685e-05
9 *3130:D *773:16 2.19562e-06
*RES
1 *2849:X *3130:D 11.535 
*END

*D_NET *19 0.000774727
*CONN
*I *3131:D I *D sky130_fd_sc_hd__dfrtp_4
*I *2853:X O *D sky130_fd_sc_hd__a2bb2o_1
*CAP
1 *3131:D 0.000223609
2 *2853:X 0.000223609
3 *3131:D *2822:C 3.09233e-05
4 *3131:D *2841:B_N 8.53113e-06
5 *3131:D *2844:A1_N 3.06212e-05
6 *3131:D *2844:A2_N 0
7 *3131:D *2853:B1 4.89395e-05
8 *3131:D *2864:A 6.16838e-05
9 *3131:D *211:18 7.44569e-05
10 *3131:D *323:55 7.23533e-05
*RES
1 *2853:X *3131:D 11.37 
*END

*D_NET *20 0.000866787
*CONN
*I *3132:D I *D sky130_fd_sc_hd__dfrtp_4
*I *2857:X O *D sky130_fd_sc_hd__clkbuf_1
*CAP
1 *3132:D 0.000289641
2 *2857:X 0.000289641
3 *3132:D *2857:A 0.000134557
4 *3132:D *3132:CLK 0.000117751
5 *3132:D *775:64 3.51955e-05
*RES
1 *2857:X *3132:D 12.66 
*END

*D_NET *21 0.000248867
*CONN
*I *3133:D I *D sky130_fd_sc_hd__dfrtp_4
*I *2859:X O *D sky130_fd_sc_hd__a2bb2o_1
*CAP
1 *3133:D 3.40928e-05
2 *2859:X 3.40928e-05
3 *3133:D *2855:A1 3.89366e-05
4 *3133:D *312:8 2.57991e-05
5 *3133:D *597:56 0.000115945
*RES
1 *2859:X *3133:D 8.58 
*END

*D_NET *22 0.00067883
*CONN
*I *3442:A I *D sky130_fd_sc_hd__dlygate4sd3_1
*I *2860:Y O *D sky130_fd_sc_hd__o21bai_1
*CAP
1 *3442:A 0.000111799
2 *2860:Y 0.000111799
3 *3442:A *2860:A1 0.000233557
4 *3442:A *2860:B1_N 0.00015658
5 *2860:A2 *3442:A 6.50953e-05
*RES
1 *2860:Y *3442:A 6.77 
*END

*D_NET *23 0.000923926
*CONN
*I *3136:D I *D sky130_fd_sc_hd__dfxtp_1
*I *2869:X O *D sky130_fd_sc_hd__clkbuf_1
*CAP
1 *3136:D 0.000348957
2 *2869:X 0.000348957
3 *3136:D *921:10 0.000226012
*RES
1 *2869:X *3136:D 13.0087 
*END

*D_NET *24 0.00184666
*CONN
*I *3137:D I *D sky130_fd_sc_hd__dfxtp_1
*I *2873:X O *D sky130_fd_sc_hd__clkbuf_1
*CAP
1 *3137:D 0.000443449
2 *2873:X 0.000443449
3 *3137:D *2721:B2 0.000133274
4 *3137:D *2799:B2 2.67184e-05
5 *3137:D *2872:A1 0.000266605
6 *3137:D *3136:CLK 0.000487283
7 *3137:D *3332:A 1.08758e-05
8 *3137:D *921:10 3.50033e-05
*RES
1 *2873:X *3137:D 17.1938 
*END

*D_NET *25 0.000378167
*CONN
*I *3138:D I *D sky130_fd_sc_hd__dfxtp_1
*I *2877:X O *D sky130_fd_sc_hd__clkbuf_1
*CAP
1 *3138:D 7.5111e-05
2 *2877:X 7.5111e-05
3 *3138:D *202:24 0.000157179
4 *3138:D *403:22 5.63949e-05
5 *3138:D *606:27 1.43717e-05
*RES
1 *2877:X *3138:D 9.22875 
*END

*D_NET *26 0.000357543
*CONN
*I *3139:D I *D sky130_fd_sc_hd__dfxtp_1
*I *2879:X O *D sky130_fd_sc_hd__clkbuf_1
*CAP
1 *3139:D 8.75436e-05
2 *2879:X 8.75436e-05
3 *3139:D *183:59 0
4 *3139:D *291:40 9.03376e-05
5 *3139:D *321:61 9.21178e-05
*RES
1 *2879:X *3139:D 9.15375 
*END

*D_NET *27 0.000756047
*CONN
*I *3140:D I *D sky130_fd_sc_hd__dfxtp_1
*I *2883:X O *D sky130_fd_sc_hd__clkbuf_1
*CAP
1 *3140:D 0.000192261
2 *2883:X 0.000192261
3 *3140:D *2724:A2 3.97832e-05
4 *3140:D *385:16 7.03219e-05
5 *3140:D *917:10 0.000261419
*RES
1 *2883:X *3140:D 11.5238 
*END

*D_NET *28 0.00033643
*CONN
*I *3141:D I *D sky130_fd_sc_hd__dfxtp_1
*I *2885:X O *D sky130_fd_sc_hd__clkbuf_1
*CAP
1 *3141:D 0.000105433
2 *2885:X 0.000105433
3 *3141:D *181:90 9.23578e-05
4 *3141:D *374:63 3.32056e-05
*RES
1 *2885:X *3141:D 9.15375 
*END

*D_NET *29 0.000763824
*CONN
*I *3142:D I *D sky130_fd_sc_hd__dfxtp_1
*I *2891:X O *D sky130_fd_sc_hd__clkbuf_1
*CAP
1 *3142:D 0.000175113
2 *2891:X 0.000175113
3 *3142:D *2727:B2 9.54399e-05
4 *3142:D *2891:A 9.54399e-05
5 *3142:D *3142:CLK 0.00020525
6 *3142:D *359:62 1.74678e-05
*RES
1 *2891:X *3142:D 10.8787 
*END

*D_NET *30 0.00116133
*CONN
*I *3143:D I *D sky130_fd_sc_hd__dfxtp_1
*I *2894:X O *D sky130_fd_sc_hd__clkbuf_1
*CAP
1 *3143:D 0.000336846
2 *2894:X 0.000336846
3 *3143:D *2911:A1 0
4 *3143:D *2939:A 8.2754e-05
5 *3143:D *3158:D 0.000151967
6 *3143:D *385:16 0.000139252
7 *3143:D *605:34 0.000113663
8 *3143:D *605:52 0
*RES
1 *2894:X *3143:D 13.9838 
*END

*D_NET *31 0.000871846
*CONN
*I *3144:D I *D sky130_fd_sc_hd__dfxtp_1
*I *2898:X O *D sky130_fd_sc_hd__clkbuf_1
*CAP
1 *3144:D 0.000278857
2 *2898:X 0.000278857
3 *3144:D *2735:A1 0.000118081
4 *3144:D *2786:A3 8.99337e-05
5 *3144:D *193:121 0.000106118
6 *3144:D *391:64 0
*RES
1 *2898:X *3144:D 11.9137 
*END

*D_NET *32 0.00031605
*CONN
*I *3145:D I *D sky130_fd_sc_hd__dfxtp_1
*I *2900:X O *D sky130_fd_sc_hd__clkbuf_1
*CAP
1 *3145:D 8.31461e-05
2 *2900:X 8.31461e-05
3 *3145:D *2786:A3 0
4 *3145:D *2789:C1 9.44681e-05
5 *3145:D *2900:A 5.18317e-06
6 *3145:D *600:87 5.01066e-05
*RES
1 *2900:X *3145:D 8.80875 
*END

*D_NET *33 0.000737409
*CONN
*I *3146:D I *D sky130_fd_sc_hd__dfxtp_1
*I *2904:X O *D sky130_fd_sc_hd__clkbuf_1
*CAP
1 *3146:D 0.000141646
2 *2904:X 0.000141646
3 *3146:D *2567:A 3.93162e-05
4 *3146:D *2737:B1 9.39507e-05
5 *3146:D *3146:CLK 4.66108e-05
6 *3146:D *197:143 0.000131868
7 *3146:D *291:40 7.82872e-05
8 *3146:D *316:51 3.90943e-05
9 *3146:D *600:8 2.49909e-05
*RES
1 *2904:X *3146:D 10.695 
*END

*D_NET *34 0.0009162
*CONN
*I *3147:D I *D sky130_fd_sc_hd__dfxtp_1
*I *2906:X O *D sky130_fd_sc_hd__clkbuf_1
*CAP
1 *3147:D 0.000148293
2 *2906:X 0.000148293
3 *3147:D *2906:A 0.000231074
4 *3147:D *3147:CLK 4.66108e-05
5 *3147:D *215:147 0.00034193
*RES
1 *2906:X *3147:D 7.85 
*END

*D_NET *35 0.00105605
*CONN
*I *3148:D I *D sky130_fd_sc_hd__dfxtp_1
*I *2910:X O *D sky130_fd_sc_hd__clkbuf_1
*CAP
1 *3148:D 0.000280736
2 *2910:X 0.000280736
3 *3148:D *2912:A 0.000321838
4 *3148:D *3351:A 0.000172739
*RES
1 *2910:X *3148:D 8.52875 
*END

*D_NET *36 0.000413216
*CONN
*I *3149:D I *D sky130_fd_sc_hd__dfxtp_1
*I *2912:X O *D sky130_fd_sc_hd__clkbuf_1
*CAP
1 *3149:D 0.000182666
2 *2912:X 0.000182666
3 *3149:D *2912:A 4.78847e-05
4 *3149:D *3149:CLK 0
*RES
1 *2912:X *3149:D 9.70875 
*END

*D_NET *37 0.00038405
*CONN
*I *3150:D I *D sky130_fd_sc_hd__dfxtp_1
*I *2915:X O *D sky130_fd_sc_hd__clkbuf_1
*CAP
1 *3150:D 0.000110855
2 *2915:X 0.000110855
3 *3150:D *2915:A 6.18754e-05
4 *3150:D *3140:CLK 3.25831e-05
5 *3150:D *385:16 0
6 *3150:D *605:52 6.78808e-05
*RES
1 *2915:X *3150:D 9.555 
*END

*D_NET *38 0.00122959
*CONN
*I *3151:D I *D sky130_fd_sc_hd__dfxtp_1
*I *2917:X O *D sky130_fd_sc_hd__clkbuf_1
*CAP
1 *3151:D 0.000373825
2 *2917:X 0.000373825
3 *3151:D *2807:B1 0.000233931
4 *3151:D *2937:A 4.66108e-05
5 *3151:D *2937:B 4.47125e-05
6 *3151:D *350:40 0.000108403
7 *3151:D *904:10 4.82863e-05
*RES
1 *2917:X *3151:D 9.56375 
*END

*D_NET *39 0.000434542
*CONN
*I *3152:D I *D sky130_fd_sc_hd__dfxtp_1
*I *2921:X O *D sky130_fd_sc_hd__clkbuf_1
*CAP
1 *3152:D 0.000115313
2 *2921:X 0.000115313
3 *3152:D *2607:A 4.89295e-05
4 *3152:D *2794:A2 1.43717e-05
5 *3152:D *208:61 4.82319e-06
6 *3152:D *326:10 0.000135792
*RES
1 *2921:X *3152:D 9.42375 
*END

*D_NET *40 0.000310773
*CONN
*I *3153:D I *D sky130_fd_sc_hd__dfxtp_1
*I *2923:X O *D sky130_fd_sc_hd__clkbuf_1
*CAP
1 *3153:D 0.00010022
2 *2923:X 0.00010022
3 *3153:D *2562:A 1.43717e-05
4 *3153:D *3355:A 4.89295e-05
5 *3153:D *181:90 4.70326e-05
6 *3153:D *391:64 0
*RES
1 *2923:X *3153:D 8.91375 
*END

*D_NET *41 0.00214314
*CONN
*I *3154:D I *D sky130_fd_sc_hd__dfxtp_1
*I *2927:X O *D sky130_fd_sc_hd__clkbuf_1
*CAP
1 *3154:D 0.000699343
2 *2927:X 0.000699343
3 *3154:D *2803:B2 9.766e-05
4 *3154:D *2912:A 5.83121e-06
5 *3154:D *2926:A0 0.000259007
6 *3154:D *2926:S 0
7 *3154:D *2927:A 0.000126575
8 *3154:D *3384:A 2.05056e-05
9 *3154:D *3430:A 0.000119762
10 *3154:D *396:12 4.82919e-05
11 *3154:D *605:52 0
12 *3154:D *900:10 5.20968e-05
13 *3154:D *901:10 1.47256e-05
*RES
1 *2927:X *3154:D 20.1038 
*END

*D_NET *42 0.000359782
*CONN
*I *3155:D I *D sky130_fd_sc_hd__dfxtp_1
*I *2929:X O *D sky130_fd_sc_hd__clkbuf_1
*CAP
1 *3155:D 0.000179891
2 *2929:X 0.000179891
3 *3155:D *599:49 0
4 *3155:D *599:55 0
*RES
1 *2929:X *3155:D 9.91875 
*END

*D_NET *43 0.000391097
*CONN
*I *3156:D I *D sky130_fd_sc_hd__dfxtp_1
*I *2933:X O *D sky130_fd_sc_hd__clkbuf_1
*CAP
1 *3156:D 0.000173005
2 *2933:X 0.000173005
3 *3156:D *2802:C1 0
4 *3156:D *3156:CLK 1.43717e-05
5 *3156:D *325:100 3.07153e-05
6 *3156:D *359:37 0
*RES
1 *2933:X *3156:D 9.76875 
*END

*D_NET *44 0.000381188
*CONN
*I *3157:D I *D sky130_fd_sc_hd__dfxtp_1
*I *2935:X O *D sky130_fd_sc_hd__clkbuf_1
*CAP
1 *3157:D 7.81689e-05
2 *2935:X 7.81689e-05
3 *3157:D *2802:A1 7.03046e-05
4 *3157:D *325:100 0.000154545
*RES
1 *2935:X *3157:D 4.92875 
*END

*D_NET *45 0.00154761
*CONN
*I *3158:D I *D sky130_fd_sc_hd__dfxtp_1
*I *2939:X O *D sky130_fd_sc_hd__clkbuf_1
*CAP
1 *3158:D 0.000438742
2 *2939:X 0.000438742
3 *3158:D *605:32 0.000102006
4 *3158:D *605:34 0.000416149
5 *3143:D *3158:D 0.000151967
*RES
1 *2939:X *3158:D 10.5538 
*END

*D_NET *46 0.00134338
*CONN
*I *3159:D I *D sky130_fd_sc_hd__dfxtp_1
*I *2941:X O *D sky130_fd_sc_hd__clkbuf_1
*CAP
1 *3159:D 0.000508589
2 *2941:X 0.000508589
3 *3159:D *2805:A1 6.07514e-05
4 *3159:D *2938:A0 0.000188719
5 *3159:D *2941:A 7.67345e-05
*RES
1 *2941:X *3159:D 11.9937 
*END

*D_NET *47 0.000382187
*CONN
*I *3160:D I *D sky130_fd_sc_hd__dfxtp_1
*I *2945:X O *D sky130_fd_sc_hd__clkbuf_1
*CAP
1 *3160:D 0.000191093
2 *2945:X 0.000191093
3 *3160:D *2945:A 0
*RES
1 *2945:X *3160:D 9.76875 
*END

*D_NET *48 0.000426157
*CONN
*I *3161:D I *D sky130_fd_sc_hd__dfxtp_1
*I *2947:X O *D sky130_fd_sc_hd__clkbuf_1
*CAP
1 *3161:D 0.000132654
2 *2947:X 0.000132654
3 *3161:D *2800:B2 5.57481e-05
4 *3161:D *2944:A1 9.36823e-05
5 *3161:D *3161:CLK 1.14192e-05
*RES
1 *2947:X *3161:D 10.215 
*END

*D_NET *49 0.00025338
*CONN
*I *3162:D I *D sky130_fd_sc_hd__dfxtp_1
*I *2951:X O *D sky130_fd_sc_hd__clkbuf_1
*CAP
1 *3162:D 0.000115809
2 *2951:X 0.000115809
3 *3162:D *2807:A1 4.82319e-06
4 *3162:D *2807:A2 0
5 *3162:D *605:16 1.69392e-05
*RES
1 *2951:X *3162:D 8.97375 
*END

*D_NET *50 0.00111601
*CONN
*I *3163:D I *D sky130_fd_sc_hd__dfxtp_1
*I *2953:X O *D sky130_fd_sc_hd__clkbuf_1
*CAP
1 *3163:D 0.000190956
2 *2953:X 0.000190956
3 *3163:D *2952:A1 7.4027e-05
4 *3163:D *3312:A 0
5 *3163:D *350:12 0
6 *3163:D *351:109 0.000143955
7 *3163:D *351:164 0
8 *3163:D *356:14 0.00051612
*RES
1 *2953:X *3163:D 13.3088 
*END

*D_NET *51 0.000440762
*CONN
*I *3164:D I *D sky130_fd_sc_hd__dfxtp_1
*I *2957:X O *D sky130_fd_sc_hd__clkbuf_1
*CAP
1 *3164:D 0.000217969
2 *2957:X 0.000217969
3 *3164:D *2957:A 0
4 *3164:D *605:90 4.82319e-06
*RES
1 *2957:X *3164:D 9.76875 
*END

*D_NET *52 0.000690666
*CONN
*I *3165:D I *D sky130_fd_sc_hd__dfxtp_1
*I *2959:X O *D sky130_fd_sc_hd__clkbuf_1
*CAP
1 *3165:D 0.000298192
2 *2959:X 0.000298192
3 *3165:D *2959:A 3.32883e-05
4 *3165:D *3137:CLK 3.67779e-05
5 *3165:D *3165:CLK 1.83847e-05
6 *3165:D *889:10 5.83121e-06
*RES
1 *2959:X *3165:D 11.385 
*END

*D_NET *53 0.000352433
*CONN
*I *3166:D I *D sky130_fd_sc_hd__dfxtp_1
*I *2965:X O *D sky130_fd_sc_hd__clkbuf_1
*CAP
1 *3166:D 7.48227e-05
2 *2965:X 7.48227e-05
3 *3166:D *2991:A1 0
4 *3166:D *3166:CLK 9.13949e-06
5 *3166:D *3176:CLK 2.86975e-05
6 *3166:D *395:24 7.31286e-05
7 *3166:D *603:92 9.18221e-05
*RES
1 *2965:X *3166:D 5.435 
*END

*D_NET *54 0.00135836
*CONN
*I *3167:D I *D sky130_fd_sc_hd__dfxtp_1
*I *2967:X O *D sky130_fd_sc_hd__clkbuf_1
*CAP
1 *3167:D 0.000342925
2 *2967:X 0.000342925
3 *3167:D *2697:A1 6.03517e-05
4 *3167:D *2767:A2 3.55948e-05
5 *3167:D *2967:A 3.08148e-05
6 *3167:D *3070:A 0.000180461
7 *3167:D *3323:A 9.50342e-06
8 *3167:D *3452:A 8.8958e-05
9 *3167:D *391:12 8.96785e-05
10 *3167:D *421:49 0
11 *3167:D *590:145 0.000177149
*RES
1 *2967:X *3167:D 11.5862 
*END

*D_NET *55 0.000775673
*CONN
*I *3168:D I *D sky130_fd_sc_hd__dfxtp_1
*I *2970:X O *D sky130_fd_sc_hd__clkbuf_1
*CAP
1 *3168:D 0.000270006
2 *2970:X 0.000270006
3 *3168:D *2969:A1 7.13325e-05
4 *3168:D *3309:A 0.000164328
*RES
1 *2970:X *3168:D 12.45 
*END

*D_NET *56 0.000295496
*CONN
*I *3169:D I *D sky130_fd_sc_hd__dfxtp_1
*I *2972:X O *D sky130_fd_sc_hd__clkbuf_1
*CAP
1 *3169:D 0.000107191
2 *2972:X 0.000107191
3 *3169:D *3169:CLK 1.08105e-05
4 *3169:D *3348:A 7.03046e-05
*RES
1 *2972:X *3169:D 4.92875 
*END

*D_NET *57 0.000996828
*CONN
*I *3170:D I *D sky130_fd_sc_hd__dfxtp_1
*I *2975:X O *D sky130_fd_sc_hd__clkbuf_1
*CAP
1 *3170:D 0.000253598
2 *2975:X 0.000253598
3 *3170:D *2970:A 0.000366814
4 *3170:D *2975:A 0.000122817
*RES
1 *2975:X *3170:D 8.18375 
*END

*D_NET *58 0.000808587
*CONN
*I *3171:D I *D sky130_fd_sc_hd__dfxtp_1
*I *2978:X O *D sky130_fd_sc_hd__clkbuf_1
*CAP
1 *3171:D 0.000404294
2 *2978:X 0.000404294
3 *3171:D *419:16 0
*RES
1 *2978:X *3171:D 12.5288 
*END

*D_NET *59 0.000486959
*CONN
*I *3172:D I *D sky130_fd_sc_hd__dfxtp_1
*I *2982:X O *D sky130_fd_sc_hd__clkbuf_1
*CAP
1 *3172:D 0.000153535
2 *2982:X 0.000153535
3 *3172:D *3066:A0 4.82319e-06
4 *3172:D *3172:CLK 1.43717e-05
5 *3172:D *207:104 2.31229e-05
6 *3172:D *430:46 0.000137571
*RES
1 *2982:X *3172:D 9.76875 
*END

*D_NET *60 0.000944525
*CONN
*I *3173:D I *D sky130_fd_sc_hd__dfxtp_1
*I *2984:X O *D sky130_fd_sc_hd__clkbuf_1
*CAP
1 *3173:D 0.000272608
2 *2984:X 0.000272608
3 *3173:D *2983:A0 2.30292e-05
4 *3173:D *215:28 0.00023468
5 *3173:D *432:102 0
6 *3173:D *604:37 0.000141599
*RES
1 *2984:X *3173:D 11.4937 
*END

*D_NET *61 0.000369314
*CONN
*I *3174:D I *D sky130_fd_sc_hd__dfxtp_1
*I *2987:X O *D sky130_fd_sc_hd__clkbuf_1
*CAP
1 *3174:D 0.000112569
2 *2987:X 0.000112569
3 *3174:D *3175:CLK 8.73592e-05
4 *3174:D *606:92 5.68158e-05
*RES
1 *2987:X *3174:D 5.03375 
*END

*D_NET *62 0.000476338
*CONN
*I *3175:D I *D sky130_fd_sc_hd__dfxtp_1
*I *2989:X O *D sky130_fd_sc_hd__clkbuf_1
*CAP
1 *3175:D 0.000139703
2 *2989:X 0.000139703
3 *3175:D *2751:A 7.5654e-05
4 *3175:D *174:26 8.49205e-05
5 *3175:D *212:38 2.09527e-05
6 *3175:D *608:24 0
7 *3175:D *608:82 1.54049e-05
*RES
1 *2989:X *3175:D 9.76875 
*END

*D_NET *63 0.00122196
*CONN
*I *3176:D I *D sky130_fd_sc_hd__dfxtp_1
*I *2992:X O *D sky130_fd_sc_hd__clkbuf_1
*CAP
1 *3176:D 0.000288818
2 *2992:X 0.000288818
3 *3176:D *2707:A1 0.000131474
4 *3176:D *2992:A 4.66108e-05
5 *3176:D *2993:S 0.000163335
6 *3176:D *2994:A 0.000119756
7 *3176:D *445:109 0.000183151
*RES
1 *2992:X *3176:D 13.905 
*END

*D_NET *64 0.000790228
*CONN
*I *3177:D I *D sky130_fd_sc_hd__dfxtp_1
*I *2994:X O *D sky130_fd_sc_hd__clkbuf_1
*CAP
1 *3177:D 0.00018516
2 *2994:X 0.00018516
3 *3177:D *215:28 3.24595e-05
4 *3177:D *433:10 9.47454e-05
5 *3177:D *445:109 9.54399e-05
6 *3177:D *604:20 0.000197264
*RES
1 *2994:X *3177:D 11.0737 
*END

*D_NET *65 0.000465358
*CONN
*I *3178:D I *D sky130_fd_sc_hd__dfxtp_1
*I *2998:X O *D sky130_fd_sc_hd__clkbuf_1
*CAP
1 *3178:D 0.000123978
2 *2998:X 0.000123978
3 *3178:D *2572:B 7.53592e-05
4 *3178:D *2720:D1 0
5 *3178:D *2998:A 4.66108e-05
6 *3178:D *3179:CLK 9.5433e-05
*RES
1 *2998:X *3178:D 9.45375 
*END

*D_NET *66 0.000241252
*CONN
*I *3179:D I *D sky130_fd_sc_hd__dfxtp_1
*I *3001:X O *D sky130_fd_sc_hd__clkbuf_1
*CAP
1 *3179:D 8.43188e-05
2 *3001:X 8.43188e-05
3 *3179:D *2720:D1 5.72091e-05
4 *3179:D *2998:A 1.54049e-05
*RES
1 *3001:X *3179:D 8.97375 
*END

*D_NET *67 0.0019936
*CONN
*I *3180:D I *D sky130_fd_sc_hd__dfxtp_1
*I *3004:X O *D sky130_fd_sc_hd__clkbuf_1
*CAP
1 *3180:D 0.000439172
2 *3004:X 0.000439172
3 *3180:D *2761:A 7.59171e-05
4 *3180:D *2901:C 0.000191425
5 *3180:D *3005:A0 0.000303664
6 *3180:D *3022:A 2.51576e-05
7 *3180:D *197:20 2.65814e-06
8 *3180:D *202:10 0.000448911
9 *3180:D *873:8 6.752e-05
*RES
1 *3004:X *3180:D 16.6987 
*END

*D_NET *68 0.000651304
*CONN
*I *3181:D I *D sky130_fd_sc_hd__dfxtp_1
*I *3006:X O *D sky130_fd_sc_hd__clkbuf_1
*CAP
1 *3181:D 0.000192517
2 *3006:X 0.000192517
3 *3181:D *2918:B 9.50342e-06
4 *3181:D *3006:A 8.40269e-05
5 *3181:D *3027:A 0
6 *3181:D *340:43 0
7 *3181:D *395:24 2.96897e-05
8 *3181:D *421:20 0.00014305
*RES
1 *3006:X *3181:D 10.71 
*END

*D_NET *69 0.000651643
*CONN
*I *3182:D I *D sky130_fd_sc_hd__dfxtp_1
*I *3009:X O *D sky130_fd_sc_hd__clkbuf_1
*CAP
1 *3182:D 0.000187439
2 *3009:X 0.000187439
3 *3182:D *3182:CLK 4.66108e-05
4 *3182:D *235:18 9.24825e-05
5 *3182:D *445:88 9.10613e-05
6 *3182:D *601:121 4.66108e-05
*RES
1 *3009:X *3182:D 10.65 
*END

*D_NET *70 0.000757407
*CONN
*I *3183:D I *D sky130_fd_sc_hd__dfxtp_1
*I *3011:X O *D sky130_fd_sc_hd__clkbuf_1
*CAP
1 *3183:D 0.000123675
2 *3011:X 0.000123675
3 *3183:D *3008:A0 9.0473e-05
4 *3183:D *3008:S 0.000128185
5 *3183:D *3050:A 0.000168581
6 *3183:D *3183:CLK 0.000122817
*RES
1 *3011:X *3183:D 11.25 
*END

*D_NET *71 0.000343575
*CONN
*I *3184:D I *D sky130_fd_sc_hd__dfxtp_1
*I *3014:X O *D sky130_fd_sc_hd__clkbuf_1
*CAP
1 *3184:D 0.000120028
2 *3014:X 0.000120028
3 *3184:D *3016:A 1.43717e-05
4 *3184:D *3061:A0 2.88357e-05
5 *3184:D *604:79 4.59586e-05
6 *3184:D *604:92 1.43521e-05
*RES
1 *3014:X *3184:D 9.42375 
*END

*D_NET *72 0.000693427
*CONN
*I *3185:D I *D sky130_fd_sc_hd__dfxtp_1
*I *3016:X O *D sky130_fd_sc_hd__clkbuf_1
*CAP
1 *3185:D 0.000185541
2 *3016:X 0.000185541
3 *3185:D *604:92 0.00022034
4 *3185:D *604:99 0.000102006
*RES
1 *3016:X *3185:D 10.7288 
*END

*D_NET *73 0.00092928
*CONN
*I *3186:D I *D sky130_fd_sc_hd__dfxtp_1
*I *3019:X O *D sky130_fd_sc_hd__clkbuf_1
*CAP
1 *3186:D 0.00025852
2 *3019:X 0.00025852
3 *3186:D *3018:A0 7.54567e-05
4 *3186:D *3018:A1 7.4027e-05
5 *3186:D *3019:A 7.4027e-05
6 *3186:D *3030:S 0
7 *3186:D *3190:D 0
8 *3186:D *604:116 0.000102138
9 *3186:D *604:123 8.65905e-05
*RES
1 *3019:X *3186:D 12.84 
*END

*D_NET *74 0.000649088
*CONN
*I *3187:D I *D sky130_fd_sc_hd__dfxtp_1
*I *3021:X O *D sky130_fd_sc_hd__clkbuf_1
*CAP
1 *3187:D 0.000176535
2 *3021:X 0.000176535
3 *3187:D *3021:A 5.00612e-05
4 *3187:D *3426:A 0.000105849
5 *3187:D *604:116 0.000130846
6 *3187:D *866:8 9.26175e-06
*RES
1 *3021:X *3187:D 11.4637 
*END

*D_NET *75 0.000254415
*CONN
*I *3188:D I *D sky130_fd_sc_hd__dfxtp_1
*I *3024:X O *D sky130_fd_sc_hd__clkbuf_1
*CAP
1 *3188:D 0.00011375
2 *3024:X 0.00011375
3 *3188:D *604:79 2.69153e-05
*RES
1 *3024:X *3188:D 4.92875 
*END

*D_NET *76 0.00030745
*CONN
*I *3189:D I *D sky130_fd_sc_hd__dfxtp_1
*I *3026:X O *D sky130_fd_sc_hd__clkbuf_1
*CAP
1 *3189:D 0.000102082
2 *3026:X 0.000102082
3 *3189:D *3023:S 1.43717e-05
4 *3189:D *190:28 0
5 *3189:D *430:92 4.99619e-05
6 *3189:D *453:8 3.89528e-05
*RES
1 *3026:X *3189:D 8.91375 
*END

*D_NET *77 0.00149245
*CONN
*I *3190:D I *D sky130_fd_sc_hd__dfxtp_1
*I *3029:X O *D sky130_fd_sc_hd__clkbuf_1
*CAP
1 *3190:D 0.00051151
2 *3029:X 0.00051151
3 *3190:D *3028:A0 0
4 *3190:D *3028:A1 0.000162311
5 *3190:D *3030:S 0.000114492
6 *3190:D *3190:CLK 0.000113663
7 *3190:D *3191:D 7.89689e-05
8 *3186:D *3190:D 0
*RES
1 *3029:X *3190:D 15.6038 
*END

*D_NET *78 0.000597911
*CONN
*I *3191:D I *D sky130_fd_sc_hd__dfxtp_1
*I *3031:X O *D sky130_fd_sc_hd__clkbuf_1
*CAP
1 *3191:D 0.000138651
2 *3031:X 0.000138651
3 *3191:D *3028:A0 3.89528e-05
4 *3191:D *604:134 0.000202686
5 *3191:D *604:136 0
6 *3190:D *3191:D 7.89689e-05
*RES
1 *3031:X *3191:D 10.6987 
*END

*D_NET *79 0.00054354
*CONN
*I *3192:D I *D sky130_fd_sc_hd__dfxtp_1
*I *3034:X O *D sky130_fd_sc_hd__clkbuf_1
*CAP
1 *3192:D 0.000251502
2 *3034:X 0.000251502
3 *3192:D *3034:A 4.05358e-05
*RES
1 *3034:X *3192:D 10.9838 
*END

*D_NET *80 0.000305186
*CONN
*I *3193:D I *D sky130_fd_sc_hd__dfxtp_1
*I *3036:X O *D sky130_fd_sc_hd__clkbuf_1
*CAP
1 *3193:D 9.57612e-05
2 *3036:X 9.57612e-05
3 *3193:D *3193:CLK 0.000113663
*RES
1 *3036:X *3193:D 4.92875 
*END

*D_NET *81 0.000580017
*CONN
*I *3194:D I *D sky130_fd_sc_hd__dfxtp_1
*I *3039:X O *D sky130_fd_sc_hd__clkbuf_1
*CAP
1 *3194:D 0.00021782
2 *3039:X 0.00021782
3 *3194:D *2686:B2 0
4 *3194:D *3030:A0 9.03376e-05
5 *3194:D *3195:CLK 0
6 *3194:D *3195:D 5.40401e-05
*RES
1 *3039:X *3194:D 11.1938 
*END

*D_NET *82 0.000317146
*CONN
*I *3195:D I *D sky130_fd_sc_hd__dfxtp_1
*I *3041:X O *D sky130_fd_sc_hd__clkbuf_1
*CAP
1 *3195:D 0.000126801
2 *3041:X 0.000126801
3 *3195:D *3195:CLK 9.50342e-06
4 *3195:D *462:12 0
5 *3194:D *3195:D 5.40401e-05
*RES
1 *3041:X *3195:D 9.555 
*END

*D_NET *83 0.00132569
*CONN
*I *3196:D I *D sky130_fd_sc_hd__dfxtp_1
*I *3044:X O *D sky130_fd_sc_hd__clkbuf_1
*CAP
1 *3196:D 0.000380149
2 *3044:X 0.000380149
3 *3196:D *2756:A1 7.94968e-05
4 *3196:D *3044:A 1.14192e-05
5 *3196:D *3045:A0 0.00012281
6 *3196:D *3045:A1 0.000230838
7 *3196:D *3046:A 7.30505e-05
8 *3196:D *3197:D 4.77769e-05
*RES
1 *3044:X *3196:D 10.385 
*END

*D_NET *84 0.000447655
*CONN
*I *3197:D I *D sky130_fd_sc_hd__dfxtp_1
*I *3046:X O *D sky130_fd_sc_hd__clkbuf_1
*CAP
1 *3197:D 0.00014322
2 *3046:X 0.00014322
3 *3197:D *2687:A1 0.000105109
4 *3197:D *3045:A0 8.33066e-06
5 *3196:D *3197:D 4.77769e-05
*RES
1 *3046:X *3197:D 9.55875 
*END

*D_NET *85 0.000454897
*CONN
*I *3198:D I *D sky130_fd_sc_hd__dfxtp_1
*I *3052:X O *D sky130_fd_sc_hd__clkbuf_1
*CAP
1 *3198:D 0.000203381
2 *3052:X 0.000203381
3 *3198:D *3198:CLK 4.81348e-05
*RES
1 *3052:X *3198:D 10.245 
*END

*D_NET *86 0.000326812
*CONN
*I *3199:D I *D sky130_fd_sc_hd__dfxtp_1
*I *3054:X O *D sky130_fd_sc_hd__clkbuf_1
*CAP
1 *3199:D 0.000109178
2 *3054:X 0.000109178
3 *3199:D *3052:A 3.51254e-06
4 *3199:D *3053:A0 0
5 *3199:D *3198:CLK 3.25831e-05
6 *3199:D *602:40 7.23602e-05
*RES
1 *3054:X *3199:D 8.91375 
*END

*D_NET *87 0.000626803
*CONN
*I *3200:D I *D sky130_fd_sc_hd__dfxtp_1
*I *3057:X O *D sky130_fd_sc_hd__clkbuf_1
*CAP
1 *3200:D 0.00014858
2 *3057:X 0.00014858
3 *3200:D *2979:A 1.56428e-05
4 *3200:D *176:51 0.000121323
5 *3200:D *407:16 0.000111293
6 *3200:D *432:33 3.64998e-06
7 *3200:D *474:10 3.1562e-06
8 *3200:D *594:27 7.45772e-05
*RES
1 *3057:X *3200:D 10.095 
*END

*D_NET *88 0.00121995
*CONN
*I *3201:D I *D sky130_fd_sc_hd__dfxtp_1
*I *3059:X O *D sky130_fd_sc_hd__clkbuf_1
*CAP
1 *3201:D 0.000594056
2 *3059:X 0.000594056
3 *3201:D *3059:A 3.1835e-05
4 *3201:D *419:16 0
*RES
1 *3059:X *3201:D 14.5988 
*END

*D_NET *89 0.000879826
*CONN
*I *3202:D I *D sky130_fd_sc_hd__dfxtp_1
*I *3062:X O *D sky130_fd_sc_hd__clkbuf_1
*CAP
1 *3202:D 0.000296418
2 *3062:X 0.000296418
3 *3202:D *3202:CLK 0.000128642
4 *3202:D *3203:CLK 0.0001291
5 *3202:D *602:116 2.92496e-05
*RES
1 *3062:X *3202:D 12.3038 
*END

*D_NET *90 0.000402025
*CONN
*I *3203:D I *D sky130_fd_sc_hd__dfxtp_1
*I *3064:X O *D sky130_fd_sc_hd__clkbuf_1
*CAP
1 *3203:D 0.000108712
2 *3064:X 0.000108712
3 *3203:D *3064:A 0.0001846
*RES
1 *3064:X *3203:D 5.27375 
*END

*D_NET *91 0.00101021
*CONN
*I *3204:D I *D sky130_fd_sc_hd__dfxtp_1
*I *3067:X O *D sky130_fd_sc_hd__clkbuf_1
*CAP
1 *3204:D 0.000276958
2 *3067:X 0.000276958
3 *3204:D *2784:B1 0.000423927
4 *3204:D *197:40 3.23663e-05
*RES
1 *3067:X *3204:D 8.18375 
*END

*D_NET *92 0.00113335
*CONN
*I *3205:D I *D sky130_fd_sc_hd__dfxtp_1
*I *3069:X O *D sky130_fd_sc_hd__clkbuf_1
*CAP
1 *3205:D 0.000227776
2 *3069:X 0.000227776
3 *3205:D *3063:A0 9.30787e-05
4 *3205:D *442:99 0.000547424
5 *3205:D *483:10 0
6 *3205:D *844:6 3.72916e-05
*RES
1 *3069:X *3205:D 13.2937 
*END

*D_NET *93 0.000884093
*CONN
*I *3206:D I *D sky130_fd_sc_hd__dfxtp_1
*I *3072:X O *D sky130_fd_sc_hd__clkbuf_1
*CAP
1 *3206:D 0.000211854
2 *3072:X 0.000211854
3 *3206:D *3072:A 0.000238919
4 *3206:D *3073:A0 0.000139933
5 *3206:D *602:29 7.70938e-05
6 *3206:D *602:40 4.43871e-06
*RES
1 *3072:X *3206:D 11.1488 
*END

*D_NET *94 0.000737293
*CONN
*I *3207:D I *D sky130_fd_sc_hd__dfxtp_1
*I *3074:X O *D sky130_fd_sc_hd__clkbuf_1
*CAP
1 *3207:D 0.000208323
2 *3074:X 0.000208323
3 *3207:D *3074:A 7.70938e-05
4 *3207:D *3207:CLK 0.000168621
5 *3207:D *602:16 7.49327e-05
*RES
1 *3074:X *3207:D 11.4937 
*END

*D_NET *95 0.00115522
*CONN
*I *3208:D I *D sky130_fd_sc_hd__dfxtp_1
*I *3077:X O *D sky130_fd_sc_hd__clkbuf_1
*CAP
1 *3208:D 0.000182898
2 *3077:X 0.000182898
3 *3208:D *3053:A1 1.53032e-05
4 *3208:D *3073:A1 0.000129939
5 *3208:D *285:18 0.000113797
6 *3208:D *602:14 0.000458028
7 *3208:D *841:16 7.23602e-05
*RES
1 *3077:X *3208:D 12.8588 
*END

*D_NET *96 0.0010427
*CONN
*I *3209:D I *D sky130_fd_sc_hd__dfxtp_1
*I *3079:X O *D sky130_fd_sc_hd__clkbuf_1
*CAP
1 *3209:D 0.000328222
2 *3079:X 0.000328222
3 *3209:D *3053:A1 2.65814e-06
4 *3209:D *3071:A0 0.000333496
5 *3209:D *3073:S 5.01066e-05
6 *3209:D *477:14 0
*RES
1 *3079:X *3209:D 13.3387 
*END

*D_NET *97 0.00115777
*CONN
*I *3210:D I *D sky130_fd_sc_hd__dfxtp_1
*I *3082:X O *D sky130_fd_sc_hd__clkbuf_1
*CAP
1 *3210:D 0.000201413
2 *3082:X 0.000201413
3 *3210:D *2734:B 6.42315e-05
4 *3210:D *2785:A 0.000195386
5 *3210:D *2785:C 3.96653e-05
6 *3210:D *2786:B1 3.60648e-06
7 *3210:D *3210:CLK 0.000124007
8 *3210:D *176:79 1.47347e-05
9 *3210:D *183:59 0
10 *3210:D *321:61 2.89319e-05
11 *3210:D *374:152 0.000159353
12 *3210:D *376:46 9.34773e-06
13 *3210:D *419:67 0.00011568
*RES
1 *3082:X *3210:D 12.66 
*END

*D_NET *98 0.00113375
*CONN
*I *3211:D I *D sky130_fd_sc_hd__dfxtp_1
*I *3084:X O *D sky130_fd_sc_hd__clkbuf_1
*CAP
1 *3211:D 0.000381878
2 *3084:X 0.000381878
3 *3211:D *3081:A0 5.39718e-05
4 *3211:D *3081:S 3.96657e-05
5 *3211:D *3082:A 0.000164137
6 *3211:D *3210:CLK 1.6816e-05
7 *3211:D *3222:CLK 9.53994e-05
8 *3211:D *380:12 0
*RES
1 *3084:X *3211:D 14.3138 
*END

*D_NET *99 0.000335052
*CONN
*I *3212:D I *D sky130_fd_sc_hd__dfxtp_1
*I *3087:X O *D sky130_fd_sc_hd__clkbuf_1
*CAP
1 *3212:D 5.30863e-05
2 *3087:X 5.30863e-05
3 *3212:D *2768:B 4.82319e-06
4 *3212:D *207:26 0.000136685
5 *3212:D *321:61 7.29993e-05
6 *3212:D *603:33 1.43717e-05
*RES
1 *3087:X *3212:D 8.97375 
*END

*D_NET *100 0.00092907
*CONN
*I *3213:D I *D sky130_fd_sc_hd__dfxtp_1
*I *3090:X O *D sky130_fd_sc_hd__clkbuf_1
*CAP
1 *3213:D 0.000250596
2 *3090:X 0.000250596
3 *3213:D *2675:A 4.36348e-05
4 *3213:D *2693:C 5.20193e-05
5 *3213:D *3213:CLK 0.000108401
6 *3213:D *176:71 0.000189317
7 *3213:D *177:6 1.56428e-05
8 *3213:D *369:128 1.88639e-05
*RES
1 *3090:X *3213:D 12.0638 
*END

*D_NET *101 0.000959738
*CONN
*I *3214:D I *D sky130_fd_sc_hd__dfxtp_1
*I *3093:X O *D sky130_fd_sc_hd__clkbuf_1
*CAP
1 *3214:D 0.000302445
2 *3093:X 0.000302445
3 *3214:D *2704:A1 7.01867e-05
4 *3214:D *3093:A 9.07642e-05
5 *3214:D *3215:D 0.00015518
6 *3214:D *601:79 3.87166e-05
*RES
1 *3093:X *3214:D 12.4388 
*END

*D_NET *102 0.000435126
*CONN
*I *3215:D I *D sky130_fd_sc_hd__dfxtp_1
*I *3095:X O *D sky130_fd_sc_hd__clkbuf_1
*CAP
1 *3215:D 0.000114919
2 *3095:X 0.000114919
3 *3215:D *601:71 5.01066e-05
4 *3214:D *3215:D 0.00015518
*RES
1 *3095:X *3215:D 9.57375 
*END

*D_NET *103 0.00108005
*CONN
*I *3216:D I *D sky130_fd_sc_hd__dfxtp_1
*I *3098:X O *D sky130_fd_sc_hd__clkbuf_1
*CAP
1 *3216:D 0.000266872
2 *3098:X 0.000266872
3 *3216:D *2720:D1 6.25711e-06
4 *3216:D *3100:A 4.78548e-05
5 *3216:D *181:61 0.000310344
6 *3216:D *395:40 0
7 *3216:D *511:70 0.000163204
8 *3216:D *726:32 1.86443e-05
*RES
1 *3098:X *3216:D 12.54 
*END

*D_NET *104 0.000514993
*CONN
*I *3217:D I *D sky130_fd_sc_hd__dfxtp_1
*I *3100:X O *D sky130_fd_sc_hd__clkbuf_1
*CAP
1 *3217:D 8.94987e-05
2 *3100:X 8.94987e-05
3 *3217:D *2701:C 0.000135408
4 *3217:D *2720:D1 4.66108e-05
5 *3217:D *2758:A 6.21553e-05
6 *3217:D *3378:A 7.15931e-05
7 *3217:D *358:93 1.54049e-05
8 *3217:D *830:12 4.82319e-06
*RES
1 *3100:X *3217:D 9.42375 
*END

*D_NET *105 0.000266688
*CONN
*I *3218:D I *D sky130_fd_sc_hd__dfxtp_1
*I *3103:X O *D sky130_fd_sc_hd__clkbuf_1
*CAP
1 *3218:D 3.42904e-05
2 *3103:X 3.42904e-05
3 *3218:D *3105:A 7.4027e-05
4 *3218:D *3219:D 1.15688e-05
5 *3218:D *218:144 9.71067e-05
6 *3218:D *726:32 1.54049e-05
*RES
1 *3103:X *3218:D 8.46375 
*END

*D_NET *106 0.00136111
*CONN
*I *3219:D I *D sky130_fd_sc_hd__dfxtp_1
*I *3105:X O *D sky130_fd_sc_hd__clkbuf_1
*CAP
1 *3219:D 0.00026426
2 *3105:X 0.00026426
3 *3219:D *2708:A2 0.000160635
4 *3219:D *3105:A 0.000113905
5 *3219:D *218:144 9.79174e-05
6 *3219:D *235:18 0.000211808
7 *3219:D *476:52 0.000160635
8 *3219:D *511:76 7.61195e-05
9 *3218:D *3219:D 1.15688e-05
*RES
1 *3105:X *3219:D 14.8988 
*END

*D_NET *107 0.000306925
*CONN
*I *3220:D I *D sky130_fd_sc_hd__dfxtp_1
*I *3109:X O *D sky130_fd_sc_hd__clkbuf_1
*CAP
1 *3220:D 0.00011775
2 *3109:X 0.00011775
3 *3220:D *3220:CLK 7.14241e-05
*RES
1 *3109:X *3220:D 9.10875 
*END

*D_NET *108 0.000365691
*CONN
*I *3221:D I *D sky130_fd_sc_hd__dfxtp_1
*I *3111:X O *D sky130_fd_sc_hd__clkbuf_1
*CAP
1 *3221:D 0.000157125
2 *3111:X 0.000157125
3 *3221:D *601:18 5.14416e-05
*RES
1 *3111:X *3221:D 9.57375 
*END

*D_NET *109 0.000852101
*CONN
*I *3222:D I *D sky130_fd_sc_hd__dfxtp_1
*I *3114:X O *D sky130_fd_sc_hd__clkbuf_1
*CAP
1 *3222:D 0.0002322
2 *3114:X 0.0002322
3 *3222:D *2747:A1 7.36562e-05
4 *3222:D *2776:A 6.0011e-05
5 *3222:D *2790:C1 4.1548e-05
6 *3222:D *187:24 0.000135783
7 *3222:D *202:24 0
8 *3222:D *350:140 4.43871e-06
9 *3222:D *371:47 6.74403e-05
10 *3222:D *838:6 4.82319e-06
*RES
1 *3114:X *3222:D 12.3938 
*END

*D_NET *110 0.000365979
*CONN
*I *3223:D I *D sky130_fd_sc_hd__dfxtp_1
*I *3116:X O *D sky130_fd_sc_hd__clkbuf_1
*CAP
1 *3223:D 9.7408e-05
2 *3116:X 9.7408e-05
3 *3223:D *3116:A 4.05358e-05
4 *3223:D *187:24 4.05358e-05
5 *3223:D *358:85 9.00919e-05
*RES
1 *3116:X *3223:D 9.25875 
*END

*D_NET *111 0.00235635
*CONN
*I *3224:D I *D sky130_fd_sc_hd__dfxtp_1
*I *3119:X O *D sky130_fd_sc_hd__clkbuf_1
*CAP
1 *3224:D 0.000639321
2 *3119:X 0.000639321
3 *3224:D *3118:A1 0
4 *3224:D *601:90 0.000574942
5 *3224:D *822:8 0.000502765
*RES
1 *3119:X *3224:D 18.7388 
*END

*D_NET *112 0.000424715
*CONN
*I *3225:D I *D sky130_fd_sc_hd__dfxtp_1
*I *3121:X O *D sky130_fd_sc_hd__clkbuf_1
*CAP
1 *3225:D 0.000212357
2 *3121:X 0.000212357
3 *3225:D *3118:S 0
*RES
1 *3121:X *3225:D 10.1888 
*END

*D_NET *113 0.000331023
*CONN
*I *3226:D I *D sky130_fd_sc_hd__dfxtp_1
*I *2537:X O *D sky130_fd_sc_hd__clkbuf_1
*CAP
1 *3226:D 9.83932e-05
2 *2537:X 9.83932e-05
3 *3226:D *3226:CLK 4.77769e-05
4 *3226:D *432:33 8.64594e-05
*RES
1 *2537:X *3226:D 4.92875 
*END

*D_NET *114 0.000339036
*CONN
*I *3227:D I *D sky130_fd_sc_hd__dfxtp_1
*I *2539:X O *D sky130_fd_sc_hd__clkbuf_1
*CAP
1 *3227:D 0.000109364
2 *2539:X 0.000109364
3 *3227:D *3086:A0 9.03508e-06
4 *3227:D *3227:CLK 0.000108614
5 *3227:D *192:66 2.65814e-06
*RES
1 *2539:X *3227:D 4.92875 
*END

*D_NET *115 0.0007353
*CONN
*I *3228:D I *D sky130_fd_sc_hd__dfxtp_1
*I *2542:X O *D sky130_fd_sc_hd__clkbuf_1
*CAP
1 *3228:D 0.000177654
2 *2542:X 0.000177654
3 *3228:D *2542:A 0.000151996
4 *3228:D *2778:B 8.64421e-05
5 *3228:D *191:36 8.89542e-05
6 *3228:D *511:38 5.25992e-05
*RES
1 *2542:X *3228:D 10.7137 
*END

*D_NET *116 0.000570762
*CONN
*I *3229:D I *D sky130_fd_sc_hd__dfxtp_1
*I *2544:X O *D sky130_fd_sc_hd__clkbuf_1
*CAP
1 *3229:D 0.000108969
2 *2544:X 0.000108969
3 *3229:D *2544:A 9.75726e-05
4 *3229:D *2743:A 7.7152e-05
5 *3229:D *215:72 7.41049e-05
6 *3229:D *355:32 5.57079e-05
7 *3229:D *430:24 4.82863e-05
*RES
1 *2544:X *3229:D 10.005 
*END

*D_NET *117 0.000471568
*CONN
*I *3230:D I *D sky130_fd_sc_hd__dfxtp_1
*I *2549:X O *D sky130_fd_sc_hd__clkbuf_1
*CAP
1 *3230:D 0.000217345
2 *2549:X 0.000217345
3 *3230:D *2714:A1 3.68769e-05
4 *3230:D *591:72 0
*RES
1 *2549:X *3230:D 10.5337 
*END

*D_NET *118 0.000539326
*CONN
*I *3231:D I *D sky130_fd_sc_hd__dfxtp_1
*I *2551:X O *D sky130_fd_sc_hd__clkbuf_1
*CAP
1 *3231:D 0.000162077
2 *2551:X 0.000162077
3 *3231:D *2558:A0 2.97674e-05
4 *3231:D *3235:CLK 0
5 *3231:D *3343:A 0.000185405
6 *3231:D *591:48 0
*RES
1 *2551:X *3231:D 10.1888 
*END

*D_NET *119 0.000396457
*CONN
*I *3232:D I *D sky130_fd_sc_hd__dfxtp_1
*I *2554:X O *D sky130_fd_sc_hd__clkbuf_1
*CAP
1 *3232:D 0.000133907
2 *2554:X 0.000133907
3 *3232:D *3232:CLK 0.000128642
4 *3232:D *511:116 0
*RES
1 *2554:X *3232:D 9.49875 
*END

*D_NET *120 0.000343202
*CONN
*I *3233:D I *D sky130_fd_sc_hd__dfxtp_1
*I *2556:X O *D sky130_fd_sc_hd__clkbuf_1
*CAP
1 *3233:D 0.000161813
2 *2556:X 0.000161813
3 *3233:D *3233:CLK 1.95758e-05
*RES
1 *2556:X *3233:D 9.3 
*END

*D_NET *121 0.000404061
*CONN
*I *3234:D I *D sky130_fd_sc_hd__dfxtp_1
*I *2559:X O *D sky130_fd_sc_hd__clkbuf_1
*CAP
1 *3234:D 0.000119276
2 *2559:X 0.000119276
3 *3234:D *2559:A 3.68682e-05
4 *3234:D *3234:CLK 0.000128642
*RES
1 *2559:X *3234:D 9.49875 
*END

*D_NET *122 0.000447104
*CONN
*I *3235:D I *D sky130_fd_sc_hd__dfxtp_1
*I *2561:X O *D sky130_fd_sc_hd__clkbuf_1
*CAP
1 *3235:D 8.95182e-05
2 *2561:X 8.95182e-05
3 *3235:D *2558:A1 0.000162325
4 *3235:D *2558:S 5.37091e-05
5 *3235:D *3235:CLK 5.20335e-05
*RES
1 *2561:X *3235:D 9.57375 
*END

*D_NET *123 0.00115726
*CONN
*I *3236:D I *D sky130_fd_sc_hd__dfxtp_1
*I *2564:X O *D sky130_fd_sc_hd__clkbuf_1
*CAP
1 *3236:D 0.000378951
2 *2564:X 0.000378951
3 *3236:D *2564:A 0.000177545
4 *3236:D *2591:A 3.03989e-05
5 *3236:D *591:110 0.000147348
6 *3236:D *591:116 0
7 *3236:D *810:12 4.40711e-05
*RES
1 *2564:X *3236:D 13.8 
*END

*D_NET *124 0.00039291
*CONN
*I *3237:D I *D sky130_fd_sc_hd__dfxtp_1
*I *2566:X O *D sky130_fd_sc_hd__clkbuf_1
*CAP
1 *3237:D 0.000174876
2 *2566:X 0.000174876
3 *3237:D *591:72 2.87867e-05
4 *3237:D *591:100 1.43717e-05
*RES
1 *2566:X *3237:D 9.51375 
*END

*D_NET *125 0.000277099
*CONN
*I *3238:D I *D sky130_fd_sc_hd__dfxtp_1
*I *2569:X O *D sky130_fd_sc_hd__clkbuf_1
*CAP
1 *3238:D 0.000102809
2 *2569:X 0.000102809
3 *3238:D *2588:S 3.89366e-05
4 *3238:D *3238:CLK 9.12671e-06
5 *3238:D *927:8 2.34174e-05
*RES
1 *2569:X *3238:D 9.10875 
*END

*D_NET *126 0.000842615
*CONN
*I *3239:D I *D sky130_fd_sc_hd__dfxtp_1
*I *2571:X O *D sky130_fd_sc_hd__clkbuf_1
*CAP
1 *3239:D 0.000156929
2 *2571:X 0.000156929
3 *3239:D *2550:S 7.23602e-05
4 *3239:D *2714:B1 0.000162325
5 *3239:D *529:10 9.61344e-05
6 *3239:D *591:27 0.000197937
*RES
1 *2571:X *3239:D 10.9537 
*END

*D_NET *127 0.000417503
*CONN
*I *3240:D I *D sky130_fd_sc_hd__dfxtp_1
*I *2574:X O *D sky130_fd_sc_hd__clkbuf_1
*CAP
1 *3240:D 0.000101745
2 *2574:X 0.000101745
3 *3240:D *3242:CLK 0
4 *3240:D *511:116 6.65066e-05
5 *3240:D *598:50 7.36892e-05
6 *3240:D *815:16 7.38171e-05
*RES
1 *2574:X *3240:D 9.76875 
*END

*D_NET *128 0.000245485
*CONN
*I *3241:D I *D sky130_fd_sc_hd__dfxtp_1
*I *2576:X O *D sky130_fd_sc_hd__clkbuf_1
*CAP
1 *3241:D 6.29181e-05
2 *2576:X 6.29181e-05
3 *3241:D *3335:A 9.09055e-05
4 *3241:D *598:94 1.43717e-05
5 *3241:D *815:16 1.43717e-05
*RES
1 *2576:X *3241:D 8.46375 
*END

*D_NET *129 0.000329737
*CONN
*I *3242:D I *D sky130_fd_sc_hd__dfxtp_1
*I *2579:X O *D sky130_fd_sc_hd__clkbuf_1
*CAP
1 *3242:D 0.000119813
2 *2579:X 0.000119813
3 *3242:D *2574:A 9.01118e-05
*RES
1 *2579:X *3242:D 9.15375 
*END

*D_NET *130 0.000369235
*CONN
*I *3243:D I *D sky130_fd_sc_hd__dfxtp_1
*I *2581:X O *D sky130_fd_sc_hd__clkbuf_1
*CAP
1 *3243:D 6.17785e-05
2 *2581:X 6.17785e-05
3 *3243:D *2581:A 0.00010992
4 *3243:D *3243:CLK 2.73339e-05
5 *3243:D *598:94 1.73014e-05
6 *3243:D *598:111 9.11224e-05
*RES
1 *2581:X *3243:D 5.435 
*END

*D_NET *131 0.000262161
*CONN
*I *3244:D I *D sky130_fd_sc_hd__dfxtp_1
*I *2584:X O *D sky130_fd_sc_hd__clkbuf_1
*CAP
1 *3244:D 7.51702e-05
2 *2584:X 7.51702e-05
3 *3244:D *2584:A 3.89366e-05
4 *3244:D *2752:B 1.66897e-05
5 *3244:D *3244:CLK 5.61943e-05
*RES
1 *2584:X *3244:D 8.91375 
*END

*D_NET *132 0.000205153
*CONN
*I *3245:D I *D sky130_fd_sc_hd__dfxtp_1
*I *2586:X O *D sky130_fd_sc_hd__clkbuf_1
*CAP
1 *3245:D 5.58583e-05
2 *2586:X 5.58583e-05
3 *3245:D *2586:A 4.66037e-05
4 *3245:D *177:102 1.50866e-05
5 *3245:D *606:64 3.17463e-05
*RES
1 *2586:X *3245:D 8.46375 
*END

*D_NET *133 0.000971025
*CONN
*I *3246:D I *D sky130_fd_sc_hd__dfxtp_1
*I *2589:X O *D sky130_fd_sc_hd__clkbuf_1
*CAP
1 *3246:D 0.00034353
2 *2589:X 0.00034353
3 *3246:D *2589:A 0
4 *3246:D *2591:A 6.508e-05
5 *3246:D *3238:CLK 0.000201499
6 *3246:D *811:12 1.7386e-05
*RES
1 *2589:X *3246:D 13.5337 
*END

*D_NET *134 0.000460792
*CONN
*I *3247:D I *D sky130_fd_sc_hd__dfxtp_1
*I *2591:X O *D sky130_fd_sc_hd__clkbuf_1
*CAP
1 *3247:D 6.08848e-05
2 *2591:X 6.08848e-05
3 *3247:D *2591:A 0.000164656
4 *3247:D *3254:CLK 0.000141508
5 *3247:D *591:110 3.28583e-05
*RES
1 *2591:X *3247:D 5.43875 
*END

*D_NET *135 0.000735585
*CONN
*I *3248:D I *D sky130_fd_sc_hd__dfxtp_1
*I *2594:X O *D sky130_fd_sc_hd__clkbuf_1
*CAP
1 *3248:D 0.00022336
2 *2594:X 0.00022336
3 *3248:D *2594:A 2.75145e-05
4 *3248:D *2596:A 0.000133748
5 *3248:D *2607:A 4.82319e-06
6 *3248:D *2607:B 0.000107374
7 *3248:D *2717:B1 0
8 *3248:D *208:61 1.54049e-05
9 *3248:D *316:59 0
*RES
1 *2594:X *3248:D 11.4637 
*END

*D_NET *136 0.000363479
*CONN
*I *3249:D I *D sky130_fd_sc_hd__dfxtp_1
*I *2596:X O *D sky130_fd_sc_hd__clkbuf_1
*CAP
1 *3249:D 0.000115289
2 *2596:X 0.000115289
3 *3249:D *2596:A 2.19562e-06
4 *3249:D *2607:B 7.28794e-05
5 *3249:D *599:18 5.78262e-05
*RES
1 *2596:X *3249:D 5.03375 
*END

*D_NET *137 0.00065722
*CONN
*I *3250:D I *D sky130_fd_sc_hd__dfxtp_1
*I *2599:X O *D sky130_fd_sc_hd__clkbuf_1
*CAP
1 *3250:D 7.95259e-05
2 *2599:X 7.95259e-05
3 *3250:D *2601:A 1.90762e-05
4 *3250:D *2717:A2 9.30717e-05
5 *3250:D *3250:CLK 0.00011029
6 *3250:D *3251:D 9.30717e-05
7 *3250:D *528:67 0.000182659
*RES
1 *2599:X *3250:D 10.0387 
*END

*D_NET *138 0.000597871
*CONN
*I *3251:D I *D sky130_fd_sc_hd__dfxtp_1
*I *2601:X O *D sky130_fd_sc_hd__clkbuf_1
*CAP
1 *3251:D 0.000124131
2 *2601:X 0.000124131
3 *3251:D *2599:A 0.0001111
4 *3251:D *2717:A2 4.89362e-05
5 *3251:D *2717:B1 9.65016e-05
6 *3250:D *3251:D 9.30717e-05
*RES
1 *2601:X *3251:D 10.3687 
*END

*D_NET *139 0.000679966
*CONN
*I *3252:D I *D sky130_fd_sc_hd__dfxtp_1
*I *2604:X O *D sky130_fd_sc_hd__clkbuf_1
*CAP
1 *3252:D 0.000234929
2 *2604:X 0.000234929
3 *3252:D *2612:A 6.97118e-05
4 *3252:D *3253:CLK 1.52184e-05
5 *3252:D *328:113 0
6 *3252:D *528:93 1.34594e-05
7 *3252:D *591:12 6.36578e-05
8 *3252:D *808:6 4.8061e-05
*RES
1 *2604:X *3252:D 11.04 
*END

*D_NET *140 0.000393932
*CONN
*I *3253:D I *D sky130_fd_sc_hd__dfxtp_1
*I *2606:X O *D sky130_fd_sc_hd__clkbuf_1
*CAP
1 *3253:D 9.96957e-05
2 *2606:X 9.96957e-05
3 *3253:D *2606:A 0.000146512
4 *3253:D *2718:A 4.80285e-05
*RES
1 *2606:X *3253:D 5.78 
*END

*D_NET *141 0.00169999
*CONN
*I *3254:D I *D sky130_fd_sc_hd__dfxtp_1
*I *2609:X O *D sky130_fd_sc_hd__clkbuf_1
*CAP
1 *3254:D 0.000631462
2 *2609:X 0.000631462
3 *3254:D *2608:A0 3.0933e-05
4 *3254:D *2717:A2 5.75019e-05
5 *3254:D *2717:B1 5.68409e-05
6 *3254:D *2717:B2 8.34281e-06
7 *3254:D *3449:A 0.000163604
8 *3254:D *599:32 0
9 *3254:D *599:36 0
10 *3254:D *871:8 0.000119846
*RES
1 *2609:X *3254:D 17.4788 
*END

*D_NET *142 0.000326048
*CONN
*I *3255:D I *D sky130_fd_sc_hd__dfxtp_1
*I *2611:X O *D sky130_fd_sc_hd__clkbuf_1
*CAP
1 *3255:D 9.35934e-05
2 *2611:X 9.35934e-05
3 *3255:D *2611:A 9.05753e-05
4 *3255:D *3255:CLK 4.82863e-05
*RES
1 *2611:X *3255:D 4.92875 
*END

*D_NET *143 0.000572706
*CONN
*I *3256:D I *D sky130_fd_sc_hd__dfxtp_1
*I *2614:X O *D sky130_fd_sc_hd__clkbuf_1
*CAP
1 *3256:D 0.000190238
2 *2614:X 0.000190238
3 *3256:D *3347:A 8.58181e-05
4 *3256:D *500:26 3.3924e-05
5 *3256:D *598:29 4.1652e-06
6 *3256:D *598:46 4.87479e-05
7 *3256:D *814:14 1.95758e-05
*RES
1 *2614:X *3256:D 9.99 
*END

*D_NET *144 0.000353247
*CONN
*I *3257:D I *D sky130_fd_sc_hd__dfxtp_1
*I *2616:X O *D sky130_fd_sc_hd__clkbuf_1
*CAP
1 *3257:D 5.28023e-05
2 *2616:X 5.28023e-05
3 *3257:D *2797:A1 5.01066e-05
4 *3257:D *202:120 9.30717e-05
5 *3257:D *215:147 0.000104464
*RES
1 *2616:X *3257:D 8.80875 
*END

*D_NET *145 0.00045565
*CONN
*I *3258:D I *D sky130_fd_sc_hd__dfxtp_1
*I *2619:X O *D sky130_fd_sc_hd__clkbuf_1
*CAP
1 *3258:D 0.000102165
2 *2619:X 0.000102165
3 *3258:D *2618:S 7.32693e-05
4 *3258:D *2621:A 9.50342e-06
5 *3258:D *2949:B 9.47454e-05
6 *3258:D *3258:CLK 7.3802e-05
7 *3258:D *759:47 0
*RES
1 *2619:X *3258:D 9.45375 
*END

*D_NET *146 0.0006014
*CONN
*I *3259:D I *D sky130_fd_sc_hd__dfxtp_1
*I *2621:X O *D sky130_fd_sc_hd__clkbuf_1
*CAP
1 *3259:D 0.000258797
2 *2621:X 0.000258797
3 *3259:D *2617:B 2.86975e-05
4 *3259:D *571:10 5.5108e-05
*RES
1 *2621:X *3259:D 6.99875 
*END

*D_NET *147 0.00174765
*CONN
*I *3260:D I *D sky130_fd_sc_hd__dfxtp_1
*I *2624:X O *D sky130_fd_sc_hd__clkbuf_1
*CAP
1 *3260:D 0.000316946
2 *2624:X 0.000316946
3 *3260:D *2622:A 0.000125481
4 *3260:D *2624:A 0.000273695
5 *3260:D *350:106 2.75229e-05
6 *3260:D *356:14 0.000271341
7 *3260:D *593:73 0.00041572
*RES
1 *2624:X *3260:D 14.7487 
*END

*D_NET *148 0.000544362
*CONN
*I *3261:D I *D sky130_fd_sc_hd__dfxtp_1
*I *2626:X O *D sky130_fd_sc_hd__clkbuf_1
*CAP
1 *3261:D 0.000198104
2 *2626:X 0.000198104
3 *3261:D *2622:A 8.58181e-05
4 *3261:D *3259:CLK 4.59748e-05
5 *3261:D *328:18 0
6 *3271:D *3261:D 1.63618e-05
*RES
1 *2626:X *3261:D 9.96375 
*END

*D_NET *149 0.000546191
*CONN
*I *3262:D I *D sky130_fd_sc_hd__dfrtp_1
*I *2628:X O *D sky130_fd_sc_hd__clkbuf_1
*CAP
1 *3262:D 0.000220954
2 *2628:X 0.000220954
3 *3262:D *3262:RESET_B 4.70477e-05
4 *3262:D *619:56 3.68769e-05
5 *3262:D *619:64 2.03578e-05
*RES
1 *2628:X *3262:D 11.01 
*END

*D_NET *150 0.000620362
*CONN
*I *3272:D I *D sky130_fd_sc_hd__dfrtp_4
*I *2629:Y O *D sky130_fd_sc_hd__xnor2_1
*CAP
1 *3272:D 0.000203424
2 *2629:Y 0.000203424
3 *3272:D *2631:A 7.4027e-05
4 *3272:D *2817:B 0
5 *3272:D *3273:D 2.75145e-05
6 *3272:D *359:99 0
7 *3272:D *592:79 6.48719e-05
8 *3272:D *592:88 4.7101e-05
*RES
1 *2629:Y *3272:D 10.59 
*END

*D_NET *151 0.000731378
*CONN
*I *3273:D I *D sky130_fd_sc_hd__dfrtp_1
*I *2631:X O *D sky130_fd_sc_hd__clkbuf_1
*CAP
1 *3273:D 0.000240591
2 *2631:X 0.000240591
3 *3273:D *3326:A 0.000136679
4 *3273:D *592:79 8.60031e-05
5 *3272:D *3273:D 2.75145e-05
*RES
1 *2631:X *3273:D 11.61 
*END

*D_NET *152 0.00121471
*CONN
*I *3275:D I *D sky130_fd_sc_hd__dfrtp_1
*I *2633:X O *D sky130_fd_sc_hd__a22o_1
*CAP
1 *3275:D 0.000405963
2 *2633:X 0.000405963
3 *3275:D *2633:A1 0.000123886
4 *3275:D *2811:B 3.68593e-05
5 *3275:D *3278:CLK 7.00889e-06
6 *3275:D *3302:A 0.000139933
7 *3275:D *596:66 6.75724e-05
8 *3275:D *596:73 2.75229e-05
*RES
1 *2633:X *3275:D 13.3575 
*END

*D_NET *153 0.000118089
*CONN
*I *3420:A I *D sky130_fd_sc_hd__dlygate4sd3_1
*I *2636:X O *D sky130_fd_sc_hd__a221o_1
*CAP
1 *3420:A 4.40253e-05
2 *2636:X 4.40253e-05
3 *3420:A *2636:A2 3.00381e-05
*RES
1 *2636:X *3420:A 4.01 
*END

*D_NET *154 0.000271814
*CONN
*I *3278:D I *D sky130_fd_sc_hd__dfrtp_1
*I *2639:X O *D sky130_fd_sc_hd__clkbuf_1
*CAP
1 *3278:D 0.000135907
2 *2639:X 0.000135907
*RES
1 *2639:X *3278:D 5.045 
*END

*D_NET *155 0.00104024
*CONN
*I *3283:D I *D sky130_fd_sc_hd__dfstp_1
*I *2645:X O *D sky130_fd_sc_hd__clkbuf_1
*CAP
1 *3283:D 0.000262916
2 *2645:X 0.000262916
3 *3283:D *2644:S 0.000309896
4 *3283:D *163:20 7.01359e-05
5 *3283:D *682:20 0
6 *3284:D *3283:D 0.000134373
*RES
1 *2645:X *3283:D 11.7 
*END

*D_NET *156 0.00377395
*CONN
*I *2653:A2 I *D sky130_fd_sc_hd__a221o_1
*I *2667:B I *D sky130_fd_sc_hd__and2_1
*I *2646:X O *D sky130_fd_sc_hd__and3b_1
*CAP
1 *2653:A2 0.000838017
2 *2667:B 0.000342972
3 *2646:X 0
4 *156:4 0.00118099
5 *2653:A2 *2653:A1 0.000133376
6 *2653:A2 *2653:B1 2.77136e-05
7 *2653:A2 *2653:B2 8.525e-06
8 *2653:A2 *2664:B1 6.8919e-05
9 *2653:A2 *2668:A 7.19383e-05
10 *2653:A2 *159:16 5.21714e-05
11 *2653:A2 *593:29 0
12 *2653:A2 *682:20 5.21545e-05
13 *2653:A2 *792:6 4.8854e-05
14 *2653:A2 *792:27 4.88478e-05
15 *2653:A2 *793:18 0
16 *2653:A2 *793:24 4.66108e-05
17 *2653:A2 *794:39 1.59351e-05
18 *2667:B *2646:C 1.91597e-05
19 *2667:B *2654:A1 0.000126425
20 *2667:B *2667:A 8.64565e-05
21 *2667:B *2668:A 5.68531e-05
22 *2667:B *2825:D_N 0.000278753
23 *2667:B *159:58 4.23008e-05
24 *2667:B *682:20 7.64339e-05
25 *2667:B *793:24 7.43507e-05
26 *2653:C1 *2653:A2 1.27998e-05
27 *3284:D *2653:A2 2.47149e-05
28 *11:23 *2653:A2 3.86814e-05
*RES
1 *2646:X *156:4 1.6 
2 *156:4 *2667:B 13.475 
3 *156:4 *2653:A2 21.3037 
*END

*D_NET *157 0.00440263
*CONN
*I *2660:C I *D sky130_fd_sc_hd__and3b_1
*I *2653:B1 I *D sky130_fd_sc_hd__a221o_1
*I *2665:C I *D sky130_fd_sc_hd__and3_1
*I *2664:A3 I *D sky130_fd_sc_hd__a31o_1
*I *2647:Y O *D sky130_fd_sc_hd__nor2_1
*CAP
1 *2660:C 0.0004563
2 *2653:B1 7.67004e-05
3 *2665:C 7.97104e-05
4 *2664:A3 2.08101e-05
5 *2647:Y 0.000109767
6 *157:32 0.000574407
7 *157:16 0.000257309
8 *157:10 0.000307961
9 *2653:B1 *2653:B2 2.49708e-05
10 *2653:B1 *794:39 0.000120655
11 *2660:C *2654:A2 4.77719e-05
12 *2660:C *2654:B1 1.0397e-05
13 *2660:C *2661:A 0.000503568
14 *2660:C *2663:A1 1.64067e-05
15 *2660:C *2663:A2 0.000161467
16 *2660:C *3279:RESET_B 7.21296e-06
17 *2660:C *162:10 6.50242e-05
18 *2660:C *630:18 6.06432e-05
19 *2660:C *794:39 9.50342e-06
20 *2660:C *795:69 0.000157946
21 *2660:C *795:86 4.55442e-05
22 *2660:C *795:90 1.16283e-05
23 *2664:A3 *2665:A 0
24 *2665:C *2665:A 6.56399e-05
25 *2665:C *3330:A 8.40213e-05
26 *157:10 *2647:B 7.06865e-05
27 *157:10 *2657:A 8.40269e-05
28 *157:10 *2661:A 0.00013521
29 *157:10 *794:39 6.61973e-05
30 *157:16 *2656:C_N 0.000182931
31 *157:16 *2664:B1 8.65961e-05
32 *157:16 *2665:A 2.8185e-05
33 *157:16 *3330:A 1.16578e-05
34 *157:16 *163:20 4.66108e-05
35 *157:16 *619:50 5.79405e-05
36 *157:16 *795:97 6.27029e-05
37 *157:32 *2661:A 0.000107634
38 *157:32 *794:39 0.000115464
39 *2653:A2 *2653:B1 2.77136e-05
40 *2653:C1 *2653:B1 4.37121e-05
41 *10:25 *2660:C 0
*RES
1 *2647:Y *157:10 6.03 
2 *157:10 *157:16 5.915 
3 *157:16 *2664:A3 1.96 
4 *157:16 *2665:C 3.31 
5 *157:10 *157:32 1.38 
6 *157:32 *2653:B1 5.445 
7 *157:32 *2660:C 13.47 
*END

*D_NET *158 0.00418263
*CONN
*I *2654:B1 I *D sky130_fd_sc_hd__a211oi_1
*I *2649:C I *D sky130_fd_sc_hd__and3_1
*I *2825:C I *D sky130_fd_sc_hd__or4b_2
*I *2648:Y O *D sky130_fd_sc_hd__inv_2
*CAP
1 *2654:B1 0.000529144
2 *2649:C 2.17631e-05
3 *2825:C 2.90862e-05
4 *2648:Y 0.000694832
5 *158:12 8.17194e-05
6 *158:10 0.00125485
7 *2649:C *593:29 1.79408e-05
8 *2654:B1 *2661:A 0.000406353
9 *2654:B1 *162:10 0.000245739
10 *2654:B1 *795:27 7.19963e-05
11 *2654:B1 *795:29 0.000232701
12 *2825:C *159:16 4.77757e-05
13 *2825:C *593:29 6.0333e-05
14 *2825:C *793:8 4.6368e-06
15 *2825:C *793:10 3.04704e-05
16 *158:10 *2648:A 4.66108e-05
17 *158:10 *2649:A 9.00299e-05
18 *158:10 *3279:CLK 1.17309e-05
19 *158:10 *593:29 5.72462e-05
20 *158:10 *793:6 1.19928e-05
21 *158:10 *795:86 9.29601e-05
22 *158:12 *2649:A 4.77719e-05
23 *158:12 *593:29 3.73067e-05
24 *158:12 *793:6 3.64998e-06
25 *158:12 *793:8 4.35931e-05
26 *2660:C *2654:B1 1.0397e-05
*RES
1 *2648:Y *158:10 10.27 
2 *158:10 *158:12 1.14 
3 *158:12 *2825:C 2.74 
4 *158:12 *2649:C 2.125 
5 *158:10 *2654:B1 15.02 
*END

*D_NET *159 0.00809073
*CONN
*I *2837:B1 I *D sky130_fd_sc_hd__o21a_1
*I *2813:C I *D sky130_fd_sc_hd__and4_1
*I *2651:A2 I *D sky130_fd_sc_hd__a21o_1
*I *2663:A2 I *D sky130_fd_sc_hd__a211o_1
*I *2649:X O *D sky130_fd_sc_hd__and3_1
*CAP
1 *2837:B1 6.29742e-05
2 *2813:C 0.000180171
3 *2651:A2 0
4 *2663:A2 0.000451838
5 *2649:X 0.000399184
6 *159:58 0.00112245
7 *159:33 0.000946479
8 *159:16 0.000918193
9 *2663:A2 *2654:A2 6.13283e-05
10 *2663:A2 *2656:B 8.35157e-05
11 *2663:A2 *162:10 2.61474e-05
12 *2813:C *2813:B 9.00258e-05
13 *2813:C *2834:B 3.64998e-06
14 *2813:C *330:8 7.10593e-06
15 *2813:C *775:30 2.49909e-05
16 *2837:B1 *774:35 0
17 *2837:B1 *775:30 0.000117832
18 *159:16 *2651:B1 4.28674e-05
19 *159:16 *2668:A 0
20 *159:16 *2825:A 0.000103231
21 *159:16 *593:29 9.47267e-06
22 *159:16 *793:10 8.71841e-05
23 *159:16 *793:18 0.000156973
24 *159:16 *795:27 0.000123359
25 *159:33 *2651:B1 6.14024e-05
26 *159:58 *2667:A 0.000528562
27 *159:58 *2825:D_N 0.000338614
28 *159:58 *2860:A1 3.50152e-06
29 *159:58 *3275:RESET_B 0.000661802
30 *159:58 *3308:A 0.000134184
31 *159:58 *3361:A 0.000223286
32 *159:58 *330:8 0.000120655
33 *159:58 *663:25 6.55406e-05
34 *159:58 *774:35 2.75707e-05
35 *159:58 *774:64 3.82741e-05
36 *159:58 *775:30 1.27504e-05
37 *159:58 *779:12 0.000312778
38 *2653:A2 *159:16 5.21714e-05
39 *2660:C *2663:A2 0.000161467
40 *2663:C1 *2663:A2 0.00023912
41 *2667:B *159:58 4.23008e-05
42 *2825:C *159:16 4.77757e-05
43 *8:18 *159:58 0
*RES
1 *2649:X *159:16 11.64 
2 *159:16 *2663:A2 10.29 
3 *159:16 *159:33 3.38 
4 *159:33 *2651:A2 1.6 
5 *159:33 *159:58 30 
6 *159:58 *2813:C 5.775 
7 *159:58 *2837:B1 4.98 
*END

*D_NET *160 0.00092801
*CONN
*I *2651:B1 I *D sky130_fd_sc_hd__a21o_1
*I *2650:X O *D sky130_fd_sc_hd__and4bb_1
*CAP
1 *2651:B1 0.000255925
2 *2650:X 0.000255925
3 *2651:B1 *2651:A1 4.77757e-05
4 *2651:B1 *2654:A2 3.03465e-05
5 *2651:B1 *2660:B 0.000116614
6 *2651:B1 *2860:A1 6.69608e-06
7 *2651:B1 *795:6 2.01504e-05
8 *2651:B1 *795:27 9.03081e-05
9 *159:16 *2651:B1 4.28674e-05
10 *159:33 *2651:B1 6.14024e-05
*RES
1 *2650:X *2651:B1 11.865 
*END

*D_NET *161 0.000749467
*CONN
*I *2652:A I *D sky130_fd_sc_hd__clkbuf_2
*I *2651:X O *D sky130_fd_sc_hd__a21o_1
*CAP
1 *2652:A 0.000201119
2 *2651:X 0.000201119
3 *2652:A *2663:A1 0.000123977
4 *2652:A *2860:A1 8.64421e-05
5 *2652:A *786:12 0.000136809
*RES
1 *2651:X *2652:A 10.665 
*END

*D_NET *162 0.00357172
*CONN
*I *2656:B I *D sky130_fd_sc_hd__or3b_1
*I *2663:B1 I *D sky130_fd_sc_hd__a211o_1
*I *2654:Y O *D sky130_fd_sc_hd__a211oi_1
*CAP
1 *2656:B 0.0007736
2 *2663:B1 1.80269e-05
3 *2654:Y 0.00026409
4 *162:10 0.00105572
5 *2656:B *2637:A 0
6 *2656:B *3281:CLK 2.60986e-05
7 *2656:B *794:39 9.30717e-05
8 *2656:B *794:56 0.000160658
9 *162:10 *2646:A_N 1.79098e-05
10 *162:10 *2654:A1 4.66108e-05
11 *162:10 *2654:A2 0.000306819
12 *162:10 *2654:C1 3.5678e-06
13 *162:10 *2661:A 1.91597e-05
14 *162:10 *795:27 8.35068e-05
15 *162:10 *795:29 0.000183027
16 *2654:B1 *162:10 0.000245739
17 *2660:C *162:10 6.50242e-05
18 *2663:A2 *2656:B 8.35157e-05
19 *2663:A2 *162:10 2.61474e-05
20 *2663:C1 *2656:B 6.33849e-05
21 *2663:C1 *2663:B1 9.12671e-06
22 *2663:C1 *162:10 2.69153e-05
*RES
1 *2654:Y *162:10 8.98 
2 *162:10 *2663:B1 1.96 
3 *162:10 *2656:B 18.335 
*END

*D_NET *163 0.00698853
*CONN
*I *2656:C_N I *D sky130_fd_sc_hd__or3b_1
*I *2630:S I *D sky130_fd_sc_hd__mux2_1
*I *2629:B I *D sky130_fd_sc_hd__xnor2_1
*I *2655:X O *D sky130_fd_sc_hd__or3b_2
*CAP
1 *2656:C_N 0.000683845
2 *2630:S 0
3 *2629:B 0.000238749
4 *2655:X 0
5 *163:20 0.00181767
6 *163:4 0.00226276
7 *2629:B *2630:A1 1.83756e-05
8 *2629:B *2631:A 5.05521e-05
9 *2629:B *797:12 1.83847e-05
10 *2656:C_N *2664:B1 7.06865e-05
11 *2656:C_N *794:39 0.000459372
12 *163:20 *2655:C_N 2.49909e-05
13 *163:20 *3283:CLK 7.27003e-05
14 *163:20 *593:29 8.30853e-06
15 *163:20 *619:50 0.000108516
16 *163:20 *682:20 0
17 *163:20 *797:12 4.93771e-05
18 *2656:A *2656:C_N 2.11084e-05
19 *3283:D *163:20 7.01359e-05
20 *3284:D *163:20 0.000783458
21 *157:16 *2656:C_N 0.000182931
22 *157:16 *163:20 4.66108e-05
*RES
1 *2655:X *163:4 1.6 
2 *163:4 *163:20 27.76 
3 *163:20 *2629:B 5.5 
4 *163:20 *2630:S 1.6 
5 *163:4 *2656:C_N 14.885 
*END

*D_NET *164 0.00283095
*CONN
*I *2657:A I *D sky130_fd_sc_hd__clkbuf_1
*I *2656:X O *D sky130_fd_sc_hd__or3b_1
*CAP
1 *2657:A 0.000705817
2 *2656:X 0.000705817
3 *2657:A *2637:A 0.000326506
4 *2657:A *2647:A 2.68464e-05
5 *2657:A *2647:B 5.34747e-05
6 *2657:A *2653:A1 1.23015e-05
7 *2657:A *2664:A2 0.000112846
8 *2657:A *2666:A 0.000294115
9 *2657:A *3279:D 4.99619e-05
10 *2657:A *3281:D 0.000122331
11 *2657:A *3330:A 0.000111012
12 *2657:A *782:10 1.17409e-05
13 *2657:A *794:39 9.09288e-05
14 *10:8 *2657:A 0.000123225
15 *10:25 *2657:A 0
16 *157:10 *2657:A 8.40269e-05
*RES
1 *2656:X *2657:A 21.975 
*END

*D_NET *165 0.000761171
*CONN
*I *2659:A I *D sky130_fd_sc_hd__clkbuf_1
*I *2658:X O *D sky130_fd_sc_hd__or2_1
*CAP
1 *2659:A 0.000380585
2 *2658:X 0.000380585
3 *2659:A *780:38 0
*RES
1 *2658:X *2659:A 13.05 
*END

*D_NET *166 0.00252196
*CONN
*I *2661:A I *D sky130_fd_sc_hd__buf_1
*I *2660:X O *D sky130_fd_sc_hd__and3b_1
*CAP
1 *2661:A 0.000425728
2 *2660:X 0.000425728
3 *2661:A *2647:A 0.000183881
4 *2661:A *2647:B 3.68705e-05
5 *2661:A *793:63 0.000277824
6 *2654:B1 *2661:A 0.000406353
7 *2660:C *2661:A 0.000503568
8 *157:10 *2661:A 0.00013521
9 *157:32 *2661:A 0.000107634
10 *162:10 *2661:A 1.91597e-05
*RES
1 *2660:X *2661:A 18.48 
*END

*D_NET *167 0.00192949
*CONN
*I *2663:A1 I *D sky130_fd_sc_hd__a211o_1
*I *2860:A1 I *D sky130_fd_sc_hd__o21bai_1
*I *2662:Y O *D sky130_fd_sc_hd__inv_2
*CAP
1 *2663:A1 0.000160797
2 *2860:A1 0.000213489
3 *2662:Y 0
4 *167:4 0.000374286
5 *2663:A1 *630:18 0.000199303
6 *2663:A1 *786:12 0.000137073
7 *2860:A1 *2651:A1 4.10688e-05
8 *2860:A1 *2860:B1_N 7.06347e-05
9 *2860:A1 *786:12 2.86975e-05
10 *2651:B1 *2860:A1 6.69608e-06
11 *2652:A *2663:A1 0.000123977
12 *2652:A *2860:A1 8.64421e-05
13 *2660:C *2663:A1 1.64067e-05
14 *2860:A2 *2860:A1 0.000233557
15 *3442:A *2860:A1 0.000233557
16 *159:58 *2860:A1 3.50152e-06
*RES
1 *2662:Y *167:4 1.6 
2 *167:4 *2860:A1 11.255 
3 *167:4 *2663:A1 9.83 
*END

*D_NET *168 0.00170401
*CONN
*I *2664:B1 I *D sky130_fd_sc_hd__a31o_1
*I *2663:X O *D sky130_fd_sc_hd__a211o_1
*CAP
1 *2664:B1 0.000268908
2 *2663:X 0.000268908
3 *2664:B1 *3330:A 0
4 *2664:B1 *795:97 8.8266e-05
5 *2653:A2 *2664:B1 6.8919e-05
6 *2656:C_N *2664:B1 7.06865e-05
7 *10:25 *2664:B1 0.00062657
8 *11:23 *2664:B1 0.000225153
9 *157:16 *2664:B1 8.65961e-05
*RES
1 *2663:X *2664:B1 15.495 
*END

*D_NET *169 0.000891205
*CONN
*I *2666:A I *D sky130_fd_sc_hd__clkbuf_1
*I *2665:X O *D sky130_fd_sc_hd__and3_1
*CAP
1 *2666:A 0.000222221
2 *2665:X 0.000222221
3 *2666:A *2636:B2 3.45588e-05
4 *2666:A *2637:A 7.4027e-05
5 *2666:A *2647:B 4.00541e-06
6 *2666:A *2665:B 5.53249e-06
7 *2635:A *2666:A 3.45252e-05
8 *2657:A *2666:A 0.000294115
*RES
1 *2665:X *2666:A 12.255 
*END

*D_NET *170 0.00103427
*CONN
*I *2668:A I *D sky130_fd_sc_hd__clkbuf_1
*I *2667:X O *D sky130_fd_sc_hd__and2_1
*CAP
1 *2668:A 0.000281836
2 *2667:X 0.000281836
3 *2668:A *2654:A1 0.000131525
4 *2668:A *682:20 0.000118319
5 *2668:A *793:24 9.19583e-05
6 *2653:A2 *2668:A 7.19383e-05
7 *2667:B *2668:A 5.68531e-05
8 *159:16 *2668:A 0
*RES
1 *2667:X *2668:A 13.215 
*END

*D_NET *171 0.00832508
*CONN
*I *2692:C I *D sky130_fd_sc_hd__nor4b_1
*I *2706:D I *D sky130_fd_sc_hd__and4bb_4
*I *2705:B_N I *D sky130_fd_sc_hd__and4bb_4
*I *2683:C I *D sky130_fd_sc_hd__nor4b_2
*I *2680:D_N I *D sky130_fd_sc_hd__nor4b_4
*I *2670:D I *D sky130_fd_sc_hd__nor4_2
*I *2695:D I *D sky130_fd_sc_hd__and4_4
*I *2700:B I *D sky130_fd_sc_hd__and4b_4
*I *2679:C I *D sky130_fd_sc_hd__and4bb_4
*I *2685:B_N I *D sky130_fd_sc_hd__and4bb_4
*I *2669:X O *D sky130_fd_sc_hd__buf_2
*CAP
1 *2692:C 5.26588e-05
2 *2706:D 0
3 *2705:B_N 0
4 *2683:C 7.44028e-05
5 *2680:D_N 5.10619e-05
6 *2670:D 0
7 *2695:D 3.744e-05
8 *2700:B 4.81144e-05
9 *2679:C 1.17533e-05
10 *2685:B_N 5.55836e-05
11 *2669:X 0
12 *171:88 0.000176594
13 *171:73 0.000322731
14 *171:69 0.000549898
15 *171:58 0.000442248
16 *171:54 0.000276842
17 *171:23 0.000249577
18 *171:8 0.000648954
19 *171:6 0.000571818
20 *171:4 0.000293074
21 *2679:C *2700:C 4.82863e-05
22 *2679:C *180:71 2.75145e-05
23 *2680:D_N *3022:A 6.65066e-05
24 *2680:D_N *182:12 0.000162325
25 *2683:C *2683:A 1.41095e-05
26 *2683:C *2683:B 6.68971e-05
27 *2683:C *2683:D_N 8.8266e-05
28 *2683:C *185:12 0.000170491
29 *2683:C *207:10 2.55587e-05
30 *2685:B_N *3027:A 2.75145e-05
31 *2685:B_N *187:10 0
32 *2692:C *2692:B 2.49909e-05
33 *2695:D *2681:C 9.03291e-05
34 *2695:D *179:24 9.50342e-06
35 *2695:D *179:98 8.08256e-05
36 *2700:B *2700:C 0.000275553
37 *2700:B *2700:D 0.000122337
38 *2700:B *180:71 8.24245e-05
39 *171:6 *2681:C 0.000119762
40 *171:6 *800:40 7.66083e-05
41 *171:8 *2681:C 4.66108e-05
42 *171:8 *2685:A_N 4.29107e-05
43 *171:8 *3027:A 4.80285e-05
44 *171:8 *178:8 4.30866e-05
45 *171:8 *187:10 5.21706e-05
46 *171:23 *3027:A 2.86623e-05
47 *171:23 *178:10 0
48 *171:23 *178:102 0
49 *171:23 *185:29 0
50 *171:23 *187:120 0
51 *171:23 *737:16 1.43521e-05
52 *171:54 *172:47 0.000149766
53 *171:54 *798:12 0.000127373
54 *171:54 *798:14 3.09233e-05
55 *171:54 *799:14 2.39856e-05
56 *171:54 *800:40 8.65905e-05
57 *171:58 *2678:A 9.50342e-06
58 *171:58 *3464:A 9.50342e-06
59 *171:58 *172:47 0.000159964
60 *171:58 *798:14 0.00015046
61 *171:69 *2670:A 3.26889e-05
62 *171:69 *2706:B_N 0
63 *171:69 *2706:C 0.000103554
64 *171:69 *2716:A_N 4.66108e-05
65 *171:69 *2716:C 6.12269e-05
66 *171:69 *2716:D 0.000300221
67 *171:69 *178:29 0.000122331
68 *171:69 *179:24 6.86947e-05
69 *171:69 *218:14 5.05521e-05
70 *171:69 *800:23 8.23457e-05
71 *171:73 *178:29 0.000108137
72 *171:73 *178:37 0.00011577
73 *171:88 *2683:B 8.34281e-06
74 *171:88 *2683:D_N 0.000198939
75 *171:88 *3022:A 1.61461e-05
76 *171:88 *178:37 0.00013521
77 *171:88 *179:65 5.83121e-06
78 *171:88 *182:12 0.000179015
79 *171:88 *185:12 0.000223016
*RES
1 *2669:X *171:4 1.6 
2 *171:4 *171:6 1.83 
3 *171:6 *171:8 4.935 
4 *171:8 *2685:B_N 2.41 
5 *171:8 *171:23 6.91 
6 *171:23 *2679:C 2.05 
7 *171:23 *2700:B 4.12 
8 *171:6 *2695:D 6.725 
9 *171:4 *171:54 5.375 
10 *171:54 *171:58 3.89 
11 *171:58 *2670:D 1.6 
12 *171:58 *171:69 8.415 
13 *171:69 *171:73 5.555 
14 *171:73 *2680:D_N 5.49 
15 *171:73 *171:88 6.32 
16 *171:88 *2683:C 4.24 
17 *171:88 *2705:B_N 1.6 
18 *171:69 *2706:D 1.6 
19 *171:54 *2692:C 4.41 
*END

*D_NET *172 0.00906188
*CONN
*I *2756:A2 I *D sky130_fd_sc_hd__a221o_1
*I *2687:A2 I *D sky130_fd_sc_hd__a221o_1
*I *3464:A I *D sky130_fd_sc_hd__clkbuf_2
*I *2670:Y O *D sky130_fd_sc_hd__nor4_2
*CAP
1 *2756:A2 0.000174737
2 *2687:A2 5.31204e-05
3 *3464:A 0.00152387
4 *2670:Y 0
5 *172:47 0.00071998
6 *172:6 0.00201599
7 *2687:A2 *2687:B1 4.46687e-05
8 *2687:A2 *2688:C1 8.53011e-05
9 *2687:A2 *185:29 0.000121659
10 *2756:A2 *2756:A1 5.69249e-05
11 *2756:A2 *2756:B1 5.99438e-05
12 *2756:A2 *2756:B2 3.41765e-05
13 *2756:A2 *2756:C1 4.77807e-05
14 *2756:A2 *432:171 0.000178484
15 *2756:A2 *468:16 0.000104767
16 *2756:A2 *595:34 3.3625e-05
17 *3464:A *2678:A 0.000114339
18 *3464:A *2698:A 0.000118869
19 *3464:A *2698:C 1.13178e-05
20 *3464:A *2716:A_N 8.53113e-06
21 *3464:A *2777:A 0.000122331
22 *3464:A *2778:D 7.79847e-05
23 *3464:A *3004:A 0
24 *3464:A *3123:A0 0.000418278
25 *3464:A *3123:A1 0.00015577
26 *3464:A *3228:CLK 0.000132842
27 *3464:A *3383:A 0.000175431
28 *3464:A *3462:A 7.55008e-05
29 *3464:A *176:59 0
30 *3464:A *192:54 0.00015896
31 *3464:A *212:18 0.000304822
32 *3464:A *371:12 1.88602e-05
33 *3464:A *395:24 8.41709e-05
34 *3464:A *421:114 0
35 *3464:A *430:24 0.000204366
36 *3464:A *474:10 6.85283e-05
37 *3464:A *476:26 8.40269e-05
38 *3464:A *677:12 0.000464016
39 *3464:A *677:18 1.47446e-05
40 *3464:A *715:10 4.68984e-05
41 *3464:A *748:28 4.07391e-05
42 *172:47 *2716:A_N 4.14369e-05
43 *172:47 *2755:A2 0
44 *172:47 *2756:B1 9.23804e-06
45 *172:47 *3037:B 6.47516e-05
46 *172:47 *421:114 0
47 *172:47 *432:72 0
48 *172:47 *465:12 0
49 *172:47 *468:16 0.000155069
50 *172:47 *798:12 2.60986e-05
51 *172:47 *799:34 0
52 *172:47 *800:40 0.000289698
53 *171:54 *172:47 0.000149766
54 *171:58 *3464:A 9.50342e-06
55 *171:58 *172:47 0.000159964
*RES
1 *2670:Y *172:6 3.6 
2 *172:6 *3464:A 41.14 
3 *172:6 *172:47 10.56 
4 *172:47 *2687:A2 5.06625 
5 *172:47 *2756:A2 8.40375 
*END

*D_NET *173 0.00292635
*CONN
*I *2672:A I *D sky130_fd_sc_hd__buf_2
*I *2769:C I *D sky130_fd_sc_hd__and3_1
*I *2671:Y O *D sky130_fd_sc_hd__nor2_1
*CAP
1 *2672:A 5.96312e-05
2 *2769:C 0.000225228
3 *2671:Y 0.000271947
4 *173:8 0.000556806
5 *2672:A *2979:A 6.52181e-05
6 *2672:A *191:20 4.66108e-05
7 *2672:A *350:106 9.54469e-05
8 *2672:A *350:120 2.49909e-05
9 *2672:A *355:32 0.00015212
10 *2769:C *2740:A1 5.8241e-05
11 *2769:C *2744:C 0.000158066
12 *2769:C *2769:A 6.71882e-05
13 *2769:C *2769:B 5.73568e-06
14 *2769:C *350:106 0.000368242
15 *2769:C *355:32 0.000367561
16 *173:8 *2729:A 0.000269527
17 *173:8 *2729:B 4.21973e-05
18 *173:8 *176:16 4.16353e-05
19 *173:8 *803:10 4.99619e-05
*RES
1 *2671:Y *173:8 8.19 
2 *173:8 *2769:C 10.65 
3 *173:8 *2672:A 5.94 
*END

*D_NET *174 0.0195055
*CONN
*I *2740:A3 I *D sky130_fd_sc_hd__a31o_1
*I *2774:B I *D sky130_fd_sc_hd__and3_1
*I *2788:B2 I *D sky130_fd_sc_hd__a32o_1
*I *2737:B2 I *D sky130_fd_sc_hd__a32o_1
*I *2719:B1 I *D sky130_fd_sc_hd__o21a_1
*I *2798:B1 I *D sky130_fd_sc_hd__o31a_1
*I *2746:B I *D sky130_fd_sc_hd__and3_1
*I *2673:B I *D sky130_fd_sc_hd__nand2_1
*I *2748:B I *D sky130_fd_sc_hd__and2_1
*I *2750:A3 I *D sky130_fd_sc_hd__a311o_1
*I *2672:X O *D sky130_fd_sc_hd__buf_2
*CAP
1 *2740:A3 0.000148864
2 *2774:B 0
3 *2788:B2 0
4 *2737:B2 0
5 *2719:B1 0.000236784
6 *2798:B1 0.000169229
7 *2746:B 0
8 *2673:B 0.000480418
9 *2748:B 0
10 *2750:A3 1.70805e-05
11 *2672:X 0.000402698
12 *174:134 0.000990835
13 *174:122 0.000883815
14 *174:110 0.00163258
15 *174:91 0.00145349
16 *174:55 0.000628538
17 *174:40 0.000539427
18 *174:32 0.000771914
19 *174:26 0.000923176
20 *174:18 0.00119695
21 *2673:B *2546:A 0.00015639
22 *2673:B *2617:B 5.91243e-05
23 *2673:B *2748:A 8.49205e-05
24 *2673:B *2753:B2 0.000458663
25 *2673:B *2753:C1 1.62349e-05
26 *2673:B *2780:B1 3.24882e-05
27 *2673:B *175:6 1.92759e-05
28 *2673:B *322:55 8.23329e-05
29 *2673:B *358:67 8.09021e-06
30 *2673:B *528:10 0.000113797
31 *2673:B *528:47 4.82863e-05
32 *2719:B1 *2580:A1 7.1624e-05
33 *2719:B1 *2712:A2 2.49621e-05
34 *2719:B1 *2719:A1 5.83121e-06
35 *2719:B1 *2719:A2 0.000467269
36 *2719:B1 *2738:A2 0.000121036
37 *2719:B1 *2795:A2 2.82729e-05
38 *2719:B1 *2795:B2 0.000165624
39 *2719:B1 *3425:A 2.50751e-05
40 *2719:B1 *211:150 7.9642e-06
41 *2719:B1 *235:18 1.05185e-05
42 *2719:B1 *547:10 3.38041e-05
43 *2740:A3 *2740:B1 8.0002e-05
44 *2740:A3 *2769:B 4.27523e-05
45 *2740:A3 *2772:A 8.69417e-06
46 *2740:A3 *608:82 1.16854e-05
47 *2740:A3 *878:10 5.06544e-05
48 *2750:A3 *2750:A2 4.8175e-05
49 *2750:A3 *748:28 9.03508e-06
50 *2798:B1 *2719:A2 0.000185872
51 *2798:B1 *2792:B1 2.25596e-05
52 *2798:B1 *2795:B2 0.000301879
53 *2798:B1 *2798:A3 0.000111088
54 *174:18 *2545:C_N 0.000254504
55 *174:18 *2773:D 7.4027e-05
56 *174:18 *218:41 0.000229645
57 *174:18 *231:36 6.83488e-05
58 *174:18 *350:120 4.66108e-05
59 *174:18 *355:32 0.000237852
60 *174:18 *641:21 6.38781e-05
61 *174:18 *775:97 0.000133281
62 *174:26 *2545:C_N 4.77719e-05
63 *174:26 *2988:A0 0.000307929
64 *174:26 *2988:S 0.000234768
65 *174:26 *3363:A 4.41506e-05
66 *174:26 *218:41 0.000164294
67 *174:32 *2774:A 4.80285e-05
68 *174:32 *371:51 0.000332148
69 *174:32 *384:30 0.000174794
70 *174:40 *2567:A 3.18367e-05
71 *174:40 *2750:A2 2.30292e-05
72 *174:40 *2751:D 4.82919e-05
73 *174:40 *2889:B 9.50342e-06
74 *174:40 *2908:C 0
75 *174:40 *371:51 0.000574442
76 *174:40 *384:30 3.72007e-05
77 *174:40 *608:46 0
78 *174:40 *748:28 1.17036e-05
79 *174:40 *748:38 5.05521e-05
80 *174:55 *2546:A 8.40213e-05
81 *174:55 *2750:A2 2.45107e-05
82 *174:55 *2750:B1 9.33415e-05
83 *174:55 *2751:D 0.000197535
84 *174:55 *2780:B1 3.96653e-05
85 *174:55 *215:102 2.45801e-05
86 *174:91 *177:102 0.0001324
87 *174:110 *177:102 0.000469448
88 *174:110 *207:43 0.000128266
89 *174:110 *231:133 2.59925e-05
90 *174:110 *391:64 7.85898e-05
91 *174:110 *527:44 0.000115263
92 *174:122 *2737:A1 0.000136632
93 *174:122 *2752:B 9.54115e-05
94 *174:122 *2788:A1 3.79166e-05
95 *174:122 *2788:B1 7.28657e-05
96 *174:122 *2904:A 6.1907e-05
97 *174:122 *212:73 1.08758e-05
98 *174:122 *231:105 7.11235e-06
99 *174:122 *291:40 2.14363e-05
100 *174:122 *328:84 0
101 *174:134 *2737:A1 2.92862e-05
102 *174:134 *2737:A3 2.94813e-05
103 *174:134 *2737:B1 1.58616e-05
104 *174:134 *2792:A2 0.000215146
105 *174:134 *2904:A 8.23457e-05
106 *174:134 *212:77 0.00041483
107 *174:134 *395:40 0.000137452
108 *3175:D *174:26 8.49205e-05
*RES
1 *2672:X *174:18 13.67 
2 *174:18 *174:26 11.445 
3 *174:26 *174:32 7.67 
4 *174:32 *174:40 10.49 
5 *174:40 *2750:A3 2.35 
6 *174:40 *174:55 4.02 
7 *174:55 *2748:B 1.6 
8 *174:55 *2673:B 16.9587 
9 *174:32 *174:91 3.485 
10 *174:91 *2746:B 1.6 
11 *174:91 *174:110 21.4 
12 *174:110 *174:122 9.565 
13 *174:122 *174:134 14.675 
14 *174:134 *2798:B1 8.34 
15 *174:134 *2719:B1 10.815 
16 *174:122 *2737:B2 1.6 
17 *174:110 *2788:B2 1.6 
18 *174:26 *2774:B 1.6 
19 *174:18 *2740:A3 8.555 
*END

*D_NET *175 0.0029301
*CONN
*I *2808:A2 I *D sky130_fd_sc_hd__o21a_1
*I *2753:A2 I *D sky130_fd_sc_hd__o221a_1
*I *2673:Y O *D sky130_fd_sc_hd__nand2_1
*CAP
1 *2808:A2 0.000636065
2 *2753:A2 3.42638e-05
3 *2673:Y 0.000204434
4 *175:6 0.000874762
5 *2753:A2 *2753:B1 5.4155e-06
6 *2808:A2 *2624:A 0.00019391
7 *2808:A2 *2625:S 0.000376773
8 *2808:A2 *2626:A 0.000194278
9 *2808:A2 *350:106 0.000148216
10 *2808:A2 *356:14 8.754e-05
11 *2808:A2 *692:6 3.83194e-05
12 *175:6 *2753:B2 6.97528e-06
13 *175:6 *2753:C1 2.75229e-05
14 *2673:B *175:6 1.92759e-05
15 *3270:D *2808:A2 8.23457e-05
*RES
1 *2673:Y *175:6 3.775 
2 *175:6 *2753:A2 2.215 
3 *175:6 *2808:A2 16.31 
*END

*D_NET *176 0.0205918
*CONN
*I *2744:B I *D sky130_fd_sc_hd__and3_1
*I *2772:B I *D sky130_fd_sc_hd__and3_1
*I *2698:B I *D sky130_fd_sc_hd__and3_1
*I *2761:B I *D sky130_fd_sc_hd__and3_1
*I *2675:A I *D sky130_fd_sc_hd__clkbuf_4
*I *2760:A2 I *D sky130_fd_sc_hd__a311o_1
*I *2785:B I *D sky130_fd_sc_hd__and3_1
*I *2734:B I *D sky130_fd_sc_hd__and3_1
*I *2775:B I *D sky130_fd_sc_hd__and3_1
*I *2674:Y O *D sky130_fd_sc_hd__nor2b_2
*CAP
1 *2744:B 0.000241529
2 *2772:B 3.43202e-05
3 *2698:B 0
4 *2761:B 0
5 *2675:A 4.14572e-05
6 *2760:A2 0.000733628
7 *2785:B 0
8 *2734:B 0.000323741
9 *2775:B 0.000141145
10 *2674:Y 0.000105434
11 *176:79 0.000955684
12 *176:73 0.00136557
13 *176:71 0.000648048
14 *176:59 0.00119534
15 *176:51 0.00201325
16 *176:24 0.00173454
17 *176:16 0.000513483
18 *176:6 0.000657232
19 *2734:B *2572:A 0.000120655
20 *2734:B *2786:B1 0.000119734
21 *2734:B *2896:A 3.28691e-05
22 *2734:B *2897:S 1.45508e-05
23 *2734:B *3210:CLK 1.85674e-05
24 *2734:B *183:59 1.01661e-05
25 *2734:B *321:61 4.00394e-05
26 *2734:B *374:152 0.000318664
27 *2744:B *2744:A 2.11084e-05
28 *2744:B *2744:C 4.66108e-05
29 *2744:B *2973:A 1.88602e-05
30 *2744:B *2977:S 7.4027e-05
31 *2744:B *322:8 0.000113797
32 *2744:B *323:55 0
33 *2744:B *350:106 0.000119637
34 *2744:B *774:83 1.53032e-05
35 *2760:A2 *2693:C 1.29248e-05
36 *2760:A2 *2697:B1 0
37 *2760:A2 *2760:A1 0.000120325
38 *2760:A2 *2768:C 0.000277584
39 *2760:A2 *2768:D 4.07499e-05
40 *2760:A2 *197:143 8.7152e-06
41 *2760:A2 *202:62 0.00019903
42 *2760:A2 *345:29 0
43 *2760:A2 *369:128 3.20436e-05
44 *2772:B *2773:D 3.66286e-05
45 *2775:B *2775:C 9.56447e-06
46 *2775:B *2778:B 8.73389e-06
47 *2775:B *215:78 2.76356e-05
48 *176:6 *2729:B 0.000158066
49 *176:6 *802:16 3.57349e-05
50 *176:16 *2729:B 1.16578e-05
51 *176:16 *2772:A 5.74791e-05
52 *176:16 *2773:D 0.000244922
53 *176:16 *231:36 0.000130073
54 *176:16 *641:12 8.49205e-05
55 *176:24 *2773:A 0.000139245
56 *176:24 *2773:B 0.000160346
57 *176:24 *215:78 0.000133932
58 *176:24 *415:41 5.7344e-05
59 *176:24 *759:18 8.53113e-06
60 *176:24 *775:97 3.30143e-05
61 *176:51 *2887:A 3.64998e-06
62 *176:51 *2979:A 0.00037386
63 *176:51 *3048:B 2.5761e-05
64 *176:51 *3056:A0 0.00013578
65 *176:51 *317:69 0.000266398
66 *176:51 *336:28 4.96965e-05
67 *176:51 *352:42 1.87913e-05
68 *176:51 *370:8 0.00034551
69 *176:51 *370:14 3.71957e-05
70 *176:51 *407:16 0.000241875
71 *176:51 *411:33 0
72 *176:51 *415:41 0.000200642
73 *176:51 *432:33 0.000638031
74 *176:51 *474:10 0.000455741
75 *176:51 *476:10 0
76 *176:51 *590:124 0.000152524
77 *176:51 *590:135 0.000133292
78 *176:51 *759:12 0.000180689
79 *176:51 *759:18 6.21553e-05
80 *176:51 *775:97 4.39079e-05
81 *176:59 *2698:A 4.45596e-05
82 *176:59 *2698:C 4.98832e-05
83 *176:59 *2699:B1 5.18436e-05
84 *176:59 *3389:A 1.91597e-05
85 *176:59 *193:18 0.000367583
86 *176:59 *193:24 0.000127793
87 *176:59 *384:22 4.56009e-05
88 *176:59 *677:18 5.75434e-05
89 *176:59 *715:10 2.98644e-05
90 *176:59 *748:28 4.59022e-06
91 *176:71 *2762:A1 1.34446e-05
92 *176:71 *3213:CLK 0.00013492
93 *176:71 *187:24 0.000133365
94 *176:71 *193:24 2.49909e-05
95 *176:71 *371:47 0.000134595
96 *176:79 *2693:C 9.83319e-05
97 *176:79 *3089:A0 0
98 *176:79 *3210:CLK 7.06865e-05
99 *176:79 *177:102 9.42224e-05
100 *176:79 *192:81 0.000172375
101 *176:79 *369:128 0.00125792
102 *176:79 *380:12 0
103 *176:79 *500:141 0
104 *3200:D *176:51 0.000121323
105 *3210:D *2734:B 6.42315e-05
106 *3210:D *176:79 1.47347e-05
107 *3213:D *2675:A 4.36348e-05
108 *3213:D *176:71 0.000189317
109 *3464:A *176:59 0
110 *173:8 *176:16 4.16353e-05
*RES
1 *2674:Y *176:6 3.43 
2 *176:6 *176:16 6.375 
3 *176:16 *176:24 6.74 
4 *176:24 *2775:B 5.085 
5 *176:24 *176:51 35.715 
6 *176:51 *176:59 13.045 
7 *176:59 *176:71 12.67 
8 *176:71 *176:73 2 
9 *176:73 *176:79 17.6 
10 *176:79 *2734:B 12.095 
11 *176:79 *2785:B 1.6 
12 *176:73 *2760:A2 7.79833 
13 *176:71 *2675:A 2.665 
14 *176:59 *2761:B 1.6 
15 *176:51 *2698:B 1.6 
16 *176:16 *2772:B 2.05 
17 *176:6 *2744:B 10.01 
*END

*D_NET *177 0.0165376
*CONN
*I *2697:A2 I *D sky130_fd_sc_hd__a31o_1
*I *2767:A1 I *D sky130_fd_sc_hd__a22o_1
*I *2708:B2 I *D sky130_fd_sc_hd__a22o_1
*I *2745:A2 I *D sky130_fd_sc_hd__a31o_1
*I *2742:A2 I *D sky130_fd_sc_hd__a311o_1
*I *2780:A2 I *D sky130_fd_sc_hd__a31o_1
*I *2790:A1 I *D sky130_fd_sc_hd__a2111o_1
*I *2720:A1 I *D sky130_fd_sc_hd__a2111o_1
*I *2702:A2 I *D sky130_fd_sc_hd__a31o_1
*I *2764:A2 I *D sky130_fd_sc_hd__a31o_1
*I *2675:X O *D sky130_fd_sc_hd__clkbuf_4
*CAP
1 *2697:A2 1.92652e-05
2 *2767:A1 0
3 *2708:B2 0.000154282
4 *2745:A2 0.000145035
5 *2742:A2 1.56118e-05
6 *2780:A2 0.00013063
7 *2790:A1 0
8 *2720:A1 2.04088e-05
9 *2702:A2 3.43921e-05
10 *2764:A2 0.000248137
11 *2675:X 0.000375973
12 *177:117 0.00019193
13 *177:102 0.00179781
14 *177:75 0.00239459
15 *177:50 0.000963163
16 *177:20 0.00045429
17 *177:16 0.000445386
18 *177:14 0.000353688
19 *177:8 0.00022109
20 *177:6 0.000506484
21 *2708:B2 *2703:B 8.9257e-05
22 *2708:B2 *2708:A1 0.00017257
23 *2708:B2 *2708:A2 1.48927e-05
24 *2708:B2 *2708:B1 2.49909e-05
25 *2708:B2 *2767:B1 1.7034e-05
26 *2708:B2 *345:41 0.000231812
27 *2720:A1 *190:28 4.87465e-06
28 *2745:A2 *2742:A1 2.86975e-05
29 *2745:A2 *211:76 0.000302103
30 *2745:A2 *211:94 1.42674e-05
31 *2745:A2 *215:102 0.000162645
32 *2745:A2 *231:36 0.000202066
33 *2745:A2 *411:47 0.000186405
34 *2764:A2 *2702:B1 1.79174e-05
35 *2764:A2 *2764:A1 5.31158e-06
36 *2764:A2 *202:77 4.84544e-05
37 *2764:A2 *202:102 9.98057e-05
38 *2764:A2 *395:40 1.0397e-05
39 *2780:A2 *2751:A 1.36113e-05
40 *2780:A2 *2781:D 6.66631e-05
41 *2780:A2 *2931:B 0.000222804
42 *177:6 *2697:A1 8.85708e-05
43 *177:6 *2697:B1 0.000272848
44 *177:6 *2767:A2 8.73389e-06
45 *177:6 *2768:D 0.00010899
46 *177:8 *2703:B 7.18107e-06
47 *177:8 *2767:A2 3.39368e-05
48 *177:8 *2768:D 0.000156767
49 *177:8 *193:40 1.14192e-05
50 *177:8 *197:100 6.81824e-05
51 *177:14 *2767:B1 8.23457e-05
52 *177:14 *193:40 1.43622e-05
53 *177:16 *2703:A 9.12359e-06
54 *177:16 *2703:B 0.000132253
55 *177:16 *2720:C1 0.000173354
56 *177:20 *2703:D 0.000118081
57 *177:20 *202:62 2.747e-05
58 *177:20 *202:77 1.08036e-05
59 *177:50 *2703:A 1.12156e-05
60 *177:50 *2708:A2 0
61 *177:50 *2720:B1 4.82919e-05
62 *177:50 *2720:C1 0.000192775
63 *177:50 *2720:D1 0.000130359
64 *177:50 *190:28 4.50227e-05
65 *177:75 *2694:A2 3.09725e-05
66 *177:75 *2696:A 2.39856e-05
67 *177:75 *2703:A 0.000117872
68 *177:75 *2759:C 0
69 *177:75 *2760:B1 4.41506e-05
70 *177:75 *2760:C1 0
71 *177:75 *2790:C1 0.00012306
72 *177:75 *2790:D1 5.07376e-05
73 *177:75 *3081:A1 4.25242e-05
74 *177:75 *3096:B 4.38051e-05
75 *177:75 *3097:A0 0
76 *177:75 *183:42 0.000228097
77 *177:75 *190:28 4.95182e-05
78 *177:75 *192:91 3.03199e-05
79 *177:75 *197:143 2.48269e-05
80 *177:75 *291:40 0
81 *177:75 *350:140 0
82 *177:75 *391:42 8.23457e-05
83 *177:75 *476:46 0.000157026
84 *177:75 *500:141 2.4852e-05
85 *177:102 *2742:A1 1.43622e-05
86 *177:102 *2742:A3 4.77769e-05
87 *177:102 *2746:C 6.62632e-05
88 *177:102 *2747:B1 0.000117865
89 *177:102 *2785:C 8.06691e-05
90 *177:102 *2790:C1 0.000560767
91 *177:102 *2986:A0 0.000100819
92 *177:102 *2986:A1 4.17185e-05
93 *177:102 *2986:S 0.00020422
94 *177:102 *3082:A 5.02217e-05
95 *177:102 *3210:CLK 7.23533e-05
96 *177:102 *212:63 0.000177804
97 *177:102 *212:117 0.000193547
98 *177:102 *231:36 0.000268176
99 *177:102 *369:128 0.00013382
100 *177:102 *374:107 8.32311e-06
101 *177:102 *380:12 0
102 *177:102 *715:20 0.000108317
103 *177:102 *879:14 0.000127636
104 *177:117 *2742:A1 2.10214e-05
105 *177:117 *2742:A3 8.23457e-05
106 *177:117 *231:36 5.00602e-05
107 *177:117 *411:47 4.77757e-05
108 *3213:D *177:6 1.56428e-05
109 *3245:D *177:102 1.50866e-05
110 *174:91 *177:102 0.0001324
111 *174:110 *177:102 0.000469448
112 *176:79 *177:102 9.42224e-05
*RES
1 *2675:X *177:6 7.915 
2 *177:6 *177:8 2.52 
3 *177:8 *177:14 3.5 
4 *177:14 *177:16 2.145 
5 *177:16 *177:20 4.175 
6 *177:20 *2764:A2 8.99 
7 *177:20 *2702:A2 2.215 
8 *177:16 *177:50 6.11 
9 *177:50 *2720:A1 1.96 
10 *177:50 *177:75 21.245 
11 *177:75 *2790:A1 1.6 
12 *177:75 *177:102 37.225 
13 *177:102 *2780:A2 8.54 
14 *177:102 *177:117 1.14 
15 *177:117 *2742:A2 1.96 
16 *177:117 *2745:A2 7.345 
17 *177:14 *2708:B2 7.86 
18 *177:8 *2767:A1 1.6 
19 *177:6 *2697:A2 1.96 
*END

*D_NET *178 0.00619844
*CONN
*I *2700:D I *D sky130_fd_sc_hd__and4b_4
*I *2679:A_N I *D sky130_fd_sc_hd__and4bb_4
*I *2685:D I *D sky130_fd_sc_hd__and4bb_4
*I *2692:B I *D sky130_fd_sc_hd__nor4b_1
*I *2695:B I *D sky130_fd_sc_hd__and4_4
*I *2681:D I *D sky130_fd_sc_hd__and4bb_4
*I *2706:B_N I *D sky130_fd_sc_hd__and4bb_4
*I *2705:D I *D sky130_fd_sc_hd__and4bb_4
*I *2683:D_N I *D sky130_fd_sc_hd__nor4b_2
*I *2680:B I *D sky130_fd_sc_hd__nor4b_4
*I *2676:X O *D sky130_fd_sc_hd__clkbuf_4
*CAP
1 *2700:D 0.000101583
2 *2679:A_N 0
3 *2685:D 0
4 *2692:B 0.000150117
5 *2695:B 0
6 *2681:D 5.94797e-05
7 *2706:B_N 2.08101e-05
8 *2705:D 0
9 *2683:D_N 4.88919e-05
10 *2680:B 8.93616e-05
11 *2676:X 0.000175993
12 *178:102 0.000173773
13 *178:71 0.000491455
14 *178:58 0.000400818
15 *178:37 0.000244985
16 *178:29 0.000369553
17 *178:14 0.000328004
18 *178:12 0.000131363
19 *178:10 7.02546e-05
20 *178:8 0.000273066
21 *2680:B *2680:C 4.82863e-05
22 *2680:B *3027:A 0.000111324
23 *2680:B *187:24 0.000109449
24 *2680:B *215:28 2.11084e-05
25 *2681:D *2681:C 1.08758e-05
26 *2681:D *179:56 2.16833e-05
27 *2681:D *179:65 0
28 *2681:D *183:18 0
29 *2683:D_N *2683:B 8.57321e-05
30 *2683:D_N *207:10 0.00012657
31 *2692:B *2695:A 4.99619e-05
32 *2692:B *179:10 0.000268734
33 *2692:B *432:72 5.16348e-05
34 *2700:D *2679:B_N 1.34503e-05
35 *2700:D *2700:C 2.30292e-05
36 *2700:D *180:71 4.82919e-05
37 *178:8 *2685:A_N 8.57024e-05
38 *178:8 *187:10 8.23457e-05
39 *178:10 *180:71 5.16348e-05
40 *178:12 *3027:A 5.45814e-05
41 *178:12 *180:54 9.07409e-05
42 *178:12 *180:71 2.30797e-05
43 *178:14 *3027:A 0.000107872
44 *178:14 *180:54 9.044e-05
45 *178:14 *187:24 5.92269e-05
46 *178:37 *3022:A 8.44281e-05
47 *178:37 *182:12 1.07797e-05
48 *178:71 *2681:C 0.000189794
49 *178:71 *2695:A 2.47079e-05
50 *178:71 *179:10 4.66108e-05
51 *178:102 *180:71 9.54469e-05
52 *178:102 *187:120 2.23407e-05
53 *2683:C *2683:D_N 8.8266e-05
54 *2692:C *2692:B 2.49909e-05
55 *2700:B *2700:D 0.000122337
56 *171:8 *178:8 4.30866e-05
57 *171:23 *178:10 0
58 *171:23 *178:102 0
59 *171:69 *2706:B_N 0
60 *171:69 *178:29 0.000122331
61 *171:73 *178:29 0.000108137
62 *171:73 *178:37 0.00011577
63 *171:88 *2683:D_N 0.000198939
64 *171:88 *178:37 0.00013521
*RES
1 *2676:X *178:8 6.465 
2 *178:8 *178:10 0.615 
3 *178:10 *178:12 1.38 
4 *178:12 *178:14 2.4 
5 *178:14 *2680:B 6.45 
6 *178:14 *178:29 4.865 
7 *178:29 *178:37 8.065 
8 *178:37 *2683:D_N 4.12 
9 *178:37 *2705:D 1.6 
10 *178:29 *2706:B_N 1.96 
11 *178:12 *178:58 2 
12 *178:58 *2681:D 2.77 
13 *178:58 *178:71 4.245 
14 *178:71 *2695:B 1.6 
15 *178:71 *2692:B 8.84 
16 *178:10 *2685:D 3.6 
17 *178:8 *178:102 3.635 
18 *178:102 *2679:A_N 1.6 
19 *178:102 *2700:D 3.79 
*END

*D_NET *179 0.009617
*CONN
*I *2695:C I *D sky130_fd_sc_hd__and4_4
*I *2679:B_N I *D sky130_fd_sc_hd__and4bb_4
*I *2700:A_N I *D sky130_fd_sc_hd__and4b_4
*I *2685:A_N I *D sky130_fd_sc_hd__and4bb_4
*I *2716:B I *D sky130_fd_sc_hd__and4b_4
*I *2683:B I *D sky130_fd_sc_hd__nor4b_2
*I *2705:C I *D sky130_fd_sc_hd__and4bb_4
*I *2681:B_N I *D sky130_fd_sc_hd__and4bb_4
*I *2680:C I *D sky130_fd_sc_hd__nor4b_4
*I *2706:C I *D sky130_fd_sc_hd__and4bb_4
*I *2677:X O *D sky130_fd_sc_hd__clkbuf_4
*CAP
1 *2695:C 0
2 *2679:B_N 0.00063778
3 *2700:A_N 0
4 *2685:A_N 7.47462e-05
5 *2716:B 1.98299e-05
6 *2683:B 0.000413166
7 *2705:C 0
8 *2681:B_N 0
9 *2680:C 0.00026152
10 *2706:C 0.000137819
11 *2677:X 0.000313585
12 *179:113 0.000709096
13 *179:98 0.000231954
14 *179:65 0.000522799
15 *179:56 0.000287159
16 *179:35 0.000439047
17 *179:26 0.000226809
18 *179:24 0.0003264
19 *179:12 0.000303472
20 *179:10 0.000313585
21 *2679:B_N *2700:C 0.00041529
22 *2679:B_N *3027:B 0
23 *2679:B_N *180:71 9.53428e-06
24 *2679:B_N *181:10 4.82863e-05
25 *2680:C *3005:A0 9.54399e-05
26 *2680:C *180:6 4.82919e-05
27 *2680:C *180:10 9.54399e-05
28 *2680:C *208:102 1.85674e-05
29 *2680:C *215:28 8.00775e-05
30 *2683:B *2683:A 2.98092e-05
31 *2683:B *207:10 0.000163204
32 *2685:A_N *2676:A 3.13939e-05
33 *2685:A_N *2681:C 2.75229e-05
34 *2706:C *2716:D 4.66108e-05
35 *2716:B *2716:D 4.77757e-05
36 *179:10 *2692:D_N 4.82863e-05
37 *179:10 *2695:A 3.96737e-05
38 *179:10 *801:8 0.00015639
39 *179:24 *202:10 9.54399e-05
40 *179:24 *432:72 0.000192601
41 *179:26 *2716:D 0.000153816
42 *179:56 *2681:C 0.00015639
43 *179:56 *3005:A0 0.000202095
44 *179:56 *180:10 2.07184e-05
45 *179:56 *180:28 0.000160658
46 *179:56 *180:30 8.23457e-05
47 *179:56 *180:32 0.000272978
48 *179:56 *180:87 4.66108e-05
49 *179:56 *183:18 1.61831e-05
50 *179:56 *187:24 1.07797e-05
51 *179:65 *2683:A 2.26018e-05
52 *179:65 *2705:A_N 5.4155e-06
53 *179:65 *180:32 3.23663e-05
54 *179:65 *183:18 0.000210149
55 *179:65 *185:12 4.01778e-05
56 *179:98 *2681:C 1.07797e-05
57 *179:98 *202:10 0
58 *179:98 *432:72 0.000134516
59 *179:113 *202:10 7.37195e-05
60 *179:113 *432:72 9.9535e-05
61 *2680:B *2680:C 4.82863e-05
62 *2681:D *179:56 2.16833e-05
63 *2681:D *179:65 0
64 *2683:C *2683:B 6.68971e-05
65 *2683:D_N *2683:B 8.57321e-05
66 *2692:B *179:10 0.000268734
67 *2695:D *179:24 9.50342e-06
68 *2695:D *179:98 8.08256e-05
69 *2700:D *2679:B_N 1.34503e-05
70 *171:8 *2685:A_N 4.29107e-05
71 *171:69 *2706:C 0.000103554
72 *171:69 *179:24 6.86947e-05
73 *171:88 *2683:B 8.34281e-06
74 *171:88 *179:65 5.83121e-06
75 *178:8 *2685:A_N 8.57024e-05
76 *178:71 *179:10 4.66108e-05
*RES
1 *2677:X *179:10 7.345 
2 *179:10 *179:12 2 
3 *179:12 *179:24 10.155 
4 *179:24 *179:26 1.485 
5 *179:26 *2706:C 3.775 
6 *179:26 *179:35 2 
7 *179:35 *2680:C 8.655 
8 *179:35 *179:56 7.955 
9 *179:56 *2681:B_N 1.6 
10 *179:56 *179:65 3.135 
11 *179:65 *2705:C 1.6 
12 *179:65 *2683:B 7.825 
13 *179:24 *2716:B 2.05 
14 *179:12 *179:98 2.085 
15 *179:98 *2685:A_N 5.445 
16 *179:98 *179:113 4.145 
17 *179:113 *2700:A_N 1.6 
18 *179:113 *2679:B_N 10.54 
19 *179:10 *2695:C 1.6 
*END

*D_NET *180 0.00782258
*CONN
*I *2680:A I *D sky130_fd_sc_hd__nor4b_4
*I *2695:A I *D sky130_fd_sc_hd__and4_4
*I *2681:A_N I *D sky130_fd_sc_hd__and4bb_4
*I *2700:C I *D sky130_fd_sc_hd__and4b_4
*I *2679:D I *D sky130_fd_sc_hd__and4bb_4
*I *2685:C I *D sky130_fd_sc_hd__and4bb_4
*I *2705:A_N I *D sky130_fd_sc_hd__and4bb_4
*I *2683:A I *D sky130_fd_sc_hd__nor4b_2
*I *2716:D I *D sky130_fd_sc_hd__and4b_4
*I *2706:A_N I *D sky130_fd_sc_hd__and4bb_4
*I *2678:X O *D sky130_fd_sc_hd__clkbuf_4
*CAP
1 *2680:A 0
2 *2695:A 0.000184182
3 *2681:A_N 1.41956e-05
4 *2700:C 6.75158e-05
5 *2679:D 0
6 *2685:C 0
7 *2705:A_N 1.88809e-05
8 *2683:A 0.000663072
9 *2716:D 8.96562e-05
10 *2706:A_N 0
11 *2678:X 9.6314e-05
12 *180:87 0.000246621
13 *180:71 0.000310922
14 *180:54 0.000312197
15 *180:32 0.000850398
16 *180:30 0.00028248
17 *180:28 0.000135959
18 *180:12 8.96562e-05
19 *180:10 9.10465e-05
20 *180:6 0.000144888
21 *2683:A *185:12 0.000530842
22 *2695:A *2681:C 0.000124399
23 *2716:D *2716:C 2.75229e-05
24 *180:6 *215:28 7.32791e-05
25 *180:10 *3005:A0 2.23485e-05
26 *180:10 *187:24 0.000161637
27 *180:28 *187:24 0.000152821
28 *180:54 *187:24 0.000175578
29 *180:71 *3027:B 0
30 *180:71 *187:24 9.50342e-06
31 *180:71 *187:120 0.000152127
32 *180:87 *2681:C 1.91597e-05
33 *2679:B_N *2700:C 0.00041529
34 *2679:B_N *180:71 9.53428e-06
35 *2679:C *2700:C 4.82863e-05
36 *2679:C *180:71 2.75145e-05
37 *2680:C *180:6 4.82919e-05
38 *2680:C *180:10 9.54399e-05
39 *2683:B *2683:A 2.98092e-05
40 *2683:C *2683:A 1.41095e-05
41 *2692:B *2695:A 4.99619e-05
42 *2700:B *2700:C 0.000275553
43 *2700:B *180:71 8.24245e-05
44 *2700:D *2700:C 2.30292e-05
45 *2700:D *180:71 4.82919e-05
46 *2706:C *2716:D 4.66108e-05
47 *2716:B *2716:D 4.77757e-05
48 *171:69 *2716:D 0.000300221
49 *178:10 *180:71 5.16348e-05
50 *178:12 *180:54 9.07409e-05
51 *178:12 *180:71 2.30797e-05
52 *178:14 *180:54 9.044e-05
53 *178:71 *2695:A 2.47079e-05
54 *178:102 *180:71 9.54469e-05
55 *179:10 *2695:A 3.96737e-05
56 *179:26 *2716:D 0.000153816
57 *179:56 *180:10 2.07184e-05
58 *179:56 *180:28 0.000160658
59 *179:56 *180:30 8.23457e-05
60 *179:56 *180:32 0.000272978
61 *179:56 *180:87 4.66108e-05
62 *179:65 *2683:A 2.26018e-05
63 *179:65 *2705:A_N 5.4155e-06
64 *179:65 *180:32 3.23663e-05
*RES
1 *2678:X *180:6 3.43 
2 *180:6 *180:10 3.89 
3 *180:10 *180:12 2 
4 *180:12 *2706:A_N 1.6 
5 *180:12 *2716:D 4.465 
6 *180:10 *180:28 3.89 
7 *180:28 *180:30 0.795 
8 *180:30 *180:32 3.21 
9 *180:32 *2683:A 10.525 
10 *180:32 *2705:A_N 1.96 
11 *180:30 *180:54 4.145 
12 *180:54 *2685:C 3.6 
13 *180:54 *180:71 7.385 
14 *180:71 *2679:D 1.6 
15 *180:71 *2700:C 5.515 
16 *180:28 *180:87 0.795 
17 *180:87 *2681:A_N 1.96 
18 *180:87 *2695:A 5.275 
19 *180:6 *2680:A 1.6 
*END

*D_NET *181 0.0234777
*CONN
*I *2688:A2 I *D sky130_fd_sc_hd__a211o_1
*I *2754:A2 I *D sky130_fd_sc_hd__a22o_1
*I *2696:B I *D sky130_fd_sc_hd__and3_1
*I *2787:A2 I *D sky130_fd_sc_hd__a22o_1
*I *2723:A2 I *D sky130_fd_sc_hd__a22o_1
*I *2803:A2 I *D sky130_fd_sc_hd__a22o_1
*I *2736:A2 I *D sky130_fd_sc_hd__a22o_1
*I *2758:B I *D sky130_fd_sc_hd__and3_1
*I *2679:X O *D sky130_fd_sc_hd__and4bb_4
*CAP
1 *2688:A2 0
2 *2754:A2 4.96136e-05
3 *2696:B 0.000116033
4 *2787:A2 0
5 *2723:A2 0.000139876
6 *2803:A2 2.0132e-05
7 *2736:A2 0
8 *2758:B 0.000143365
9 *2679:X 0.000271783
10 *181:130 0.000530867
11 *181:90 0.00135056
12 *181:76 0.0013691
13 *181:61 0.00172273
14 *181:38 0.00230874
15 *181:24 0.00185738
16 *181:10 0.00187318
17 *2696:B *2694:A3 8.51879e-05
18 *2696:B *2697:B1 1.397e-05
19 *2696:B *2790:B1 7.1165e-05
20 *2696:B *207:26 5.2213e-05
21 *2723:A2 *2723:A1 8.70796e-05
22 *2723:A2 *2723:B2 4.66108e-05
23 *2723:A2 *2803:A1 1.42674e-05
24 *2723:A2 *2803:B1 7.75319e-05
25 *2723:A2 *2804:C1 0.000144063
26 *2723:A2 *350:50 4.89395e-05
27 *2723:A2 *369:33 0.000156778
28 *2723:A2 *715:41 2.10905e-05
29 *2754:A2 *2754:A1 0.000161482
30 *2754:A2 *2757:B1 0.000122814
31 *2754:A2 *442:114 1.43558e-05
32 *2758:B *2702:B1 8.23457e-05
33 *2758:B *2708:A2 6.6564e-05
34 *181:10 *3027:B 0.000159852
35 *181:10 *462:12 0.000124007
36 *181:24 *2697:B1 1.20478e-05
37 *181:24 *2765:B2 0
38 *181:24 *2767:A2 0.000722138
39 *181:24 *2768:C 0.00018561
40 *181:24 *3022:A 0
41 *181:24 *3027:A 0
42 *181:24 *3181:CLK 4.66108e-05
43 *181:24 *3299:A 0
44 *181:24 *3401:A 0.000111012
45 *181:24 *207:10 0.000250192
46 *181:24 *207:16 6.05198e-05
47 *181:24 *207:26 0.000211394
48 *181:24 *395:24 4.60123e-05
49 *181:24 *603:10 0.000179015
50 *181:24 *603:12 0.000195573
51 *181:24 *603:14 0.000536023
52 *181:24 *603:18 0.000257889
53 *181:24 *603:92 1.91597e-05
54 *181:38 *2696:A 9.27255e-06
55 *181:38 *2703:A 3.96645e-05
56 *181:38 *2708:A2 0.000164429
57 *181:38 *2720:C1 9.94641e-05
58 *181:38 *3099:S 4.9253e-06
59 *181:38 *202:62 0.000824353
60 *181:38 *391:42 4.12831e-05
61 *181:38 *399:49 0.00022334
62 *181:61 *2577:A 0.000202794
63 *181:61 *2597:B 0
64 *181:61 *2601:A 3.38168e-05
65 *181:61 *2702:B1 8.68097e-06
66 *181:61 *2736:A1 0.000122218
67 *181:61 *2753:B1 9.74886e-05
68 *181:61 *2789:A1 7.76666e-05
69 *181:61 *2925:B 0.000464001
70 *181:61 *2997:A1 6.51056e-05
71 *181:61 *3000:S 9.24127e-05
72 *181:61 *3081:A1 1.37448e-05
73 *181:61 *3100:A 5.00567e-05
74 *181:61 *3216:CLK 0
75 *181:61 *3294:A 0.000100193
76 *181:61 *3440:A 5.64565e-05
77 *181:61 *395:40 0.000216337
78 *181:61 *419:88 0.000758023
79 *181:61 *443:10 7.17811e-05
80 *181:61 *914:12 0.000237249
81 *181:76 *2600:A1 8.80056e-05
82 *181:76 *328:84 0.000119671
83 *181:76 *328:102 8.56934e-05
84 *181:76 *914:12 0.000384688
85 *181:90 *2725:A1 0.000123121
86 *181:90 *2725:B2 0.000116165
87 *181:90 *2750:A1 0
88 *181:90 *2787:B2 0.000320891
89 *181:90 *2803:A1 3.64998e-06
90 *181:90 *2804:B1 0.000163992
91 *181:90 *2832:S 0
92 *181:90 *3152:CLK 0
93 *181:90 *326:10 0
94 *181:90 *350:50 0.000196084
95 *181:90 *374:63 0
96 *181:90 *391:64 0
97 *181:90 *924:10 0.000330154
98 *181:130 *2688:B1 5.61696e-05
99 *181:130 *2688:C1 0.000235367
100 *181:130 *2757:B1 0.000151857
101 *181:130 *2790:A2 1.00941e-05
102 *181:130 *3027:A 0
103 *181:130 *442:114 0.000382486
104 *2679:B_N *181:10 4.82863e-05
105 *3141:D *181:90 9.23578e-05
106 *3153:D *181:90 4.70326e-05
107 *3216:D *181:61 0.000310344
*RES
1 *2679:X *181:10 8.805 
2 *181:10 *181:24 30.1675 
3 *181:24 *181:38 7.50737 
4 *181:38 *2758:B 3.43 
5 *181:38 *181:61 39.355 
6 *181:61 *2736:A2 1.6 
7 *181:61 *181:76 5.73 
8 *181:76 *181:90 25.99 
9 *181:90 *2803:A2 1.96 
10 *181:90 *2723:A2 6.205 
11 *181:76 *2787:A2 1.6 
12 *181:24 *2696:B 5.6475 
13 *181:10 *181:130 12.395 
14 *181:130 *2754:A2 3.43 
15 *181:130 *2688:A2 1.6 
*END

*D_NET *182 0.0173034
*CONN
*I *3463:A I *D sky130_fd_sc_hd__clkbuf_2
*I *2763:B I *D sky130_fd_sc_hd__and3_1
*I *2701:B I *D sky130_fd_sc_hd__and3_1
*I *2682:A2 I *D sky130_fd_sc_hd__a22o_1
*I *2757:A2 I *D sky130_fd_sc_hd__a211o_1
*I *2680:Y O *D sky130_fd_sc_hd__nor4b_4
*CAP
1 *3463:A 0.000557268
2 *2763:B 0.000175135
3 *2701:B 7.74292e-05
4 *2682:A2 0.000343353
5 *2757:A2 0.000107758
6 *2680:Y 1.91143e-05
7 *182:50 0.00266513
8 *182:38 0.0033571
9 *182:12 0.000945208
10 *182:8 0.000900476
11 *2682:A2 *2757:B1 0
12 *2682:A2 *432:94 0.000589698
13 *2682:A2 *462:12 0.000224713
14 *2701:B *3104:A0 0.000137894
15 *2701:B *3104:S 3.16057e-06
16 *2701:B *430:46 0.000151966
17 *2701:B *830:12 4.82863e-05
18 *2757:A2 *2757:A1 3.70572e-05
19 *2757:A2 *2757:C1 0.00016569
20 *2757:A2 *430:110 0.000429658
21 *2763:B *2702:B1 0
22 *2763:B *2763:C 0.000131291
23 *2763:B *3104:S 3.83318e-05
24 *2763:B *202:102 4.66108e-05
25 *2763:B *430:46 0.000262166
26 *3463:A *218:14 3.99739e-05
27 *3463:A *317:69 0.000450444
28 *3463:A *321:16 0.000256568
29 *3463:A *345:29 0.000416957
30 *3463:A *352:42 0.000340277
31 *3463:A *403:12 7.87466e-05
32 *3463:A *677:30 0.000318072
33 *182:8 *208:102 3.45679e-05
34 *182:8 *215:28 8.65961e-05
35 *182:12 *3022:A 0
36 *182:12 *3027:A 8.47629e-05
37 *182:12 *183:18 7.23533e-05
38 *182:12 *185:12 6.1891e-05
39 *182:12 *185:29 0.000144309
40 *182:12 *208:8 0
41 *182:12 *208:26 0
42 *182:12 *462:12 9.14049e-05
43 *182:38 *2918:B 3.88668e-05
44 *182:38 *3027:A 0
45 *182:38 *197:20 0.000790835
46 *182:38 *208:26 0
47 *182:38 *380:10 0.000298415
48 *182:38 *421:20 0.000221161
49 *182:50 *2703:A 0.000304857
50 *182:50 *2760:B1 0.000232534
51 *182:50 *2790:A2 0
52 *182:50 *183:38 2.38643e-05
53 *182:50 *208:26 0.000261101
54 *182:50 *321:16 4.18386e-05
55 *182:50 *345:29 3.75422e-05
56 *182:50 *350:140 0
57 *182:50 *407:22 0.000432823
58 *182:50 *430:24 0.000376043
59 *2680:D_N *182:12 0.000162325
60 *171:88 *182:12 0.000179015
61 *178:37 *182:12 1.07797e-05
*RES
1 *2680:Y *182:8 4.395 
2 *182:8 *182:12 10.755 
3 *182:12 *2757:A2 7.86 
4 *182:12 *2682:A2 11.88 
5 *182:8 *182:38 11.1875 
6 *182:38 *182:50 6.42733 
7 *182:50 *2701:B 5.8125 
8 *182:50 *2763:B 7.3425 
9 *182:38 *3463:A 11.0224 
*END

*D_NET *183 0.0247654
*CONN
*I *2682:B1 I *D sky130_fd_sc_hd__a22o_1
*I *2754:B1 I *D sky130_fd_sc_hd__a22o_1
*I *2694:A2 I *D sky130_fd_sc_hd__a31o_1
*I *2787:B1 I *D sky130_fd_sc_hd__a22o_1
*I *2736:B1 I *D sky130_fd_sc_hd__a22o_1
*I *2801:A2 I *D sky130_fd_sc_hd__a22o_1
*I *2725:A2 I *D sky130_fd_sc_hd__a22o_1
*I *2759:B I *D sky130_fd_sc_hd__and3_1
*I *2681:X O *D sky130_fd_sc_hd__and4bb_4
*CAP
1 *2682:B1 2.84691e-05
2 *2754:B1 0.000104636
3 *2694:A2 5.116e-05
4 *2787:B1 0.00012823
5 *2736:B1 0.000653757
6 *2801:A2 0.00056732
7 *2725:A2 0.000263929
8 *2759:B 3.22998e-05
9 *2681:X 0.000798743
10 *183:134 0.000532469
11 *183:65 0.000973595
12 *183:61 0.000828685
13 *183:59 0.00152008
14 *183:42 0.0015156
15 *183:38 0.00258128
16 *183:18 0.0036042
17 *2682:B1 *2682:A1 5.64792e-05
18 *2682:B1 *2682:B2 7.44125e-05
19 *2682:B1 *432:94 0.000158536
20 *2694:A2 *2694:A3 2.68464e-05
21 *2694:A2 *2696:A 2.49909e-05
22 *2694:A2 *190:28 1.10085e-05
23 *2694:A2 *197:143 3.82072e-05
24 *2725:A2 *2725:A1 0.00024481
25 *2725:A2 *2787:B2 4.2857e-05
26 *2725:A2 *321:61 0
27 *2725:A2 *374:63 0.000547382
28 *2725:A2 *924:10 0.000123845
29 *2736:B1 *2736:B2 2.08217e-05
30 *2736:B1 *2750:A1 0.000423108
31 *2736:B1 *2925:B 0.000881007
32 *2736:B1 *528:140 1.12261e-05
33 *2754:B1 *2682:B2 0.000235351
34 *2754:B1 *190:28 6.22332e-05
35 *2754:B1 *432:94 0.000234191
36 *2759:B *192:91 4.94474e-05
37 *2787:B1 *3339:A 1.55303e-05
38 *2787:B1 *291:40 3.1835e-05
39 *2787:B1 *914:12 3.01737e-05
40 *2801:A2 *2562:A 0.000483725
41 *2801:A2 *2801:A1 3.69753e-05
42 *2801:A2 *2801:B1 3.00381e-05
43 *2801:A2 *2801:B2 5.23992e-05
44 *2801:A2 *359:35 1.03323e-05
45 *2801:A2 *902:8 2.61633e-05
46 *183:18 *3022:A 0.000686061
47 *183:18 *3027:A 9.27326e-05
48 *183:18 *185:12 7.06865e-05
49 *183:38 *2765:B2 0.000243532
50 *183:38 *3017:A 0
51 *183:38 *3346:A 0.000187766
52 *183:38 *208:120 1.09082e-05
53 *183:38 *407:22 3.92756e-05
54 *183:38 *421:49 0.000626926
55 *183:38 *590:159 5.20496e-06
56 *183:42 *2694:A1 1.89166e-05
57 *183:42 *3097:A0 0
58 *183:42 *197:143 7.84315e-05
59 *183:59 *2786:B1 6.28765e-05
60 *183:59 *2788:A1 5.69248e-06
61 *183:59 *2790:A2 5.63183e-05
62 *183:59 *2790:B1 8.18263e-05
63 *183:59 *2881:A 7.09909e-05
64 *183:59 *2896:A 0
65 *183:59 *2897:S 0.000152885
66 *183:59 *2905:S 9.19562e-05
67 *183:59 *3096:A 1.05984e-05
68 *183:59 *3139:CLK 0.000208107
69 *183:59 *3372:A 9.61344e-05
70 *183:59 *3400:A 0.000181397
71 *183:59 *192:91 0.000147396
72 *183:59 *207:26 0.00055523
73 *183:59 *207:43 0.000707962
74 *183:59 *291:40 5.44032e-05
75 *183:59 *321:61 4.24292e-06
76 *183:59 *322:91 6.20979e-05
77 *183:59 *328:84 0
78 *183:59 *369:94 0.000127741
79 *183:59 *374:152 9.50959e-05
80 *183:59 *381:8 7.83434e-05
81 *183:59 *391:64 9.75493e-05
82 *183:59 *430:24 0.000191335
83 *183:59 *511:70 9.044e-05
84 *183:59 *909:10 0.00018065
85 *183:61 *2787:B2 1.01643e-05
86 *183:61 *3139:CLK 8.7152e-06
87 *183:65 *2787:B2 0.000101324
88 *183:65 *321:61 0
89 *183:134 *3017:A 0
90 *183:134 *3023:S 0
91 *183:134 *3025:A1 7.06865e-05
92 *183:134 *3346:A 4.21314e-05
93 *183:134 *190:28 0
94 *183:134 *421:49 4.9968e-05
95 *183:134 *421:83 0.000197599
96 *183:134 *430:110 3.45117e-05
97 *183:134 *456:16 1.84465e-05
98 *2681:D *183:18 0
99 *2734:B *183:59 1.01661e-05
100 *3139:D *183:59 0
101 *3210:D *183:59 0
102 *177:75 *2694:A2 3.09725e-05
103 *177:75 *183:42 0.000228097
104 *179:56 *183:18 1.61831e-05
105 *179:65 *183:18 0.000210149
106 *182:12 *183:18 7.23533e-05
107 *182:50 *183:38 2.38643e-05
*RES
1 *2681:X *183:18 19.045 
2 *183:18 *183:38 13.0283 
3 *183:38 *183:42 4.7825 
4 *183:42 *2759:B 2.05 
5 *183:42 *183:59 33.59 
6 *183:59 *183:61 0.4875 
7 *183:61 *183:65 2.7225 
8 *183:65 *2725:A2 11.61 
9 *183:65 *2801:A2 12.375 
10 *183:61 *2736:B1 6.46563 
11 *183:59 *2787:B1 5.805 
12 *183:38 *2694:A2 4.8975 
13 *183:18 *183:134 9.245 
14 *183:134 *2754:B1 9.155 
15 *183:134 *2682:B1 3.085 
*END

*D_NET *184 0.000569441
*CONN
*I *2688:B1 I *D sky130_fd_sc_hd__a211o_1
*I *2682:X O *D sky130_fd_sc_hd__a22o_1
*CAP
1 *2688:B1 0.000113539
2 *2682:X 0.000113539
3 *2688:B1 *2688:C1 0.000122806
4 *2688:B1 *2757:B1 0.000163387
5 *181:130 *2688:B1 5.61696e-05
*RES
1 *2682:X *2688:B1 10.17 
*END

*D_NET *185 0.00547572
*CONN
*I *2687:B1 I *D sky130_fd_sc_hd__a221o_1
*I *2756:B1 I *D sky130_fd_sc_hd__a221o_1
*I *3459:A I *D sky130_fd_sc_hd__clkbuf_2
*I *2683:Y O *D sky130_fd_sc_hd__nor4b_2
*CAP
1 *2687:B1 5.15368e-05
2 *2756:B1 0.000105189
3 *3459:A 2.54989e-05
4 *2683:Y 0.000239498
5 *185:29 0.00093777
6 *185:12 0.00104604
7 *2687:B1 *2687:A1 2.93004e-05
8 *2687:B1 *2687:B2 5.19006e-06
9 *2687:B1 *595:34 6.33849e-05
10 *2756:B1 *2756:A1 5.19006e-06
11 *2756:B1 *2756:B2 1.14192e-05
12 *2756:B1 *465:12 0.000134756
13 *3459:A *3027:A 4.82919e-05
14 *185:12 *3027:A 0
15 *185:12 *737:16 3.11772e-05
16 *185:29 *2688:C1 0.000192763
17 *185:29 *3444:A 0.000193129
18 *185:29 *432:94 0.000499183
19 *185:29 *462:12 0.000267054
20 *185:29 *595:34 0.000109456
21 *185:29 *737:16 2.97004e-06
22 *2683:A *185:12 0.000530842
23 *2683:C *185:12 0.000170491
24 *2687:A2 *2687:B1 4.46687e-05
25 *2687:A2 *185:29 0.000121659
26 *2756:A2 *2756:B1 5.99438e-05
27 *171:23 *185:29 0
28 *171:88 *185:12 0.000223016
29 *172:47 *2756:B1 9.23804e-06
30 *179:65 *185:12 4.01778e-05
31 *182:12 *185:12 6.1891e-05
32 *182:12 *185:29 0.000144309
33 *183:18 *185:12 7.06865e-05
*RES
1 *2683:Y *185:12 11.04 
2 *185:12 *3459:A 4.05 
3 *185:12 *185:29 19.385 
4 *185:29 *2756:B1 8.045 
5 *185:29 *2687:B1 3.1 
*END

*D_NET *186 0.00428753
*CONN
*I *3456:A I *D sky130_fd_sc_hd__buf_1
*I *2755:A2 I *D sky130_fd_sc_hd__a22o_1
*I *2686:A2 I *D sky130_fd_sc_hd__a22o_1
*I *2684:Y O *D sky130_fd_sc_hd__nor4b_2
*CAP
1 *3456:A 0
2 *2755:A2 0.000248632
3 *2686:A2 4.58941e-05
4 *2684:Y 0.000552898
5 *186:26 0.000836209
6 *186:14 0.00109458
7 *2686:A2 *2755:B1 4.82863e-05
8 *2686:A2 *2757:C1 0.000119756
9 *2755:A2 *2755:B1 8.32614e-05
10 *2755:A2 *3040:A1 2.50251e-05
11 *2755:A2 *430:144 0.000201798
12 *2755:A2 *432:72 0.000385456
13 *2755:A2 *468:16 0
14 *186:14 *607:14 0
15 *186:26 *2757:C1 0.000247946
16 *186:26 *3037:A 0.000349493
17 *186:26 *3037:B 4.82919e-05
18 *172:47 *2755:A2 0
*RES
1 *2684:Y *186:14 13.745 
2 *186:14 *186:26 9.585 
3 *186:26 *2686:A2 2.74 
4 *186:26 *2755:A2 12.08 
5 *186:14 *3456:A 1.6 
*END

*D_NET *187 0.0316567
*CONN
*I *2755:B1 I *D sky130_fd_sc_hd__a22o_1
*I *2686:B1 I *D sky130_fd_sc_hd__a22o_1
*I *2741:B I *D sky130_fd_sc_hd__and3_1
*I *2795:B1 I *D sky130_fd_sc_hd__a22o_1
*I *2717:A2 I *D sky130_fd_sc_hd__a22o_1
*I *2727:B1 I *D sky130_fd_sc_hd__a22o_1
*I *2805:A2 I *D sky130_fd_sc_hd__a22o_1
*I *2779:B I *D sky130_fd_sc_hd__and3_1
*I *2685:X O *D sky130_fd_sc_hd__and4bb_4
*CAP
1 *2755:B1 0.000305549
2 *2686:B1 0
3 *2741:B 5.89623e-05
4 *2795:B1 0.000286253
5 *2717:A2 0.00110266
6 *2727:B1 0
7 *2805:A2 0.000348646
8 *2779:B 0
9 *2685:X 0.00013736
10 *187:120 0.000578249
11 *187:85 0.00384668
12 *187:53 0.00243521
13 *187:43 0.00516259
14 *187:31 0.000769253
15 *187:24 0.00213864
16 *187:10 0.00245667
17 *2717:A2 *2562:A 0
18 *2717:A2 *2562:B 5.92849e-05
19 *2717:A2 *2717:B1 0
20 *2717:A2 *2718:C 0.000553073
21 *2717:A2 *2719:A2 0
22 *2717:A2 *2792:A2 0.000154708
23 *2717:A2 *3251:CLK 8.42239e-05
24 *2717:A2 *527:50 0.000192928
25 *2717:A2 *538:16 0
26 *2717:A2 *599:18 0.000269886
27 *2717:A2 *871:8 4.89395e-05
28 *2741:B *2741:C 7.40446e-05
29 *2755:B1 *2686:A1 4.82919e-05
30 *2755:B1 *2755:B2 5.53249e-06
31 *2755:B1 *2757:C1 1.60203e-05
32 *2755:B1 *430:129 0.000132138
33 *2755:B1 *432:72 0.000408038
34 *2755:B1 *857:8 0
35 *2795:B1 *2795:B2 8.35157e-05
36 *2795:B1 *395:40 0
37 *2795:B1 *527:50 4.00529e-05
38 *2805:A2 *2727:B2 5.03846e-05
39 *2805:A2 *2730:A1 8.54612e-05
40 *2805:A2 *2730:A2 0.000122202
41 *2805:A2 *2752:A 0.00029528
42 *2805:A2 *2805:B1 6.07575e-06
43 *2805:A2 *2805:B2 3.6042e-05
44 *2805:A2 *2806:C 9.03066e-05
45 *2805:A2 *372:12 0
46 *2805:A2 *605:24 0.000197778
47 *187:10 *3027:A 8.49205e-05
48 *187:24 *2741:C 4.66108e-05
49 *187:24 *2761:A 0.000134054
50 *187:24 *2776:A 2.10134e-05
51 *187:24 *2790:C1 0.000197264
52 *187:24 *3005:A0 0.000192506
53 *187:24 *3005:A1 0.000158365
54 *187:24 *3027:A 0
55 *187:24 *3089:A1 3.72081e-05
56 *187:24 *3116:A 0
57 *187:24 *3421:A 4.0843e-05
58 *187:24 *193:108 0.000340209
59 *187:24 *202:10 0
60 *187:24 *202:24 0.000155928
61 *187:24 *317:81 0.00017517
62 *187:24 *350:140 7.58604e-05
63 *187:24 *371:47 0.00112612
64 *187:24 *677:30 3.80608e-05
65 *187:31 *2741:C 0.000107205
66 *187:43 *2778:A 2.82853e-05
67 *187:43 *2781:C 0.000113703
68 *187:43 *358:67 8.20942e-05
69 *187:43 *361:45 4.21127e-05
70 *187:43 *419:43 2.20023e-05
71 *187:43 *590:18 0.000243962
72 *187:43 *748:28 0.000715568
73 *187:53 *2727:B2 1.70935e-05
74 *187:53 *2752:A 7.37078e-05
75 *187:53 *2806:A 0.000104146
76 *187:53 *2892:A 0
77 *187:53 *3300:A 0
78 *187:53 *3301:A 0
79 *187:53 *351:52 0.000101299
80 *187:53 *372:12 0.000114959
81 *187:53 *590:18 0.000210726
82 *187:53 *590:22 0.000223562
83 *187:53 *608:46 0.000117664
84 *187:53 *737:30 0
85 *187:53 *748:28 0.000320653
86 *187:85 *2737:A1 0.000381262
87 *187:85 *2753:B1 0
88 *187:85 *328:58 0
89 *187:85 *532:16 0.00109742
90 *187:85 *748:28 0
91 *187:120 *2686:A1 4.82863e-05
92 *187:120 *2757:C1 8.96017e-05
93 *187:120 *3005:A0 0.000125079
94 *187:120 *430:110 0.000123225
95 *2680:B *187:24 0.000109449
96 *2685:B_N *187:10 0
97 *2686:A2 *2755:B1 4.82863e-05
98 *2755:A2 *2755:B1 8.32614e-05
99 *3222:D *187:24 0.000135783
100 *3223:D *187:24 4.05358e-05
101 *3250:D *2717:A2 9.30717e-05
102 *3251:D *2717:A2 4.89362e-05
103 *3254:D *2717:A2 5.75019e-05
104 *3285:A *187:24 1.92979e-05
105 *171:8 *187:10 5.21706e-05
106 *171:23 *187:120 0
107 *176:71 *187:24 0.000133365
108 *178:8 *187:10 8.23457e-05
109 *178:14 *187:24 5.92269e-05
110 *178:102 *187:120 2.23407e-05
111 *179:56 *187:24 1.07797e-05
112 *180:10 *187:24 0.000161637
113 *180:28 *187:24 0.000152821
114 *180:54 *187:24 0.000175578
115 *180:71 *187:24 9.50342e-06
116 *180:71 *187:120 0.000152127
*RES
1 *2685:X *187:10 6.39 
2 *187:10 *187:24 47.985 
3 *187:24 *2779:B 1.6 
4 *187:24 *187:31 1.14 
5 *187:31 *187:43 6.5869 
6 *187:43 *187:53 6.20403 
7 *187:53 *2805:A2 12.765 
8 *187:53 *2727:B1 3.6 
9 *187:43 *187:85 6.1946 
10 *187:85 *2717:A2 26.9775 
11 *187:85 *2795:B1 7.9725 
12 *187:31 *2741:B 2.395 
13 *187:10 *187:120 8.015 
14 *187:120 *2686:B1 1.6 
15 *187:120 *2755:B1 13.475 
*END

*D_NET *188 0.00148538
*CONN
*I *2687:C1 I *D sky130_fd_sc_hd__a221o_1
*I *2686:X O *D sky130_fd_sc_hd__a22o_1
*CAP
1 *2687:C1 0.000498699
2 *2686:X 0.000498699
3 *2687:C1 *2757:C1 0.000471794
4 *2687:C1 *3037:A 1.61831e-05
*RES
1 *2686:X *2687:C1 14.46 
*END

*D_NET *189 0.00346728
*CONN
*I *2688:C1 I *D sky130_fd_sc_hd__a211o_1
*I *2687:X O *D sky130_fd_sc_hd__a221o_1
*CAP
1 *2688:C1 0.00104105
2 *2687:X 0.00104105
3 *2688:C1 *2687:A1 1.22325e-05
4 *2688:C1 *2757:B1 0.00012677
5 *2688:C1 *3038:A1 4.77769e-05
6 *2688:C1 *3444:A 0.000193129
7 *2688:C1 *432:94 0.000347939
8 *2688:C1 *442:114 2.10905e-05
9 *2687:A2 *2688:C1 8.53011e-05
10 *2688:B1 *2688:C1 0.000122806
11 *181:130 *2688:C1 0.000235367
12 *185:29 *2688:C1 0.000192763
*RES
1 *2687:X *2688:C1 26.415 
*END

*D_NET *190 0.00721641
*CONN
*I *2720:A2 I *D sky130_fd_sc_hd__a2111o_1
*I *2688:X O *D sky130_fd_sc_hd__a211o_1
*CAP
1 *2720:A2 0
2 *2688:X 0.00170422
3 *190:28 0.00170422
4 *190:28 *2682:B2 8.09236e-05
5 *190:28 *2696:A 0.00019558
6 *190:28 *2703:A 4.87462e-05
7 *190:28 *2703:B 1.77037e-05
8 *190:28 *2703:C 0.000114871
9 *190:28 *2720:C1 2.49909e-05
10 *190:28 *2754:B2 7.21318e-05
11 *190:28 *2760:B1 0
12 *190:28 *2760:C1 1.68246e-05
13 *190:28 *2993:A1 0.000227286
14 *190:28 *3007:A 0
15 *190:28 *3012:A 0.00100364
16 *190:28 *3012:B 0
17 *190:28 *3017:A 0.000106665
18 *190:28 *3023:S 0.000175894
19 *190:28 *3099:S 7.14892e-06
20 *190:28 *193:40 0.000154982
21 *190:28 *345:41 0
22 *190:28 *365:26 0
23 *190:28 *391:42 0.000953134
24 *190:28 *442:114 0.000272875
25 *190:28 *445:109 0
26 *190:28 *453:8 0
27 *190:28 *459:10 0.000117832
28 *190:28 *604:14 4.40812e-05
29 *2694:A2 *190:28 1.10085e-05
30 *2720:A1 *190:28 4.87465e-06
31 *2754:B1 *190:28 6.22332e-05
32 *3189:D *190:28 0
33 *177:50 *190:28 4.50227e-05
34 *177:75 *190:28 4.95182e-05
35 *183:134 *190:28 0
*RES
1 *2688:X *190:28 48.84 
2 *190:28 *2720:A2 1.6 
*END

*D_NET *191 0.0057872
*CONN
*I *2771:C I *D sky130_fd_sc_hd__and3_1
*I *2770:C I *D sky130_fd_sc_hd__and3_1
*I *2690:A I *D sky130_fd_sc_hd__buf_2
*I *2776:C I *D sky130_fd_sc_hd__and3_1
*I *2689:X O *D sky130_fd_sc_hd__and2b_1
*CAP
1 *2771:C 0
2 *2770:C 0
3 *2690:A 0
4 *2776:C 0.000334079
5 *2689:X 0.000635071
6 *191:36 0.000691501
7 *191:30 0.00049213
8 *191:20 0.000769779
9 *2776:C *2742:C1 2.81446e-06
10 *2776:C *2751:A 0.000204768
11 *2776:C *2776:A 0.000143387
12 *2776:C *2777:C 3.84409e-05
13 *2776:C *2781:B 0.000180682
14 *2776:C *3228:CLK 0.00013184
15 *2776:C *212:18 0.000118079
16 *2776:C *212:38 1.23015e-05
17 *2776:C *511:38 0.000122337
18 *191:20 *2689:A_N 1.83847e-05
19 *191:20 *2689:B 8.73389e-06
20 *191:20 *2771:B 0
21 *191:20 *2977:A1 0.000232111
22 *191:20 *2979:A 0.000267633
23 *191:20 *350:120 0
24 *191:20 *355:32 0.000334596
25 *191:30 *2770:A 9.72686e-05
26 *191:30 *2979:A 2.12717e-05
27 *191:30 *3373:A 0.000133564
28 *191:36 *2739:A 0.000111135
29 *191:36 *2770:A 0.000183426
30 *191:36 *3228:CLK 0.000143833
31 *191:36 *3373:A 6.0524e-05
32 *191:36 *511:38 0.000161941
33 *2672:A *191:20 4.66108e-05
34 *3228:D *191:36 8.89542e-05
*RES
1 *2689:X *191:20 17.24 
2 *191:20 *191:30 3.105 
3 *191:30 *191:36 8.04 
4 *191:36 *2776:C 14.09 
5 *191:36 *2690:A 1.6 
6 *191:30 *2770:C 1.6 
7 *191:20 *2771:C 1.6 
*END

*D_NET *192 0.0169323
*CONN
*I *2743:C I *D sky130_fd_sc_hd__and3_1
*I *2691:A I *D sky130_fd_sc_hd__buf_2
*I *2696:C I *D sky130_fd_sc_hd__and3_1
*I *2759:C I *D sky130_fd_sc_hd__and3_1
*I *2758:C I *D sky130_fd_sc_hd__and3_1
*I *2763:C I *D sky130_fd_sc_hd__and3_1
*I *2701:C I *D sky130_fd_sc_hd__and3_1
*I *2693:B I *D sky130_fd_sc_hd__and3_1
*I *2739:C I *D sky130_fd_sc_hd__and3_1
*I *2777:C I *D sky130_fd_sc_hd__and3_1
*I *2690:X O *D sky130_fd_sc_hd__buf_2
*CAP
1 *2743:C 2.41282e-05
2 *2691:A 0
3 *2696:C 5.87749e-05
4 *2759:C 0.000139834
5 *2758:C 0.000128474
6 *2763:C 0.000219328
7 *2701:C 0.000268279
8 *2693:B 0.000105407
9 *2739:C 0.000367533
10 *2777:C 0.000271009
11 *2690:X 0
12 *192:128 0.000370713
13 *192:109 0.000839074
14 *192:91 0.000992719
15 *192:81 0.000798738
16 *192:66 0.00163362
17 *192:54 0.00145248
18 *192:44 0.000585522
19 *192:23 0.000602483
20 *192:4 0.000303787
21 *2693:B *3087:A 3.96284e-05
22 *2696:C *2696:A 1.70906e-05
23 *2696:C *2790:B1 6.88421e-05
24 *2701:C *2702:B1 6.84795e-05
25 *2701:C *2720:D1 0.000200633
26 *2701:C *2758:A 2.99622e-05
27 *2701:C *3217:CLK 3.4259e-05
28 *2701:C *3378:A 2.23485e-05
29 *2701:C *358:93 0.000122325
30 *2701:C *831:20 3.80378e-05
31 *2739:C *2542:A 2.937e-05
32 *2739:C *2778:B 0.000108772
33 *2739:C *2778:C 8.23457e-05
34 *2739:C *2778:D 0.00013611
35 *2739:C *2931:B 2.81945e-05
36 *2739:C *411:47 0.000175666
37 *2743:C *2543:A0 1.70906e-05
38 *2743:C *2931:B 5.16348e-05
39 *2743:C *608:16 4.38051e-05
40 *2758:C *2696:A 4.30059e-05
41 *2758:C *2708:A2 8.34281e-06
42 *2758:C *2758:A 4.82863e-05
43 *2759:C *3097:A0 4.76263e-05
44 *2759:C *197:143 1.14559e-05
45 *2759:C *350:140 8.53113e-06
46 *2759:C *832:8 0.0001122
47 *2763:C *2702:B1 1.59682e-05
48 *2763:C *2708:A2 9.26601e-05
49 *2763:C *2764:B1 2.68037e-05
50 *2763:C *3101:A 2.3311e-05
51 *2763:C *3104:S 0.000105906
52 *2763:C *395:40 0
53 *2763:C *430:46 4.47202e-05
54 *2777:C *2777:A 1.70906e-05
55 *2777:C *3228:CLK 0.000244859
56 *2777:C *212:18 0.000184703
57 *2777:C *511:38 1.03423e-05
58 *192:23 *3228:CLK 2.49909e-05
59 *192:44 *2778:D 0.000170484
60 *192:44 *2931:B 0.000191964
61 *192:44 *411:47 0.000289705
62 *192:44 *430:24 8.23457e-05
63 *192:44 *608:16 0.000117832
64 *192:54 *2543:A0 0.000192417
65 *192:54 *2743:B 1.08758e-05
66 *192:54 *193:8 4.66108e-05
67 *192:54 *500:155 0.00014315
68 *192:66 *2539:A 5.45745e-05
69 *192:66 *3086:A0 0.000260935
70 *192:66 *3087:A 3.81021e-05
71 *192:66 *218:14 1.73877e-05
72 *192:66 *384:30 0.00015481
73 *192:66 *500:155 8.23457e-05
74 *192:81 *2693:C 0.000110219
75 *192:81 *726:32 0.000478928
76 *192:91 *2694:A1 3.40742e-05
77 *192:91 *2760:C1 4.77757e-05
78 *192:91 *2790:B1 0
79 *192:91 *3096:A 6.69608e-06
80 *192:91 *3372:A 1.05984e-05
81 *192:91 *391:42 3.33115e-05
82 *192:91 *430:24 7.9642e-06
83 *192:91 *505:6 0.000260997
84 *192:91 *726:32 0.000114513
85 *192:109 *2760:C1 8.40213e-05
86 *192:109 *3099:A0 0.000229536
87 *192:109 *3099:S 0.00032228
88 *192:109 *197:143 2.46007e-05
89 *192:109 *391:42 5.12512e-05
90 *192:109 *505:6 8.40213e-05
91 *192:109 *726:32 0.000629203
92 *192:128 *2702:B1 6.45236e-05
93 *192:128 *831:20 7.06865e-05
94 *2759:B *192:91 4.94474e-05
95 *2763:B *2763:C 0.000131291
96 *2776:C *2777:C 3.84409e-05
97 *3217:D *2701:C 0.000135408
98 *3227:D *192:66 2.65814e-06
99 *3464:A *192:54 0.00015896
100 *176:79 *192:81 0.000172375
101 *177:75 *2759:C 0
102 *177:75 *192:91 3.03199e-05
103 *183:59 *192:91 0.000147396
*RES
1 *2690:X *192:4 1.6 
2 *192:4 *2777:C 10.43 
3 *192:4 *192:23 2.45 
4 *192:23 *2739:C 9.36 
5 *192:23 *192:44 9.595 
6 *192:44 *192:54 9.05 
7 *192:54 *192:66 18.01 
8 *192:66 *2693:B 2.74 
9 *192:66 *192:81 10.735 
10 *192:81 *192:91 10.405 
11 *192:91 *192:109 16.86 
12 *192:109 *2701:C 9.3075 
13 *192:109 *192:128 2.87 
14 *192:128 *2763:C 10.58 
15 *192:128 *2758:C 3.145 
16 *192:91 *2759:C 7.7675 
17 *192:81 *2696:C 6.635 
18 *192:54 *2691:A 1.6 
19 *192:44 *2743:C 4.38 
*END

*D_NET *193 0.0214651
*CONN
*I *2741:C I *D sky130_fd_sc_hd__and3_1
*I *2738:A1 I *D sky130_fd_sc_hd__a211o_1
*I *2789:A1 I *D sky130_fd_sc_hd__a211o_1
*I *2747:A3 I *D sky130_fd_sc_hd__a31o_1
*I *2779:C I *D sky130_fd_sc_hd__and3_1
*I *2699:A3 I *D sky130_fd_sc_hd__a31o_1
*I *2762:A2 I *D sky130_fd_sc_hd__a31o_1
*I *2694:A3 I *D sky130_fd_sc_hd__a31o_1
*I *2708:A1 I *D sky130_fd_sc_hd__a22o_1
*I *2767:B2 I *D sky130_fd_sc_hd__a22o_1
*I *2691:X O *D sky130_fd_sc_hd__buf_2
*CAP
1 *2741:C 0.000146224
2 *2738:A1 0
3 *2789:A1 0.000373897
4 *2747:A3 1.63287e-05
5 *2779:C 6.35376e-05
6 *2699:A3 0
7 *2762:A2 0
8 *2694:A3 0.000453368
9 *2708:A1 5.00542e-05
10 *2767:B2 0
11 *2691:X 3.69588e-05
12 *193:121 0.00196266
13 *193:108 0.00190349
14 *193:89 0.000745129
15 *193:40 0.000473787
16 *193:28 0.00107089
17 *193:24 0.000366587
18 *193:18 0.000576824
19 *193:8 0.000677955
20 *2694:A3 *2694:B1 0.000429641
21 *2694:A3 *2696:A 1.55586e-05
22 *2694:A3 *2697:B1 4.89295e-05
23 *2694:A3 *2760:B1 0.000122801
24 *2694:A3 *3087:A 1.47347e-05
25 *2694:A3 *374:152 0.000447092
26 *2694:A3 *376:46 0.000447092
27 *2708:A1 *2767:B1 7.76447e-05
28 *2741:C *2741:A 7.49437e-05
29 *2741:C *2776:A 1.18384e-05
30 *2747:A3 *212:38 9.53428e-06
31 *2747:A3 *212:49 9.53428e-06
32 *2779:C *2985:B 1.67131e-05
33 *2779:C *436:10 1.08758e-05
34 *2789:A1 *2753:B1 0.000548093
35 *2789:A1 *2789:A2 0.000295362
36 *2789:A1 *2789:B1 6.12441e-05
37 *2789:A1 *3083:A1 0.000160635
38 *2789:A1 *3374:A 0.000137234
39 *2789:A1 *419:88 0.000355882
40 *193:18 *2699:A1 0.000119873
41 *193:18 *2699:A2 1.41095e-05
42 *193:18 *3389:A 0.000144732
43 *193:18 *384:22 1.7882e-05
44 *193:18 *384:30 0.000487858
45 *193:18 *474:18 8.20768e-06
46 *193:18 *715:10 0.000369106
47 *193:18 *748:28 0.000106067
48 *193:24 *2762:B1 0.000268157
49 *193:24 *474:18 0.000342602
50 *193:24 *677:34 0.000220188
51 *193:28 *2693:C 0.000121653
52 *193:28 *2762:B1 5.19006e-06
53 *193:28 *197:20 0.000123812
54 *193:28 *677:34 2.33973e-05
55 *193:40 *2703:B 2.99101e-05
56 *193:40 *2703:C 0.000156408
57 *193:40 *2767:A2 3.12916e-05
58 *193:40 *2767:B1 8.23457e-05
59 *193:40 *3216:CLK 0.000401707
60 *193:40 *197:20 0.000458583
61 *193:40 *197:40 6.33103e-05
62 *193:89 *2779:A 0.000438503
63 *193:89 *3371:A 0.000227543
64 *193:89 *384:30 6.44741e-05
65 *193:89 *715:10 0.000786555
66 *193:89 *748:28 0.000210939
67 *193:108 *2751:C 0.000118081
68 *193:108 *2985:A 2.75229e-05
69 *193:108 *2985:B 2.54431e-05
70 *193:108 *3421:A 4.66108e-05
71 *193:108 *202:24 0.000344463
72 *193:108 *212:38 0.000216273
73 *193:108 *371:47 6.52265e-05
74 *193:108 *403:22 0.000259916
75 *193:108 *436:10 1.9415e-05
76 *193:121 *2735:A1 6.38941e-06
77 *193:121 *2738:A2 9.03508e-06
78 *193:121 *2752:B 1.70373e-05
79 *193:121 *3144:CLK 1.83756e-05
80 *193:121 *3379:A 0.000601092
81 *193:121 *212:38 1.12578e-05
82 *193:121 *212:49 0.000357269
83 *2694:A2 *2694:A3 2.68464e-05
84 *2696:B *2694:A3 8.51879e-05
85 *2708:B2 *2708:A1 0.00017257
86 *2741:B *2741:C 7.40446e-05
87 *3144:D *193:121 0.000106118
88 *176:59 *193:18 0.000367583
89 *176:59 *193:24 0.000127793
90 *176:71 *193:24 2.49909e-05
91 *177:8 *193:40 1.14192e-05
92 *177:14 *193:40 1.43622e-05
93 *181:61 *2789:A1 7.76666e-05
94 *187:24 *2741:C 4.66108e-05
95 *187:24 *193:108 0.000340209
96 *187:31 *2741:C 0.000107205
97 *190:28 *193:40 0.000154982
98 *192:54 *193:8 4.66108e-05
*RES
1 *2691:X *193:8 4.05 
2 *193:8 *193:18 14.54 
3 *193:18 *193:24 6.435 
4 *193:24 *193:28 3.915 
5 *193:28 *193:40 16.12 
6 *193:40 *2767:B2 1.6 
7 *193:40 *2708:A1 3.805 
8 *193:28 *2694:A3 17.51 
9 *193:24 *2762:A2 1.6 
10 *193:18 *2699:A3 1.6 
11 *193:8 *193:89 11.285 
12 *193:89 *2779:C 2.98 
13 *193:89 *193:108 13.225 
14 *193:108 *2747:A3 1.96 
15 *193:108 *193:121 19.965 
16 *193:121 *2789:A1 17.495 
17 *193:121 *2738:A1 1.6 
18 *193:89 *2741:C 5.57125 
*END

*D_NET *194 0.0011639
*CONN
*I *3462:A I *D sky130_fd_sc_hd__buf_1
*I *2692:Y O *D sky130_fd_sc_hd__nor4b_1
*CAP
1 *3462:A 0.000360854
2 *2692:Y 0.000360854
3 *3462:A *2716:A_N 5.16418e-05
4 *3462:A *3004:A 5.53249e-06
5 *3462:A *3022:A 9.51192e-05
6 *3462:A *218:14 0.000126799
7 *3462:A *432:72 0
8 *3462:A *800:40 8.76033e-05
9 *3464:A *3462:A 7.55008e-05
*RES
1 *2692:Y *3462:A 15.09 
*END

*D_NET *195 0.000914984
*CONN
*I *2694:B1 I *D sky130_fd_sc_hd__a31o_1
*I *2693:X O *D sky130_fd_sc_hd__and3_1
*CAP
1 *2694:B1 0.00015684
2 *2693:X 0.00015684
3 *2694:B1 *2696:A 0.000125051
4 *2694:B1 *3087:A 4.66108e-05
5 *2694:A3 *2694:B1 0.000429641
*RES
1 *2693:X *2694:B1 7.805 
*END

*D_NET *196 0.00202965
*CONN
*I *2703:A I *D sky130_fd_sc_hd__or4_1
*I *2694:X O *D sky130_fd_sc_hd__a31o_1
*CAP
1 *2703:A 0.000524665
2 *2694:X 0.000524665
3 *2703:A *2703:B 1.1071e-05
4 *2703:A *2703:C 8.7152e-06
5 *2703:A *2760:B1 0.000362843
6 *2703:A *197:143 1.03572e-05
7 *2703:A *391:42 1.75833e-05
8 *2703:A *399:49 2.20023e-05
9 *2703:A *407:22 1.6271e-05
10 *177:16 *2703:A 9.12359e-06
11 *177:50 *2703:A 1.12156e-05
12 *177:75 *2703:A 0.000117872
13 *181:38 *2703:A 3.96645e-05
14 *182:50 *2703:A 0.000304857
15 *190:28 *2703:A 4.87462e-05
*RES
1 *2694:X *2703:A 12.9708 
*END

*D_NET *197 0.0372732
*CONN
*I *2697:A3 I *D sky130_fd_sc_hd__a31o_1
*I *2725:B1 I *D sky130_fd_sc_hd__a22o_1
*I *2804:B1 I *D sky130_fd_sc_hd__a221o_1
*I *2760:A3 I *D sky130_fd_sc_hd__a311o_1
*I *2731:B1 I *D sky130_fd_sc_hd__a22o_1
*I *2784:A2 I *D sky130_fd_sc_hd__a211o_1
*I *2796:B1 I *D sky130_fd_sc_hd__a22o_1
*I *2714:B1 I *D sky130_fd_sc_hd__a22o_1
*I *2695:X O *D sky130_fd_sc_hd__and4_4
*CAP
1 *2697:A3 0
2 *2725:B1 2.0835e-05
3 *2804:B1 0.000318021
4 *2760:A3 1.70357e-05
5 *2731:B1 3.71765e-05
6 *2784:A2 1.44125e-05
7 *2796:B1 8.21128e-05
8 *2714:B1 0.000313396
9 *2695:X 0.00103626
10 *197:149 0.00109434
11 *197:143 0.00258321
12 *197:110 0.00202468
13 *197:100 0.000286499
14 *197:54 0.00234382
15 *197:52 0.00206269
16 *197:48 0.000284388
17 *197:40 0.0021756
18 *197:20 0.00312568
19 *2714:B1 *2550:S 2.4997e-05
20 *2714:B1 *2571:A 0.000342254
21 *2714:B1 *2714:A1 4.94457e-05
22 *2714:B1 *2714:A2 0.000199544
23 *2714:B1 *2718:A 3.54025e-05
24 *2714:B1 *202:120 5.81345e-05
25 *2714:B1 *215:147 5.53249e-06
26 *2714:B1 *529:10 9.40749e-05
27 *2725:B1 *2728:A 0
28 *2731:B1 *2731:A1 9.50342e-06
29 *2731:B1 *442:74 7.34364e-05
30 *2731:B1 *602:107 0.000133763
31 *2784:A2 *2784:A1 9.53428e-06
32 *2784:A2 *2784:B1 9.72742e-06
33 *2796:B1 *2714:A2 2.30292e-05
34 *2796:B1 *2796:A1 4.82919e-05
35 *2796:B1 *2796:A2 9.53428e-06
36 *2796:B1 *215:153 2.59211e-05
37 *2804:B1 *2728:A 0
38 *2804:B1 *2804:B2 8.50453e-05
39 *2804:B1 *2884:A0 0.000206717
40 *2804:B1 *350:40 0.00041851
41 *2804:B1 *374:63 6.4422e-05
42 *2804:B1 *922:12 8.65961e-05
43 *197:20 *2693:C 4.77757e-05
44 *197:20 *2703:C 0.00107748
45 *197:20 *2963:A 0.000153937
46 *197:20 *2964:S 4.45507e-06
47 *197:20 *3005:A0 0.000484936
48 *197:20 *3022:A 0.000684957
49 *197:20 *3323:A 0.000134938
50 *197:20 *202:10 0.000484936
51 *197:20 *207:16 0
52 *197:20 *321:16 9.83951e-05
53 *197:20 *369:128 0
54 *197:20 *380:10 3.3914e-05
55 *197:20 *737:16 0.000114655
56 *197:40 *2702:A1 2.69153e-05
57 *197:40 *2703:C 0.000155608
58 *197:40 *2707:B1 0
59 *197:40 *2708:B1 0
60 *197:40 *2784:B1 0.00020364
61 *197:40 *2983:A0 2.49909e-05
62 *197:40 *3204:CLK 4.80285e-05
63 *197:40 *3216:CLK 0.000100551
64 *197:40 *208:139 0
65 *197:40 *215:32 1.70935e-05
66 *197:40 *395:30 0
67 *197:40 *430:46 0.0012175
68 *197:40 *430:65 3.09164e-05
69 *197:40 *869:8 0.000156629
70 *197:48 *2784:A1 1.61831e-05
71 *197:48 *2784:B1 1.48813e-05
72 *197:48 *2784:C1 5.16418e-05
73 *197:48 *3204:CLK 1.19928e-05
74 *197:48 *442:74 3.57846e-05
75 *197:48 *602:94 5.4003e-05
76 *197:48 *602:107 7.63883e-05
77 *197:52 *2784:A1 0.000142669
78 *197:54 *2612:A 0.000912558
79 *197:54 *2614:A 1.57575e-05
80 *197:54 *2704:B2 6.44076e-05
81 *197:54 *2711:B2 0.000590683
82 *197:54 *2714:A2 7.21296e-06
83 *197:54 *2797:A1 0.000248309
84 *197:54 *2797:C1 9.71067e-05
85 *197:54 *3053:A1 0.000266838
86 *197:54 *3073:S 0.000163339
87 *197:54 *3079:A 7.23533e-05
88 *197:54 *3095:A 4.96649e-05
89 *197:54 *3119:A 1.65192e-05
90 *197:54 *3120:A0 0.000245854
91 *197:54 *3347:A 0.000114524
92 *197:54 *202:120 0.000367749
93 *197:54 *215:147 0.000279903
94 *197:54 *285:18 0
95 *197:54 *407:22 1.08523e-05
96 *197:54 *445:20 0.000269464
97 *197:54 *445:33 0.00015948
98 *197:54 *477:14 0.000167464
99 *197:54 *598:12 4.65721e-05
100 *197:54 *598:94 0.000133719
101 *197:54 *602:94 0
102 *197:100 *2760:A1 0.00015356
103 *197:100 *2767:A2 0.000103298
104 *197:100 *2768:C 9.47962e-06
105 *197:100 *391:42 0.00019532
106 *197:110 *2760:A1 0.000130646
107 *197:110 *2760:B1 1.25169e-05
108 *197:110 *2768:C 0.000130646
109 *197:143 *2694:A1 0.00012849
110 *197:143 *2697:B1 0
111 *197:143 *2720:B1 0
112 *197:143 *2737:B1 0.000460833
113 *197:143 *2752:B 0.000215821
114 *197:143 *2753:B1 0
115 *197:143 *2760:B1 2.91683e-05
116 *197:143 *2760:C1 0.000155254
117 *197:143 *2768:D 8.7152e-06
118 *197:143 *2788:B1 0
119 *197:143 *2790:B1 0
120 *197:143 *3083:A1 0
121 *197:143 *3097:A0 2.90456e-05
122 *197:143 *3099:A0 0.000304665
123 *197:143 *3099:S 0
124 *197:143 *3295:A 1.7635e-05
125 *197:143 *291:40 0.00130086
126 *197:143 *328:102 0.000254992
127 *197:143 *350:140 7.98352e-05
128 *197:143 *350:152 0.000260928
129 *197:143 *391:42 9.50163e-05
130 *197:143 *391:64 0
131 *197:143 *528:140 0.000179438
132 *197:143 *600:49 2.26441e-05
133 *197:143 *600:64 0.000133151
134 *197:143 *726:32 0.000306346
135 *197:149 *2595:A1 0
136 *197:149 *2607:A 8.08412e-05
137 *197:149 *2607:B 4.76926e-05
138 *197:149 *2829:A1 0.000160314
139 *197:149 *2829:S 2.49909e-05
140 *197:149 *2921:A 0.000112728
141 *197:149 *3152:CLK 0
142 *197:149 *326:10 0
143 *197:149 *391:64 0
144 *197:149 *528:140 9.40795e-05
145 *197:149 *925:12 0
146 *2694:A2 *197:143 3.82072e-05
147 *2703:A *197:143 1.03572e-05
148 *2759:C *197:143 1.14559e-05
149 *2760:A2 *197:143 8.7152e-06
150 *3146:D *197:143 0.000131868
151 *3180:D *197:20 2.65814e-06
152 *3204:D *197:40 3.23663e-05
153 *3239:D *2714:B1 0.000162325
154 *177:8 *197:100 6.81824e-05
155 *177:75 *197:143 2.48269e-05
156 *181:90 *2804:B1 0.000163992
157 *182:38 *197:20 0.000790835
158 *183:42 *197:143 7.84315e-05
159 *192:109 *197:143 2.46007e-05
160 *193:28 *197:20 0.000123812
161 *193:40 *197:20 0.000458583
162 *193:40 *197:40 6.33103e-05
*RES
1 *2695:X *197:20 42.045 
2 *197:20 *197:40 39.72 
3 *197:40 *197:48 4.88 
4 *197:48 *197:52 4.175 
5 *197:52 *197:54 48.81 
6 *197:54 *2714:B1 12.18 
7 *197:54 *2796:B1 5.1 
8 *197:48 *2784:A2 1.96 
9 *197:40 *2731:B1 5.235 
10 *197:20 *197:100 7.54 
11 *197:100 *197:110 7.135 
12 *197:110 *2760:A3 1.8775 
13 *197:110 *197:143 48.1125 
14 *197:143 *197:149 14.7575 
15 *197:149 *2804:B1 14.09 
16 *197:149 *2725:B1 1.96 
17 *197:100 *2697:A3 1.6 
*END

*D_NET *198 0.00138415
*CONN
*I *2697:B1 I *D sky130_fd_sc_hd__a31o_1
*I *2696:X O *D sky130_fd_sc_hd__and3_1
*CAP
1 *2697:B1 0.000328505
2 *2696:X 0.000328505
3 *2697:B1 *2697:A1 0.000158855
4 *2697:B1 *2768:C 0.000151649
5 *2697:B1 *2768:D 0
6 *2697:B1 *2790:B1 6.88421e-05
7 *2694:A3 *2697:B1 4.89295e-05
8 *2696:B *2697:B1 1.397e-05
9 *2760:A2 *2697:B1 0
10 *177:6 *2697:B1 0.000272848
11 *181:24 *2697:B1 1.20478e-05
12 *197:143 *2697:B1 0
*RES
1 *2696:X *2697:B1 14.04 
*END

*D_NET *199 0.00125602
*CONN
*I *2703:B I *D sky130_fd_sc_hd__or4_1
*I *2697:X O *D sky130_fd_sc_hd__a31o_1
*CAP
1 *2703:B 0.000299077
2 *2697:X 0.000299077
3 *2703:B *2703:C 0.000215979
4 *2703:B *2703:D 3.09774e-05
5 *2703:B *2767:A2 0.000119251
6 *2703:B *345:41 4.28112e-06
7 *2703:A *2703:B 1.1071e-05
8 *2708:B2 *2703:B 8.9257e-05
9 *177:8 *2703:B 7.18107e-06
10 *177:16 *2703:B 0.000132253
11 *190:28 *2703:B 1.77037e-05
12 *193:40 *2703:B 2.99101e-05
*RES
1 *2697:X *2703:B 12.9 
*END

*D_NET *200 0.00077232
*CONN
*I *2699:B1 I *D sky130_fd_sc_hd__a31o_1
*I *2698:X O *D sky130_fd_sc_hd__and3_1
*CAP
1 *2699:B1 0.000108851
2 *2698:X 0.000108851
3 *2699:B1 *2699:A1 8.35118e-05
4 *2699:B1 *2699:A2 0.000192509
5 *2699:B1 *3389:A 0.000119251
6 *2699:B1 *384:22 0.000107504
7 *176:59 *2699:B1 5.18436e-05
*RES
1 *2698:X *2699:B1 10.41 
*END

*D_NET *201 0.00535011
*CONN
*I *2703:C I *D sky130_fd_sc_hd__or4_1
*I *2699:X O *D sky130_fd_sc_hd__a31o_1
*CAP
1 *2703:C 0.00147793
2 *2699:X 0.00147793
3 *2703:C *2693:C 3.64285e-05
4 *2703:C *345:41 6.18631e-05
5 *2703:C *474:18 6.63221e-05
6 *2703:C *677:30 5.28255e-05
7 *2703:C *677:34 0.00044775
8 *2703:A *2703:C 8.7152e-06
9 *2703:B *2703:C 0.000215979
10 *190:28 *2703:C 0.000114871
11 *193:40 *2703:C 0.000156408
12 *197:20 *2703:C 0.00107748
13 *197:40 *2703:C 0.000155608
*RES
1 *2699:X *2703:C 29.595 
*END

*D_NET *202 0.0301052
*CONN
*I *2766:B1 I *D sky130_fd_sc_hd__a22o_1
*I *2704:B1 I *D sky130_fd_sc_hd__a22o_1
*I *2715:B1 I *D sky130_fd_sc_hd__a22o_1
*I *2793:B1 I *D sky130_fd_sc_hd__a22o_1
*I *2764:A3 I *D sky130_fd_sc_hd__a31o_1
*I *2702:A3 I *D sky130_fd_sc_hd__a31o_1
*I *2802:B1 I *D sky130_fd_sc_hd__a221o_1
*I *2724:A2 I *D sky130_fd_sc_hd__a21o_1
*I *2700:X O *D sky130_fd_sc_hd__and4b_4
*CAP
1 *2766:B1 0
2 *2704:B1 2.51931e-05
3 *2715:B1 0.000584605
4 *2793:B1 6.64687e-05
5 *2764:A3 1.16926e-06
6 *2702:A3 0
7 *2802:B1 0
8 *2724:A2 0.00052161
9 *2700:X 0.00102132
10 *202:120 0.00204961
11 *202:110 0.00155551
12 *202:102 0.000885642
13 *202:77 0.000867606
14 *202:62 0.00170233
15 *202:24 0.00241955
16 *202:10 0.00450902
17 *2704:B1 *3117:B 4.66108e-05
18 *2715:B1 *2547:A 3.54025e-05
19 *2715:B1 *2568:S 0.000101992
20 *2715:B1 *2570:A0 0.000198945
21 *2715:B1 *2587:A 1.37074e-05
22 *2715:B1 *2715:A1 4.21018e-05
23 *2715:B1 *2715:B2 5.33085e-05
24 *2715:B1 *2718:B 7.23533e-05
25 *2715:B1 *2795:B2 0
26 *2715:B1 *208:61 5.4155e-06
27 *2715:B1 *541:14 1.34503e-05
28 *2715:B1 *870:10 0
29 *2724:A2 *2728:B 0
30 *2724:A2 *2802:A1 9.50342e-06
31 *2724:A2 *2913:B 3.96153e-05
32 *2724:A2 *2917:A 0.000138551
33 *2724:A2 *2937:B 6.4368e-05
34 *2724:A2 *385:16 0
35 *2724:A2 *388:12 8.6099e-05
36 *2724:A2 *403:22 0
37 *2724:A2 *715:41 9.78725e-05
38 *2793:B1 *2587:B 0
39 *2793:B1 *2590:A1 4.40812e-05
40 *2793:B1 *2718:A 3.86529e-05
41 *2793:B1 *2793:B2 8.53113e-06
42 *202:10 *2681:C 5.80126e-05
43 *202:10 *2761:A 9.94146e-05
44 *202:10 *3003:S 0.000339348
45 *202:10 *3005:A0 0.00023523
46 *202:10 *3089:A1 2.41307e-05
47 *202:10 *3458:A 4.55864e-06
48 *202:10 *403:12 0.000144249
49 *202:10 *430:129 0
50 *202:10 *432:72 0.000235395
51 *202:10 *447:10 5.84456e-05
52 *202:24 *2746:A 9.12857e-06
53 *202:24 *2747:A1 0
54 *202:24 *2774:A 0.000282358
55 *202:24 *2802:A1 9.47454e-05
56 *202:24 *2876:A0 0.000263651
57 *202:24 *2877:A 4.40812e-05
58 *202:24 *2933:A 9.30717e-05
59 *202:24 *2935:A 3.98757e-05
60 *202:24 *2987:A 0.000109561
61 *202:24 *3116:A 0.000116165
62 *202:24 *3396:A 5.76393e-05
63 *202:24 *3458:A 1.00941e-05
64 *202:24 *350:140 0.00018097
65 *202:24 *361:45 0.000188006
66 *202:24 *371:51 0
67 *202:24 *403:12 0.000113033
68 *202:24 *403:22 0.000317439
69 *202:24 *715:41 0.000501788
70 *202:24 *726:32 0.000240861
71 *202:62 *2703:D 2.49909e-05
72 *202:62 *2708:A2 1.87841e-05
73 *202:62 *2720:C1 1.79536e-05
74 *202:62 *2768:C 8.56774e-05
75 *202:62 *321:16 0
76 *202:62 *399:49 0.00035058
77 *202:77 *2702:B1 4.77807e-05
78 *202:77 *2768:C 0.000194921
79 *202:77 *3101:A 5.76085e-05
80 *202:102 *2763:A 0.000182265
81 *202:102 *2764:B1 8.64599e-05
82 *202:102 *2766:B2 1.26044e-05
83 *202:102 *2767:B1 3.25567e-05
84 *202:102 *3101:A 0.000135189
85 *202:102 *3101:B 0.000115351
86 *202:102 *3415:A 7.07544e-05
87 *202:102 *395:40 5.05981e-05
88 *202:102 *508:12 4.77769e-05
89 *202:110 *2704:B2 0.00015094
90 *202:110 *2766:B2 5.19006e-06
91 *202:110 *3415:A 0.000162124
92 *202:110 *285:18 0.000178604
93 *202:120 *2547:A 5.55384e-05
94 *202:120 *2571:A 0.000275375
95 *202:120 *2587:B 0.000292053
96 *202:120 *2612:A 0.00128221
97 *202:120 *2616:A 0.000140912
98 *202:120 *2704:B2 8.7152e-06
99 *202:120 *215:147 0.000278724
100 *202:120 *285:18 0.000510253
101 *202:120 *407:22 5.05716e-06
102 *202:120 *528:93 0.000310636
103 *202:120 *598:94 6.97895e-05
104 *202:120 *726:38 0
105 *202:120 *849:10 8.99337e-05
106 *2714:B1 *202:120 5.81345e-05
107 *2760:A2 *202:62 0.00019903
108 *2763:B *202:102 4.66108e-05
109 *2764:A2 *202:77 4.84544e-05
110 *2764:A2 *202:102 9.98057e-05
111 *3138:D *202:24 0.000157179
112 *3140:D *2724:A2 3.97832e-05
113 *3180:D *202:10 0.000448911
114 *3222:D *202:24 0
115 *3257:D *202:120 9.30717e-05
116 *177:20 *202:62 2.747e-05
117 *177:20 *202:77 1.08036e-05
118 *179:24 *202:10 9.54399e-05
119 *179:98 *202:10 0
120 *179:113 *202:10 7.37195e-05
121 *181:38 *202:62 0.000824353
122 *187:24 *202:10 0
123 *187:24 *202:24 0.000155928
124 *193:108 *202:24 0.000344463
125 *197:20 *202:10 0.000484936
126 *197:54 *202:120 0.000367749
*RES
1 *2700:X *202:10 28.5975 
2 *202:10 *202:24 42.4425 
3 *202:24 *2724:A2 13.68 
4 *202:24 *2802:B1 3.6 
5 *202:10 *202:62 7.67343 
6 *202:62 *2702:A3 1.6 
7 *202:62 *202:77 3.5175 
8 *202:77 *2764:A3 1.70875 
9 *202:77 *202:102 18.34 
10 *202:102 *202:110 5.99 
11 *202:110 *202:120 41.72 
12 *202:120 *2793:B1 6.98 
13 *202:120 *2715:B1 13.805 
14 *202:110 *2704:B1 4.05 
15 *202:102 *2766:B1 1.6 
*END

*D_NET *203 0.00195019
*CONN
*I *2702:B1 I *D sky130_fd_sc_hd__a31o_1
*I *2701:X O *D sky130_fd_sc_hd__and3_1
*CAP
1 *2702:B1 0.000434708
2 *2701:X 0.000434708
3 *2702:B1 *2702:A1 4.28112e-06
4 *2702:B1 *2708:A2 0.000198046
5 *2702:B1 *2720:D1 0.000113531
6 *2702:B1 *2764:A1 0
7 *2702:B1 *3104:A1 6.66995e-05
8 *2702:B1 *3104:S 0.000137563
9 *2702:B1 *3216:CLK 0.000155475
10 *2702:B1 *3217:CLK 3.00381e-05
11 *2702:B1 *419:88 0
12 *2702:B1 *830:12 4.82863e-05
13 *2702:B1 *831:20 2.11536e-05
14 *2701:C *2702:B1 6.84795e-05
15 *2758:B *2702:B1 8.23457e-05
16 *2763:B *2702:B1 0
17 *2763:C *2702:B1 1.59682e-05
18 *2764:A2 *2702:B1 1.79174e-05
19 *181:61 *2702:B1 8.68097e-06
20 *192:128 *2702:B1 6.45236e-05
21 *202:77 *2702:B1 4.77807e-05
*RES
1 *2701:X *2702:B1 20.8 
*END

*D_NET *204 0.000342492
*CONN
*I *2703:D I *D sky130_fd_sc_hd__or4_1
*I *2702:X O *D sky130_fd_sc_hd__a31o_1
*CAP
1 *2703:D 7.54877e-05
2 *2702:X 7.54877e-05
3 *2703:D *2768:C 1.74678e-05
4 *2703:B *2703:D 3.09774e-05
5 *177:20 *2703:D 0.000118081
6 *202:62 *2703:D 2.49909e-05
*RES
1 *2702:X *2703:D 4.955 
*END

*D_NET *205 0.00045201
*CONN
*I *2720:B1 I *D sky130_fd_sc_hd__a2111o_1
*I *2703:X O *D sky130_fd_sc_hd__or4_1
*CAP
1 *2720:B1 0.000155309
2 *2703:X 0.000155309
3 *2720:B1 *2760:B1 4.43871e-06
4 *2720:B1 *2760:C1 8.55057e-05
5 *2720:B1 *2768:C 3.1562e-06
6 *177:50 *2720:B1 4.82919e-05
7 *197:143 *2720:B1 0
*RES
1 *2703:X *2720:B1 9.315 
*END

*D_NET *206 0.0040724
*CONN
*I *2708:A2 I *D sky130_fd_sc_hd__a22o_1
*I *2704:X O *D sky130_fd_sc_hd__a22o_1
*CAP
1 *2708:A2 0.00117499
2 *2704:X 0.00117499
3 *2708:A2 *2696:A 0.000342095
4 *2708:A2 *2720:C1 7.38381e-05
5 *2708:A2 *2720:D1 2.99518e-06
6 *2708:A2 *2766:A2 1.56428e-05
7 *2708:A2 *3099:S 9.03508e-06
8 *2708:A2 *3102:A0 3.43427e-05
9 *2708:A2 *3102:S 7.35729e-05
10 *2708:A2 *3104:S 7.48724e-05
11 *2708:A2 *3117:B 4.79838e-05
12 *2708:A2 *419:88 0.000158466
13 *2708:A2 *476:52 0.000165232
14 *2702:B1 *2708:A2 0.000198046
15 *2708:B2 *2708:A2 1.48927e-05
16 *2758:B *2708:A2 6.6564e-05
17 *2758:C *2708:A2 8.34281e-06
18 *2763:C *2708:A2 9.26601e-05
19 *3219:D *2708:A2 0.000160635
20 *177:50 *2708:A2 0
21 *181:38 *2708:A2 0.000164429
22 *202:62 *2708:A2 1.87841e-05
*RES
1 *2704:X *2708:A2 26.895 
*END

*D_NET *207 0.0181639
*CONN
*I *2765:A2 I *D sky130_fd_sc_hd__a22o_1
*I *2707:A2 I *D sky130_fd_sc_hd__a22o_1
*I *2732:A2 I *D sky130_fd_sc_hd__a22o_1
*I *2783:A2 I *D sky130_fd_sc_hd__a22o_1
*I *2735:A2 I *D sky130_fd_sc_hd__a31o_1
*I *2712:A2 I *D sky130_fd_sc_hd__a221o_1
*I *2795:A2 I *D sky130_fd_sc_hd__a22o_1
*I *2786:A2 I *D sky130_fd_sc_hd__a31o_1
*I *2705:X O *D sky130_fd_sc_hd__and4bb_4
*CAP
1 *2765:A2 6.15293e-05
2 *2707:A2 0
3 *2732:A2 0
4 *2783:A2 0.000218127
5 *2735:A2 0
6 *2712:A2 7.67217e-05
7 *2795:A2 8.047e-05
8 *2786:A2 8.30458e-05
9 *2705:X 0.000218853
10 *207:104 0.000833973
11 *207:94 0.0012913
12 *207:51 0.000828911
13 *207:43 0.00109808
14 *207:26 0.00152865
15 *207:16 0.00181829
16 *207:10 0.000403971
17 *2712:A2 *2712:A1 9.50342e-06
18 *2712:A2 *2795:A1 8.58535e-05
19 *2712:A2 *3425:A 5.00903e-05
20 *2712:A2 *211:150 1.2818e-05
21 *2712:A2 *235:18 5.09887e-05
22 *2712:A2 *547:10 4.30176e-06
23 *2765:A2 *2765:B2 6.97202e-05
24 *2783:A2 *2732:A1 2.75145e-05
25 *2783:A2 *2733:C1 7.17811e-05
26 *2783:A2 *2783:B1 0.000157968
27 *2783:A2 *2784:C1 4.92062e-05
28 *2783:A2 *3068:S 2.14129e-05
29 *2783:A2 *442:74 0
30 *2783:A2 *486:10 0.000183043
31 *2786:A2 *2786:B1 8.49205e-05
32 *2786:A2 *600:87 2.39856e-05
33 *2795:A2 *2580:A1 6.58583e-05
34 *2795:A2 *2795:A1 0.000148516
35 *2795:A2 *2795:B2 1.52828e-05
36 *207:10 *3022:A 0
37 *207:10 *215:28 7.71016e-05
38 *207:16 *2964:S 0
39 *207:16 *3022:A 0
40 *207:16 *3323:A 8.53113e-06
41 *207:16 *3401:A 0.000111012
42 *207:16 *215:28 3.501e-05
43 *207:26 *2697:A1 0.000527949
44 *207:26 *2786:B1 7.3151e-05
45 *207:26 *2790:B1 7.17008e-05
46 *207:26 *2966:A0 0.000111012
47 *207:26 *3090:A 5.92528e-05
48 *207:26 *3323:A 0.000213908
49 *207:26 *3372:A 6.10941e-05
50 *207:26 *321:61 0.00037678
51 *207:26 *603:12 8.27857e-05
52 *207:26 *603:14 0.000421995
53 *207:26 *603:18 0.000257889
54 *207:43 *2735:A3 9.4424e-05
55 *207:43 *2898:A 5.03424e-05
56 *207:43 *2899:A0 7.23602e-05
57 *207:43 *391:64 0.000502879
58 *207:43 *527:44 9.84929e-05
59 *207:51 *2735:A3 2.20014e-05
60 *207:51 *2738:B1 0.000166949
61 *207:51 *3425:A 0.000270498
62 *207:51 *527:44 0.000429812
63 *207:51 *527:50 0.000135538
64 *207:51 *598:111 2.01934e-05
65 *207:94 *2707:A1 0.000607743
66 *207:94 *2707:B2 5.30673e-05
67 *207:94 *2965:A 0.000253376
68 *207:94 *2992:A 4.9968e-05
69 *207:94 *3176:CLK 5.16348e-05
70 *207:94 *3298:A 0.000121019
71 *207:94 *3401:A 0.000219862
72 *207:94 *603:10 8.65905e-05
73 *207:104 *2707:A1 4.99619e-05
74 *207:104 *2707:B2 9.79528e-05
75 *207:104 *2732:A1 2.45752e-05
76 *207:104 *2982:A 2.66586e-05
77 *207:104 *3381:A 0
78 *2683:B *207:10 0.000163204
79 *2683:C *207:10 2.55587e-05
80 *2683:D_N *207:10 0.00012657
81 *2696:B *207:26 5.2213e-05
82 *2719:B1 *2712:A2 2.49621e-05
83 *2719:B1 *2795:A2 2.82729e-05
84 *3172:D *207:104 2.31229e-05
85 *3212:D *207:26 0.000136685
86 *174:110 *207:43 0.000128266
87 *181:24 *207:10 0.000250192
88 *181:24 *207:16 6.05198e-05
89 *181:24 *207:26 0.000211394
90 *183:59 *207:26 0.00055523
91 *183:59 *207:43 0.000707962
92 *197:20 *207:16 0
*RES
1 *2705:X *207:10 9.525 
2 *207:10 *207:16 2.955 
3 *207:16 *207:26 29.72 
4 *207:26 *2786:A2 3.085 
5 *207:26 *207:43 16.78 
6 *207:43 *207:51 16.715 
7 *207:51 *2795:A2 6.195 
8 *207:51 *2712:A2 5.86875 
9 *207:43 *2735:A2 1.6 
10 *207:16 *207:94 19.965 
11 *207:94 *207:104 9.66 
12 *207:104 *2783:A2 10.97 
13 *207:104 *2732:A2 1.6 
14 *207:94 *2707:A2 1.6 
15 *207:10 *2765:A2 4.74 
*END

*D_NET *208 0.0281026
*CONN
*I *2765:B1 I *D sky130_fd_sc_hd__a22o_1
*I *2782:A2 I *D sky130_fd_sc_hd__a22o_1
*I *2733:A2 I *D sky130_fd_sc_hd__a211o_1
*I *2707:B1 I *D sky130_fd_sc_hd__a22o_1
*I *2726:B1 I *D sky130_fd_sc_hd__a22o_1
*I *2793:A2 I *D sky130_fd_sc_hd__a22o_1
*I *2715:A2 I *D sky130_fd_sc_hd__a22o_1
*I *2804:A2 I *D sky130_fd_sc_hd__a221o_1
*I *2706:X O *D sky130_fd_sc_hd__and4bb_4
*CAP
1 *2765:B1 0
2 *2782:A2 5.61236e-05
3 *2733:A2 0.000162511
4 *2707:B1 0.000145481
5 *2726:B1 0.000165
6 *2793:A2 0.000189746
7 *2715:A2 0
8 *2804:A2 0.000181972
9 *2706:X 0.000111538
10 *208:139 0.000826563
11 *208:120 0.00240888
12 *208:102 0.00188654
13 *208:61 0.00220058
14 *208:28 0.00225881
15 *208:26 0.00437362
16 *208:8 0.00448522
17 *2707:B1 *2982:A 4.75576e-05
18 *2707:B1 *2992:A 0
19 *2707:B1 *3176:CLK 0
20 *2726:B1 *2726:A2 4.00541e-06
21 *2726:B1 *2726:B2 8.25254e-05
22 *2726:B1 *2794:A2 9.43751e-05
23 *2726:B1 *2802:C1 2.11921e-05
24 *2733:A2 *2733:A1 0.000273872
25 *2733:A2 *2784:B1 9.29751e-06
26 *2733:A2 *3068:A0 0.000141323
27 *2733:A2 *3069:A 8.53113e-06
28 *2733:A2 *3429:A 8.65961e-05
29 *2733:A2 *430:65 4.60584e-05
30 *2733:A2 *430:82 3.23391e-05
31 *2782:A2 *2782:A1 9.53428e-06
32 *2782:A2 *3069:A 3.35621e-05
33 *2793:A2 *2568:S 0.000183738
34 *2793:A2 *2587:A 8.40213e-05
35 *2793:A2 *2590:A1 0.000103192
36 *2793:A2 *2610:S 0
37 *2793:A2 *2715:A1 0.00012043
38 *2793:A2 *2718:A 0.000122331
39 *2793:A2 *538:16 0.000270415
40 *2804:A2 *2726:B2 0
41 *2804:A2 *2806:B 8.3606e-05
42 *2804:A2 *3439:A 0.000120186
43 *2804:A2 *350:40 5.80482e-06
44 *2804:A2 *359:37 6.23927e-05
45 *2804:A2 *916:10 9.50342e-06
46 *208:8 *3027:A 0
47 *208:26 *2726:A1 0
48 *208:26 *2790:A2 0
49 *208:26 *2802:C1 0
50 *208:26 *3027:A 0
51 *208:26 *358:20 2.38558e-05
52 *208:26 *359:37 7.90228e-05
53 *208:26 *365:58 0.00327605
54 *208:26 *590:145 4.21127e-05
55 *208:26 *737:16 0
56 *208:26 *737:30 0
57 *208:28 *2726:A1 0
58 *208:28 *359:37 3.77199e-05
59 *208:28 *385:16 0
60 *208:61 *2595:S 5.36001e-05
61 *208:61 *2607:A 8.94347e-05
62 *208:61 *2607:B 0.00025169
63 *208:61 *2608:A0 2.92496e-05
64 *208:61 *2610:A0 4.66108e-05
65 *208:61 *2610:S 8.23457e-05
66 *208:61 *2715:A1 9.72742e-06
67 *208:61 *2794:A2 0.000349166
68 *208:61 *2829:A1 4.66108e-05
69 *208:61 *2920:S 0.000122879
70 *208:61 *3152:CLK 1.83756e-05
71 *208:61 *316:59 0.000135422
72 *208:61 *538:16 9.0716e-05
73 *208:61 *565:6 0.000262996
74 *208:102 *2765:B2 3.31103e-05
75 *208:102 *215:28 7.13236e-05
76 *208:120 *2707:B2 1.79536e-05
77 *208:120 *2765:A1 9.50342e-06
78 *208:120 *2982:A 1.93834e-05
79 *208:120 *3022:A 6.28008e-05
80 *208:120 *3066:A0 0.000122337
81 *208:120 *3172:CLK 1.83847e-05
82 *208:120 *215:28 1.85219e-05
83 *208:120 *590:145 0
84 *208:120 *590:159 0
85 *208:139 *2782:B1 0.000378091
86 *208:139 *2982:A 2.50049e-05
87 *208:139 *3172:CLK 0.000185405
88 *208:139 *3173:CLK 2.64421e-05
89 *208:139 *215:32 0
90 *208:139 *604:37 0.000153726
91 *208:139 *604:56 5.32745e-05
92 *2680:C *208:102 1.85674e-05
93 *2715:B1 *208:61 5.4155e-06
94 *3152:D *208:61 4.82319e-06
95 *3248:D *208:61 1.54049e-05
96 *182:8 *208:102 3.45679e-05
97 *182:12 *208:8 0
98 *182:12 *208:26 0
99 *182:38 *208:26 0
100 *182:50 *208:26 0.000261101
101 *183:38 *208:120 1.09082e-05
102 *197:40 *2707:B1 0
103 *197:40 *208:139 0
*RES
1 *2706:X *208:8 5.235 
2 *208:8 *208:26 17.2845 
3 *208:26 *208:28 1.125 
4 *208:28 *2804:A2 7.14375 
5 *208:28 *208:61 35.61 
6 *208:61 *2715:A2 1.6 
7 *208:61 *2793:A2 11.765 
8 *208:26 *2726:B1 6.93 
9 *208:8 *208:102 5.915 
10 *208:102 *208:120 11.5419 
11 *208:120 *2707:B1 5.745 
12 *208:120 *208:139 12.77 
13 *208:139 *2733:A2 10.295 
14 *208:139 *2782:A2 2.77 
15 *208:102 *2765:B1 1.6 
*END

*D_NET *209 0.00253564
*CONN
*I *2708:B1 I *D sky130_fd_sc_hd__a22o_1
*I *2707:X O *D sky130_fd_sc_hd__a22o_1
*CAP
1 *2708:B1 0.000592066
2 *2707:X 0.000592066
3 *2708:B1 *2702:A1 0.000175213
4 *2708:B1 *2767:B1 2.69153e-05
5 *2708:B1 *3176:CLK 9.71067e-05
6 *2708:B1 *3419:A 0.000223452
7 *2708:B1 *395:30 0.000113761
8 *2708:B1 *419:88 0.000657532
9 *2708:B1 *433:10 1.42551e-05
10 *2708:B1 *445:109 1.82859e-05
11 *2708:B2 *2708:B1 2.49909e-05
12 *197:40 *2708:B1 0
*RES
1 *2707:X *2708:B1 21.075 
*END

*D_NET *210 0.00115674
*CONN
*I *2720:C1 I *D sky130_fd_sc_hd__a2111o_1
*I *2708:X O *D sky130_fd_sc_hd__a22o_1
*CAP
1 *2720:C1 0.000190885
2 *2708:X 0.000190885
3 *2720:C1 *2696:A 4.71868e-05
4 *2720:C1 *2720:D1 5.23508e-05
5 *2720:C1 *3099:S 9.30564e-05
6 *2708:A2 *2720:C1 7.38381e-05
7 *177:16 *2720:C1 0.000173354
8 *177:50 *2720:C1 0.000192775
9 *181:38 *2720:C1 9.94641e-05
10 *190:28 *2720:C1 2.49909e-05
11 *202:62 *2720:C1 1.79536e-05
*RES
1 *2708:X *2720:C1 12.9 
*END

*D_NET *211 0.03237
*CONN
*I *2712:B1 I *D sky130_fd_sc_hd__a221o_1
*I *2797:A2 I *D sky130_fd_sc_hd__a211o_1
*I *2780:A3 I *D sky130_fd_sc_hd__a31o_1
*I *2745:A3 I *D sky130_fd_sc_hd__a31o_1
*I *2721:B1 I *D sky130_fd_sc_hd__a22o_1
*I *2799:B1 I *D sky130_fd_sc_hd__a22o_1
*I *2743:B I *D sky130_fd_sc_hd__and3_1
*I *2771:B I *D sky130_fd_sc_hd__and3_1
*I *2709:X O *D sky130_fd_sc_hd__and4b_4
*CAP
1 *2712:B1 0
2 *2797:A2 0.000331207
3 *2780:A3 0.000563032
4 *2745:A3 0
5 *2721:B1 0
6 *2799:B1 0.000130373
7 *2743:B 0.000344486
8 *2771:B 0.000266085
9 *2709:X 0.000975529
10 *211:150 0.00410443
11 *211:94 0.00117204
12 *211:76 0.00114825
13 *211:72 0.000820054
14 *211:66 0.00471922
15 *211:35 0.00196984
16 *211:18 0.00207141
17 *2743:B *2543:A0 6.25749e-05
18 *2743:B *2543:S 0.000113027
19 *2771:B *2771:A 2.50059e-05
20 *2771:B *2977:A0 0.000273709
21 *2771:B *2979:A 5.67938e-05
22 *2771:B *3058:A0 7.35481e-05
23 *2771:B *355:32 8.24503e-05
24 *2780:A3 *2552:A 2.78196e-05
25 *2780:A3 *2780:A1 0.000395246
26 *2780:A3 *231:36 8.80293e-06
27 *2780:A3 *411:47 8.97e-05
28 *2780:A3 *527:24 2.747e-05
29 *2780:A3 *532:16 1.88656e-05
30 *2780:A3 *759:47 1.86753e-05
31 *2797:A2 *2580:S 0.000304481
32 *2797:A2 *2711:B1 0.000110733
33 *2797:A2 *2717:B1 0.000193128
34 *2797:A2 *2791:A2 0.00019532
35 *2797:A2 *2795:A1 0.00034711
36 *2797:A2 *2795:B2 0
37 *2797:A2 *2797:A1 0.000100222
38 *2797:A2 *2797:B1 0.000143612
39 *2797:A2 *218:110 1.74143e-05
40 *2797:A2 *316:121 1.4174e-05
41 *2797:A2 *547:10 1.1392e-05
42 *2799:B1 *2721:A1 0.00017666
43 *2799:B1 *2721:A2 7.11786e-06
44 *2799:B1 *2721:B2 4.66108e-05
45 *2799:B1 *2799:A2 0.000178357
46 *2799:B1 *2800:C1 0.000138386
47 *2799:B1 *2956:A0 3.96653e-05
48 *2799:B1 *356:14 7.21296e-06
49 *211:18 *2822:C 1.65192e-05
50 *211:18 *2841:B_N 0.000158989
51 *211:18 *2844:A1_N 0.000113797
52 *211:18 *3058:A0 8.75474e-05
53 *211:18 *3058:S 1.26548e-05
54 *211:18 *3129:CLK 8.40213e-05
55 *211:18 *3131:CLK 0.000379178
56 *211:18 *3229:CLK 0.000374417
57 *211:18 *3306:A 3.93775e-05
58 *211:18 *319:39 4.21314e-05
59 *211:18 *323:55 0.000215998
60 *211:18 *355:32 1.8044e-05
61 *211:18 *594:10 0.000181711
62 *211:18 *607:33 0.000818725
63 *211:18 *773:29 0
64 *211:18 *774:83 0.000198856
65 *211:18 *774:103 0.000149088
66 *211:35 *2943:B 2.07848e-06
67 *211:35 *407:22 4.18606e-05
68 *211:35 *590:222 0
69 *211:66 *2541:S 0
70 *211:66 *2542:A 0.000156751
71 *211:66 *2739:A 0.000111011
72 *211:66 *2740:B1 0
73 *211:66 *2742:C1 0.000359402
74 *211:66 *2770:A 0
75 *211:66 *2772:A 0.000105257
76 *211:66 *2781:A 0.000100156
77 *211:66 *415:41 0
78 *211:66 *759:47 0
79 *211:66 *878:10 0.000136606
80 *211:72 *2742:C1 0.000137235
81 *211:72 *759:47 0
82 *211:76 *231:36 0.000150838
83 *211:94 *2623:A1 6.10392e-05
84 *211:94 *2624:A 1.01661e-05
85 *211:94 *2625:A0 0.000373418
86 *211:94 *2626:A 8.00712e-05
87 *211:94 *2721:A1 2.21074e-05
88 *211:94 *2721:A2 8.52137e-06
89 *211:94 *2722:B1 0.000134248
90 *211:94 *2722:C1 8.66466e-06
91 *211:94 *2740:A1 0.000431246
92 *211:94 *2745:A1 4.6075e-05
93 *211:94 *2799:A2 2.01737e-05
94 *211:94 *2867:B 7.58976e-05
95 *211:94 *2943:B 0.00046334
96 *211:94 *218:55 0.001425
97 *211:94 *231:36 8.28018e-06
98 *211:94 *325:31 9.54399e-05
99 *211:94 *350:106 0.000289811
100 *211:94 *356:14 0
101 *211:94 *416:12 0.000442679
102 *211:94 *891:10 0.000114492
103 *211:150 *2719:A1 5.83121e-06
104 *211:150 *2719:A2 4.82172e-06
105 *211:150 *2738:A2 4.77807e-05
106 *211:150 *2899:A1 6.92418e-05
107 *211:150 *2986:A1 0.000750293
108 *211:150 *2988:A1 0.000292573
109 *211:150 *212:38 0.000350932
110 *211:150 *212:63 0
111 *211:150 *231:101 0
112 *211:150 *235:18 1.93834e-05
113 *211:150 *361:45 8.92074e-05
114 *211:150 *374:109 5.26345e-05
115 *211:150 *380:45 5.9286e-06
116 *211:150 *391:64 0
117 *211:150 *419:67 0
118 *211:150 *532:16 0
119 *211:150 *547:10 3.47678e-05
120 *2712:A2 *211:150 1.2818e-05
121 *2719:B1 *211:150 7.9642e-06
122 *2745:A2 *211:76 0.000302103
123 *2745:A2 *211:94 1.42674e-05
124 *3129:D *211:18 0
125 *3131:D *211:18 7.44569e-05
126 *191:20 *2771:B 0
127 *192:54 *2743:B 1.08758e-05
*RES
1 *2709:X *211:18 31.2375 
2 *211:18 *2771:B 9.1425 
3 *211:18 *211:35 2.20333 
4 *211:35 *2743:B 7.8375 
5 *211:35 *211:66 16.095 
6 *211:66 *211:72 2.5725 
7 *211:72 *211:76 4.865 
8 *211:76 *211:94 37.405 
9 *211:94 *2799:B1 9.62 
10 *211:94 *2721:B1 1.6 
11 *211:76 *2745:A3 1.6 
12 *211:72 *2780:A3 12.015 
13 *211:66 *211:150 11.6892 
14 *211:150 *2797:A2 15.995 
15 *211:150 *2712:B1 1.6 
*END

*D_NET *212 0.0219459
*CONN
*I *2776:B I *D sky130_fd_sc_hd__and3_1
*I *2785:C I *D sky130_fd_sc_hd__and3_1
*I *2734:C I *D sky130_fd_sc_hd__and3_1
*I *2788:A2 I *D sky130_fd_sc_hd__a32o_1
*I *2737:A2 I *D sky130_fd_sc_hd__a32o_1
*I *2711:B1 I *D sky130_fd_sc_hd__a22o_1
*I *2791:A2 I *D sky130_fd_sc_hd__a22o_1
*I *2747:A2 I *D sky130_fd_sc_hd__a31o_1
*I *2710:X O *D sky130_fd_sc_hd__and4bb_4
*CAP
1 *2776:B 6.10218e-05
2 *2785:C 0.000177905
3 *2734:C 0.00039841
4 *2788:A2 0
5 *2737:A2 0
6 *2711:B1 0.000532292
7 *2791:A2 8.01302e-05
8 *2747:A2 0
9 *2710:X 0.00127336
10 *212:117 0.000654836
11 *212:77 0.00127993
12 *212:73 0.000909197
13 *212:63 0.00112631
14 *212:49 0.00116357
15 *212:38 0.000850841
16 *212:18 0.00198479
17 *2711:B1 *2580:A0 0.000159165
18 *2711:B1 *2580:A1 1.56428e-05
19 *2711:B1 *2711:A1 8.35118e-05
20 *2711:B1 *2711:A2 1.54665e-05
21 *2711:B1 *3324:A 7.26398e-05
22 *2711:B1 *3347:A 1.72554e-05
23 *2711:B1 *218:110 0.000102904
24 *2711:B1 *500:26 8.48119e-05
25 *2734:C *2734:A 5.13607e-05
26 *2734:C *2896:B 0.00015896
27 *2734:C *377:6 8.34281e-06
28 *2776:B *2742:C1 8.41307e-05
29 *2785:C *2785:A 9.28108e-05
30 *2785:C *380:12 2.3599e-05
31 *2785:C *419:67 1.7635e-05
32 *2791:A2 *2717:B1 2.05056e-05
33 *2791:A2 *2791:A1 2.54038e-05
34 *2791:A2 *2791:B1 7.00889e-06
35 *2791:A2 *2797:A1 4.99619e-05
36 *2791:A2 *2797:B1 4.81502e-06
37 *2791:A2 *2797:C1 4.43871e-06
38 *2791:A2 *218:110 0.000175219
39 *212:18 *2538:S 0.000307683
40 *212:18 *2710:B_N 0.000173199
41 *212:18 *2741:A 0.000277139
42 *212:18 *2776:A 4.75576e-05
43 *212:18 *2777:B 0.000179015
44 *212:18 *2936:A 0.000178432
45 *212:18 *2962:A 8.67021e-05
46 *212:18 *3002:C 0.000212635
47 *212:18 *3037:A 0.000224013
48 *212:18 *3048:B 4.99187e-05
49 *212:18 *3123:A0 0
50 *212:18 *3123:A1 0.000130257
51 *212:18 *3180:CLK 0.00010231
52 *212:18 *3228:CLK 3.66009e-05
53 *212:18 *317:69 0.000147832
54 *212:18 *419:126 0.000400369
55 *212:18 *421:114 0.000800975
56 *212:18 *474:10 6.709e-05
57 *212:18 *594:33 4.90272e-05
58 *212:18 *594:59 6.55142e-05
59 *212:18 *608:24 0.000151403
60 *212:18 *677:12 3.36472e-05
61 *212:38 *2741:A 9.28533e-05
62 *212:38 *2751:A 0
63 *212:38 *2751:C 2.20014e-05
64 *212:38 *2776:A 2.41368e-05
65 *212:38 *2987:A 8.23457e-05
66 *212:38 *2988:A1 0.000356076
67 *212:38 *361:45 1.08555e-05
68 *212:38 *371:51 1.32824e-05
69 *212:38 *606:92 0.000139593
70 *212:38 *608:24 0.000115906
71 *212:49 *606:64 0.000173018
72 *212:49 *606:92 6.52265e-05
73 *212:63 *2902:B 0.000143873
74 *212:63 *2986:A1 2.93197e-05
75 *212:63 *291:40 1.45975e-05
76 *212:63 *374:107 0
77 *212:63 *391:64 0.000218613
78 *212:63 *532:16 0.000871246
79 *212:73 *2737:A3 0.000312518
80 *212:73 *2738:C1 9.17884e-05
81 *212:73 *2788:A1 9.03508e-06
82 *212:73 *231:105 2.42703e-05
83 *212:73 *600:49 0.000111979
84 *212:77 *2613:A0 0.000157393
85 *212:77 *2613:A1 8.35157e-05
86 *212:77 *2613:S 1.91597e-05
87 *212:77 *2737:A3 4.81521e-05
88 *212:77 *2738:C1 8.35157e-05
89 *212:77 *2792:A2 1.48096e-05
90 *212:77 *395:40 0.00023422
91 *212:117 *2902:B 7.03996e-05
92 *212:117 *380:12 3.63701e-06
93 *2747:A3 *212:38 9.53428e-06
94 *2747:A3 *212:49 9.53428e-06
95 *2776:C *212:18 0.000118079
96 *2776:C *212:38 1.23015e-05
97 *2777:C *212:18 0.000184703
98 *2797:A2 *2711:B1 0.000110733
99 *2797:A2 *2791:A2 0.00019532
100 *3175:D *212:38 2.09527e-05
101 *3210:D *2785:C 3.96653e-05
102 *3464:A *212:18 0.000304822
103 *174:122 *212:73 1.08758e-05
104 *174:134 *212:77 0.00041483
105 *177:102 *2785:C 8.06691e-05
106 *177:102 *212:63 0.000177804
107 *177:102 *212:117 0.000193547
108 *193:108 *212:38 0.000216273
109 *193:121 *212:38 1.12578e-05
110 *193:121 *212:49 0.000357269
111 *211:150 *212:38 0.000350932
112 *211:150 *212:63 0
*RES
1 *2710:X *212:18 41.31 
2 *212:18 *212:38 11.9185 
3 *212:38 *2747:A2 1.6 
4 *212:38 *212:49 7.985 
5 *212:49 *212:63 9.37313 
6 *212:63 *212:73 8.95 
7 *212:73 *212:77 14.525 
8 *212:77 *2791:A2 6.705 
9 *212:77 *2711:B1 12.465 
10 *212:73 *2737:A2 1.6 
11 *212:63 *2788:A2 1.6 
12 *212:49 *212:117 2.4 
13 *212:117 *2734:C 8.265 
14 *212:117 *2785:C 6.27 
15 *212:18 *2776:B 4.395 
*END

*D_NET *213 0.00178688
*CONN
*I *2712:C1 I *D sky130_fd_sc_hd__a221o_1
*I *2711:X O *D sky130_fd_sc_hd__a22o_1
*CAP
1 *2712:C1 0.000431152
2 *2711:X 0.000431152
3 *2712:C1 *2576:A 6.90254e-05
4 *2712:C1 *2712:B2 0.000272291
5 *2712:C1 *500:14 4.18638e-05
6 *2712:C1 *500:26 0.000508842
7 *2712:C1 *726:38 0
8 *2712:C1 *806:14 2.67275e-05
9 *2712:C1 *807:20 5.83121e-06
*RES
1 *2711:X *2712:C1 15.66 
*END

*D_NET *214 0.000119058
*CONN
*I *2719:A1 I *D sky130_fd_sc_hd__o21a_1
*I *2712:X O *D sky130_fd_sc_hd__a221o_1
*CAP
1 *2719:A1 3.39027e-05
2 *2712:X 3.39027e-05
3 *2719:A1 *2738:A2 9.55262e-06
4 *2719:A1 *547:10 3.00381e-05
5 *2719:B1 *2719:A1 5.83121e-06
6 *211:150 *2719:A1 5.83121e-06
*RES
1 *2712:X *2719:A1 4.01 
*END

*D_NET *215 0.0388804
*CONN
*I *2775:C I *D sky130_fd_sc_hd__and3_1
*I *2744:C I *D sky130_fd_sc_hd__and3_1
*I *2749:B I *D sky130_fd_sc_hd__and3_1
*I *2796:A2 I *D sky130_fd_sc_hd__a22o_1
*I *2714:A2 I *D sky130_fd_sc_hd__a22o_1
*I *2801:B1 I *D sky130_fd_sc_hd__a22o_1
*I *2782:B1 I *D sky130_fd_sc_hd__a22o_1
*I *2731:A2 I *D sky130_fd_sc_hd__a22o_1
*I *2713:X O *D sky130_fd_sc_hd__and4b_4
*CAP
1 *2775:C 2.97033e-05
2 *2744:C 0.000241379
3 *2749:B 0
4 *2796:A2 1.29653e-05
5 *2714:A2 0.000370415
6 *2801:B1 0.000230813
7 *2782:B1 0.000201394
8 *2731:A2 0.000617865
9 *2713:X 3.38389e-05
10 *215:153 0.000436178
11 *215:147 0.00289312
12 *215:106 0.00367223
13 *215:102 0.00213673
14 *215:78 0.00205196
15 *215:72 0.00126836
16 *215:32 0.000893788
17 *215:28 0.00349328
18 *215:6 0.00441631
19 *2714:A2 *2547:A 4.43871e-06
20 *2714:A2 *2550:S 0.000108322
21 *2714:A2 *2563:A0 0
22 *2714:A2 *2718:A 2.04923e-05
23 *2714:A2 *2796:A1 4.82919e-05
24 *2714:A2 *529:10 0.000181376
25 *2714:A2 *535:6 8.65961e-05
26 *2731:A2 *2733:A1 0.000309607
27 *2731:A2 *2733:B1 0.000150955
28 *2731:A2 *3429:A 0.000152328
29 *2731:A2 *430:65 5.03202e-05
30 *2744:C *2740:A1 0
31 *2744:C *2744:A 3.26889e-05
32 *2744:C *2769:A 3.82022e-05
33 *2744:C *2769:B 3.12419e-05
34 *2782:B1 *430:65 3.77199e-05
35 *2796:A2 *2796:A1 3.50152e-06
36 *2801:B1 *2801:A1 4.82919e-05
37 *2801:B1 *2801:B2 6.06812e-05
38 *2801:B1 *2878:S 0.00019943
39 *2801:B1 *3156:CLK 2.97004e-06
40 *2801:B1 *3403:A 6.8786e-05
41 *2801:B1 *362:10 4.14277e-05
42 *2801:B1 *606:58 5.64695e-05
43 *215:6 *2713:C 4.00541e-06
44 *215:28 *2678:A 9.85232e-05
45 *215:28 *2713:B 4.51729e-05
46 *215:28 *2713:C 5.23992e-05
47 *215:28 *2765:A1 0.000176303
48 *215:28 *2765:B2 0.000198945
49 *215:28 *2981:S 8.40213e-05
50 *215:28 *2983:A0 0.000163199
51 *215:28 *2983:S 0.00012987
52 *215:28 *2993:A0 0.000119396
53 *215:28 *3022:A 0
54 *215:28 *604:20 0.000104095
55 *215:28 *876:10 0.000298649
56 *215:32 *430:65 3.18137e-05
57 *215:72 *2544:A 1.73877e-05
58 *215:72 *2713:A_N 1.4389e-05
59 *215:72 *2713:B 4.05674e-06
60 *215:72 *2773:C 0.000134386
61 *215:72 *2823:A 0.000171481
62 *215:72 *3032:A 0.000282484
63 *215:72 *3266:D 3.52139e-06
64 *215:72 *3373:A 0.00015997
65 *215:72 *317:8 0.000138091
66 *215:72 *317:10 9.42596e-05
67 *215:72 *317:12 0.000210311
68 *215:72 *321:16 1.88602e-05
69 *215:72 *355:18 0.000285003
70 *215:72 *355:32 9.58552e-05
71 *215:72 *361:12 0.000168853
72 *215:72 *407:16 0.000179516
73 *215:72 *595:10 0.000139405
74 *215:72 *775:97 0.00103921
75 *215:78 *2773:A 0.000462629
76 *215:78 *2778:B 4.66108e-05
77 *215:78 *231:36 7.80168e-05
78 *215:78 *775:97 0.000477892
79 *215:102 *2546:A 0.000511634
80 *215:102 *2740:A1 6.90254e-05
81 *215:102 *2742:A1 0.000230021
82 *215:102 *2750:A1 7.06865e-05
83 *215:102 *2750:A2 5.83121e-06
84 *215:102 *2750:B1 4.60061e-05
85 *215:102 *2750:C1 6.99601e-05
86 *215:102 *2751:C 0.000184023
87 *215:102 *2751:D 0.000236377
88 *215:102 *2752:A 3.86865e-05
89 *215:102 *2773:A 8.53113e-06
90 *215:102 *218:55 0.000145747
91 *215:102 *231:36 0.000364282
92 *215:102 *322:76 9.31831e-06
93 *215:102 *608:46 8.16666e-05
94 *215:102 *879:14 0.000241553
95 *215:106 *2876:S 0.00026473
96 *215:106 *2889:B 0.00023468
97 *215:106 *528:47 5.32892e-05
98 *215:147 *2597:A 0.000122331
99 *215:147 *2717:B1 0.000741686
100 *215:147 *2791:B1 8.35118e-05
101 *215:147 *2797:A1 0.000142299
102 *215:147 *2797:C1 9.54399e-05
103 *215:147 *2905:A0 0.000114433
104 *215:147 *2906:A 0.000121118
105 *215:147 *3147:CLK 4.66108e-05
106 *215:147 *316:51 0.000159156
107 *215:147 *316:121 0.00024267
108 *215:147 *322:89 0.00014053
109 *215:147 *328:84 0.000156473
110 *215:147 *362:10 7.06865e-05
111 *215:147 *559:10 6.29663e-05
112 *215:147 *606:58 6.08048e-05
113 *215:153 *535:6 0.000122331
114 *2680:B *215:28 2.11084e-05
115 *2680:C *215:28 8.00775e-05
116 *2714:B1 *2714:A2 0.000199544
117 *2714:B1 *215:147 5.53249e-06
118 *2744:B *2744:C 4.66108e-05
119 *2745:A2 *215:102 0.000162645
120 *2769:C *2744:C 0.000158066
121 *2775:B *2775:C 9.56447e-06
122 *2775:B *215:78 2.76356e-05
123 *2796:B1 *2714:A2 2.30292e-05
124 *2796:B1 *2796:A2 9.53428e-06
125 *2796:B1 *215:153 2.59211e-05
126 *2801:A2 *2801:B1 3.00381e-05
127 *3147:D *215:147 0.00034193
128 *3173:D *215:28 0.00023468
129 *3177:D *215:28 3.24595e-05
130 *3229:D *215:72 7.41049e-05
131 *3257:D *215:147 0.000104464
132 *174:55 *215:102 2.45801e-05
133 *176:24 *215:78 0.000133932
134 *180:6 *215:28 7.32791e-05
135 *182:8 *215:28 8.65961e-05
136 *197:40 *215:32 1.70935e-05
137 *197:54 *2714:A2 7.21296e-06
138 *197:54 *215:147 0.000279903
139 *202:120 *215:147 0.000278724
140 *207:10 *215:28 7.71016e-05
141 *207:16 *215:28 3.501e-05
142 *208:102 *215:28 7.13236e-05
143 *208:120 *215:28 1.85219e-05
144 *208:139 *2782:B1 0.000378091
145 *208:139 *215:32 0
*RES
1 *2713:X *215:6 2.215 
2 *215:6 *215:28 49.915 
3 *215:28 *215:32 3.38 
4 *215:32 *2731:A2 14.115 
5 *215:32 *2782:B1 8.61 
6 *215:6 *215:72 31.465 
7 *215:72 *215:78 10.295 
8 *215:78 *215:102 35.74 
9 *215:102 *215:106 9.695 
10 *215:106 *2801:B1 9 
11 *215:106 *215:147 48.955 
12 *215:147 *215:153 3.5 
13 *215:153 *2714:A2 13.76 
14 *215:153 *2796:A2 1.96 
15 *215:102 *2749:B 1.6 
16 *215:78 *2744:C 7.875 
17 *215:72 *2775:C 2.215 
*END

*D_NET *216 0.00199969
*CONN
*I *2718:A I *D sky130_fd_sc_hd__or3_1
*I *2714:X O *D sky130_fd_sc_hd__a22o_1
*CAP
1 *2718:A 0.000630948
2 *2714:X 0.000630948
3 *2718:A *2547:B 3.82323e-06
4 *2718:A *2570:A1 0
5 *2718:A *2587:B 0.000132867
6 *2718:A *2590:A1 0
7 *2718:A *2606:A 2.04648e-05
8 *2718:A *2719:A2 6.04172e-05
9 *2718:A *2793:A1 4.47209e-05
10 *2718:A *2793:B2 4.82863e-05
11 *2718:A *2794:B1 0.000162311
12 *2714:A2 *2718:A 2.04923e-05
13 *2714:B1 *2718:A 3.54025e-05
14 *2793:A2 *2718:A 0.000122331
15 *2793:B1 *2718:A 3.86529e-05
16 *3253:D *2718:A 4.80285e-05
*RES
1 *2714:X *2718:A 17.94 
*END

*D_NET *217 0.000526585
*CONN
*I *2718:B I *D sky130_fd_sc_hd__or3_1
*I *2715:X O *D sky130_fd_sc_hd__a22o_1
*CAP
1 *2718:B 0.000144679
2 *2715:X 0.000144679
3 *2718:B *538:16 0.000164874
4 *2718:B *870:10 0
5 *2715:B1 *2718:B 7.23533e-05
*RES
1 *2715:X *2718:B 9.555 
*END

*D_NET *218 0.0444705
*CONN
*I *2783:B1 I *D sky130_fd_sc_hd__a22o_1
*I *2732:B1 I *D sky130_fd_sc_hd__a22o_1
*I *2717:B1 I *D sky130_fd_sc_hd__a22o_1
*I *2791:B1 I *D sky130_fd_sc_hd__a22o_1
*I *2772:C I *D sky130_fd_sc_hd__and3_1
*I *2805:B1 I *D sky130_fd_sc_hd__a22o_1
*I *2722:B1 I *D sky130_fd_sc_hd__a221o_1
*I *2742:A3 I *D sky130_fd_sc_hd__a311o_1
*I *2716:X O *D sky130_fd_sc_hd__and4b_4
*CAP
1 *2783:B1 0.000217751
2 *2732:B1 0
3 *2717:B1 0.00130519
4 *2791:B1 5.40016e-05
5 *2772:C 8.24297e-05
6 *2805:B1 0.00124411
7 *2722:B1 0.000205448
8 *2742:A3 0.000178231
9 *2716:X 0.00117071
10 *218:144 0.00131638
11 *218:110 0.00207642
12 *218:102 0.0039082
13 *218:55 0.0024594
14 *218:41 0.00163232
15 *218:24 0.00149365
16 *218:14 0.00403843
17 *2717:B1 *2608:A0 0
18 *2717:B1 *2717:B2 4.77807e-05
19 *2717:B1 *2750:A1 7.23533e-05
20 *2717:B1 *2792:A2 0.00011312
21 *2717:B1 *2797:A1 1.12578e-05
22 *2717:B1 *3251:CLK 8.71001e-05
23 *2717:B1 *3317:A 0.000117832
24 *2717:B1 *299:34 0.000206406
25 *2717:B1 *316:57 0
26 *2717:B1 *316:98 0
27 *2717:B1 *316:121 0.000155129
28 *2717:B1 *599:18 0.000268011
29 *2717:B1 *599:22 0.000172735
30 *2717:B1 *599:24 0.000170807
31 *2717:B1 *599:32 0.000136877
32 *2722:B1 *2721:A2 0.00016203
33 *2722:B1 *2722:A1 0.000195893
34 *2722:B1 *2722:A2 2.59833e-05
35 *2722:B1 *2722:B2 2.4942e-05
36 *2722:B1 *2722:C1 0.000131944
37 *2722:B1 *2799:A2 1.08105e-05
38 *2722:B1 *416:12 9.12857e-06
39 *2742:A3 *2742:A1 0.000119873
40 *2742:A3 *2781:D 0.000391018
41 *2742:A3 *2931:B 0.000205853
42 *2772:C *2772:A 7.22467e-05
43 *2772:C *415:41 6.21553e-05
44 *2772:C *641:12 7.06865e-05
45 *2783:B1 *2732:B2 0.000455127
46 *2783:B1 *2783:A1 2.7919e-05
47 *2783:B1 *3066:A1 2.65814e-06
48 *2783:B1 *3321:A 0
49 *2783:B1 *235:18 0.000183036
50 *2783:B1 *483:10 0.000173533
51 *2791:B1 *2797:A1 2.95124e-05
52 *2805:B1 *2730:A2 0.000122202
53 *2805:B1 *2800:A2 3.05529e-05
54 *2805:B1 *2800:B1 4.12775e-05
55 *2805:B1 *2805:B2 0.000190814
56 *2805:B1 *2806:C 0.000172851
57 *2805:B1 *737:30 6.81824e-05
58 *218:14 *2539:A 0.00011504
59 *218:14 *2716:C 8.65961e-05
60 *218:14 *3003:A1 0.00012471
61 *218:14 *3004:A 0.00062345
62 *218:14 *3086:A0 0.000190366
63 *218:14 *384:22 4.77541e-05
64 *218:14 *384:30 0
65 *218:14 *403:12 0.000513814
66 *218:14 *403:22 0.000171732
67 *218:14 *432:52 0.000139918
68 *218:14 *432:72 0.00026527
69 *218:14 *821:10 0.000109025
70 *218:24 *2781:D 0.000138728
71 *218:24 *2931:B 7.75905e-05
72 *218:24 *3114:A 3.53787e-05
73 *218:24 *384:30 0
74 *218:24 *403:22 0.000193235
75 *218:24 *419:43 0.000839601
76 *218:24 *590:14 0
77 *218:24 *590:112 0
78 *218:24 *825:14 4.70343e-05
79 *218:41 *2988:A0 1.47347e-05
80 *218:41 *2989:A 5.83121e-06
81 *218:41 *3363:A 4.41506e-05
82 *218:55 *2620:A1 0.000288345
83 *218:55 *2623:A1 6.2706e-05
84 *218:55 *2626:A 8.00712e-05
85 *218:55 *2721:A2 1.10951e-05
86 *218:55 *2740:A1 0.000100682
87 *218:55 *2769:B 8.49205e-05
88 *218:55 *2773:A 6.86229e-05
89 *218:55 *2807:A1 0.000245838
90 *218:55 *2943:B 0.00047386
91 *218:55 *2952:S 0.0002014
92 *218:55 *412:10 0.000118513
93 *218:55 *415:41 0.000453878
94 *218:55 *641:12 4.76303e-05
95 *218:55 *759:93 0.00100618
96 *218:102 *350:140 0.000604065
97 *218:102 *419:43 0
98 *218:102 *430:24 0
99 *218:110 *2575:S 5.20968e-05
100 *218:110 *2578:S 0.000328021
101 *218:110 *2580:S 0.000370671
102 *218:110 *2791:A1 0.000532972
103 *218:110 *235:18 0
104 *218:110 *500:14 0
105 *218:110 *500:87 0
106 *218:144 *2701:A 0
107 *218:144 *3050:B 0.00050233
108 *218:144 *3060:A 0
109 *218:144 *3075:A 4.9968e-05
110 *218:144 *3076:S 0
111 *218:144 *3105:A 2.11536e-05
112 *218:144 *3296:A 0.000222936
113 *218:144 *235:18 0.000139245
114 *218:144 *442:42 0
115 *218:144 *442:61 0
116 *218:144 *445:12 0
117 *218:144 *483:10 0.000448967
118 *218:144 *486:10 4.41506e-05
119 *218:144 *500:87 0
120 *218:144 *601:8 0.000180051
121 *218:144 *601:10 0.000274779
122 *218:144 *601:16 9.91098e-05
123 *2711:B1 *218:110 0.000102904
124 *2717:A2 *2717:B1 0
125 *2783:A2 *2783:B1 0.000157968
126 *2791:A2 *2717:B1 2.05056e-05
127 *2791:A2 *2791:B1 7.00889e-06
128 *2791:A2 *218:110 0.000175219
129 *2797:A2 *2717:B1 0.000193128
130 *2797:A2 *218:110 1.74143e-05
131 *2805:A2 *2805:B1 6.07575e-06
132 *3218:D *218:144 9.71067e-05
133 *3219:D *218:144 9.79174e-05
134 *3248:D *2717:B1 0
135 *3251:D *2717:B1 9.65016e-05
136 *3254:D *2717:B1 5.68409e-05
137 *3285:A *218:102 0.00333239
138 *3462:A *218:14 0.000126799
139 *3463:A *218:14 3.99739e-05
140 *171:69 *218:14 5.05521e-05
141 *174:18 *218:41 0.000229645
142 *174:26 *218:41 0.000164294
143 *177:102 *2742:A3 4.77769e-05
144 *177:117 *2742:A3 8.23457e-05
145 *192:66 *218:14 1.73877e-05
146 *211:94 *2722:B1 0.000134248
147 *211:94 *218:55 0.001425
148 *215:102 *218:55 0.000145747
149 *215:147 *2717:B1 0.000741686
150 *215:147 *2791:B1 8.35118e-05
*RES
1 *2716:X *218:14 32.9775 
2 *218:14 *218:24 8.26737 
3 *218:24 *2742:A3 9.435 
4 *218:24 *218:41 10.66 
5 *218:41 *218:55 39.22 
6 *218:55 *2722:B1 8.82 
7 *218:55 *2805:B1 19.785 
8 *218:41 *2772:C 5.1675 
9 *218:14 *218:102 6.6316 
10 *218:102 *218:110 18.8525 
11 *218:110 *2791:B1 3.01 
12 *218:110 *2717:B1 34.325 
13 *218:102 *218:144 28.8475 
14 *218:144 *2732:B1 3.6 
15 *218:144 *2783:B1 10.605 
*END

*D_NET *219 0.00232533
*CONN
*I *2718:C I *D sky130_fd_sc_hd__or3_1
*I *2717:X O *D sky130_fd_sc_hd__a22o_1
*CAP
1 *2718:C 0.000588007
2 *2717:X 0.000588007
3 *2718:C *2608:S 0
4 *2718:C *2610:A1 0.000115582
5 *2718:C *2611:A 4.05358e-05
6 *2718:C *2717:B2 9.12494e-06
7 *2718:C *2719:A2 0.00042372
8 *2718:C *3449:A 7.27704e-06
9 *2718:C *328:137 0
10 *2718:C *538:16 0
11 *2717:A2 *2718:C 0.000553073
*RES
1 *2717:X *2718:C 19.815 
*END

*D_NET *220 0.00524821
*CONN
*I *2719:A2 I *D sky130_fd_sc_hd__o21a_1
*I *2718:X O *D sky130_fd_sc_hd__or3_1
*CAP
1 *2719:A2 0.00129892
2 *2718:X 0.00129892
3 *2719:A2 *2562:A 0.000140912
4 *2719:A2 *2562:B 5.42303e-05
5 *2719:A2 *2567:A 0.000110893
6 *2719:A2 *2794:B1 0.000279667
7 *2719:A2 *2795:B2 0.000149235
8 *2719:A2 *2798:A3 7.4027e-05
9 *2719:A2 *235:18 5.08304e-06
10 *2719:A2 *527:50 7.34094e-05
11 *2719:A2 *538:16 0.000595824
12 *2719:A2 *598:111 0
13 *2719:A2 *893:12 2.4997e-05
14 *2717:A2 *2719:A2 0
15 *2718:A *2719:A2 6.04172e-05
16 *2718:C *2719:A2 0.00042372
17 *2719:B1 *2719:A2 0.000467269
18 *2798:B1 *2719:A2 0.000185872
19 *211:150 *2719:A2 4.82172e-06
*RES
1 *2718:X *2719:A2 36.405 
*END

*D_NET *221 0.004856
*CONN
*I *2720:D1 I *D sky130_fd_sc_hd__a2111o_1
*I *2719:X O *D sky130_fd_sc_hd__o21a_1
*CAP
1 *2720:D1 0.00164332
2 *2719:X 0.00164332
3 *2720:D1 *2572:B 7.63125e-05
4 *2720:D1 *2577:A 9.52646e-05
5 *2720:D1 *2738:A2 4.55544e-05
6 *2720:D1 *2753:B1 8.8428e-05
7 *2720:D1 *3099:S 0.000212607
8 *2720:D1 *3100:A 5.71428e-05
9 *2720:D1 *3104:A1 2.31397e-05
10 *2720:D1 *3179:CLK 0
11 *2720:D1 *3378:A 5.12772e-05
12 *2720:D1 *358:99 4.40899e-05
13 *2720:D1 *395:40 0
14 *2720:D1 *547:10 8.65961e-05
15 *2720:D1 *726:32 0.000132316
16 *2720:D1 *831:20 4.66826e-05
17 *2701:C *2720:D1 0.000200633
18 *2702:B1 *2720:D1 0.000113531
19 *2708:A2 *2720:D1 2.99518e-06
20 *2720:C1 *2720:D1 5.23508e-05
21 *3178:D *2720:D1 0
22 *3179:D *2720:D1 5.72091e-05
23 *3216:D *2720:D1 6.25711e-06
24 *3217:D *2720:D1 4.66108e-05
25 *177:50 *2720:D1 0.000130359
*RES
1 *2719:X *2720:D1 38.545 
*END

*D_NET *222 0.0138202
*CONN
*I *2753:B1 I *D sky130_fd_sc_hd__o221a_1
*I *2720:X O *D sky130_fd_sc_hd__a2111o_1
*CAP
1 *2753:B1 0.00406916
2 *2720:X 0.00406916
3 *2753:B1 *2557:A 0.000619007
4 *2753:B1 *2597:B 0.00017317
5 *2753:B1 *2696:A 0.000120655
6 *2753:B1 *2737:A1 0
7 *2753:B1 *2737:A3 0.000153135
8 *2753:B1 *2738:B1 0.000112387
9 *2753:B1 *2738:C1 0.000125905
10 *2753:B1 *2753:B2 0.000187691
11 *2753:B1 *2753:C1 3.15598e-05
12 *2753:B1 *2997:A0 7.23602e-05
13 *2753:B1 *3083:A1 9.97607e-05
14 *2753:B1 *3098:A 7.63282e-05
15 *2753:B1 *3099:A1 0.000325813
16 *2753:B1 *3099:S 3.91306e-05
17 *2753:B1 *3259:CLK 5.82477e-05
18 *2753:B1 *328:58 0.0015884
19 *2753:B1 *358:85 0.000202102
20 *2753:B1 *365:58 7.97152e-05
21 *2753:B1 *415:41 0.000161757
22 *2753:B1 *419:67 2.9067e-05
23 *2753:B1 *419:88 0.000136399
24 *2753:B1 *590:54 0.000280363
25 *2753:B1 *600:21 6.30193e-05
26 *2753:B1 *600:38 0.000127373
27 *2753:B1 *600:49 6.56244e-05
28 *2753:B1 *600:64 0
29 *2753:B1 *679:23 1.35034e-05
30 *2720:D1 *2753:B1 8.8428e-05
31 *2753:A2 *2753:B1 5.4155e-06
32 *2789:A1 *2753:B1 0.000548093
33 *181:61 *2753:B1 9.74886e-05
34 *187:85 *2753:B1 0
35 *197:143 *2753:B1 0
*RES
1 *2720:X *2753:B1 44.6981 
*END

*D_NET *223 0.000299202
*CONN
*I *2722:C1 I *D sky130_fd_sc_hd__a221o_1
*I *2721:X O *D sky130_fd_sc_hd__a22o_1
*CAP
1 *2722:C1 5.48753e-05
2 *2721:X 5.48753e-05
3 *2722:C1 *2722:A2 3.56402e-05
4 *2722:C1 *2799:A2 1.32026e-05
5 *2722:B1 *2722:C1 0.000131944
6 *211:94 *2722:C1 8.66466e-06
*RES
1 *2721:X *2722:C1 4.955 
*END

*D_NET *224 0.00178314
*CONN
*I *2730:A1 I *D sky130_fd_sc_hd__o31a_1
*I *2722:X O *D sky130_fd_sc_hd__a221o_1
*CAP
1 *2730:A1 0.000680849
2 *2722:X 0.000680849
3 *2730:A1 *2730:A2 0.00011272
4 *2730:A1 *3422:A 0.000133488
5 *2730:A1 *372:12 8.97727e-05
6 *2805:A2 *2730:A1 8.54612e-05
*RES
1 *2722:X *2730:A1 16.935 
*END

*D_NET *225 0.00165281
*CONN
*I *2724:B1 I *D sky130_fd_sc_hd__a21o_1
*I *2723:X O *D sky130_fd_sc_hd__a22o_1
*CAP
1 *2724:B1 0.000447292
2 *2723:X 0.000447292
3 *2724:B1 *2724:A1 7.59067e-05
4 *2724:B1 *369:33 0.00060641
5 *2724:B1 *715:41 7.59067e-05
*RES
1 *2723:X *2724:B1 14.46 
*END

*D_NET *226 0.0013305
*CONN
*I *2730:A2 I *D sky130_fd_sc_hd__o31a_1
*I *2724:X O *D sky130_fd_sc_hd__a21o_1
*CAP
1 *2730:A2 0.000418947
2 *2724:X 0.000418947
3 *2730:A2 *2805:B2 2.27628e-05
4 *2730:A2 *372:12 0.00011272
5 *2730:A1 *2730:A2 0.00011272
6 *2805:A2 *2730:A2 0.000122202
7 *2805:B1 *2730:A2 0.000122202
*RES
1 *2724:X *2730:A2 13.17 
*END

*D_NET *227 0.00232887
*CONN
*I *2728:A I *D sky130_fd_sc_hd__or3_1
*I *2725:X O *D sky130_fd_sc_hd__a22o_1
*CAP
1 *2728:A 0.000550498
2 *2725:X 0.000550498
3 *2728:A *2607:A 0.000354266
4 *2728:A *2728:C 2.75229e-05
5 *2728:A *2806:B 0.000644964
6 *2728:A *2886:A 4.82919e-05
7 *2728:A *2913:A 6.11718e-05
8 *2728:A *2921:A 4.99619e-05
9 *2728:A *3439:A 4.16977e-05
10 *2725:B1 *2728:A 0
11 *2804:B1 *2728:A 0
*RES
1 *2725:X *2728:A 15.77 
*END

*D_NET *228 0.000724333
*CONN
*I *2728:B I *D sky130_fd_sc_hd__or3_1
*I *2726:X O *D sky130_fd_sc_hd__a22o_1
*CAP
1 *2728:B 0.000204782
2 *2726:X 0.000204782
3 *2728:B *2806:B 0.000233879
4 *2728:B *2937:B 8.53113e-06
5 *2728:B *403:22 7.23602e-05
6 *2724:A2 *2728:B 0
*RES
1 *2726:X *2728:B 10.245 
*END

*D_NET *229 0.0010645
*CONN
*I *2728:C I *D sky130_fd_sc_hd__or3_1
*I *2727:X O *D sky130_fd_sc_hd__a22o_1
*CAP
1 *2728:C 0.000279744
2 *2727:X 0.000279744
3 *2728:C *2727:A1 0
4 *2728:C *2806:B 2.17931e-05
5 *2728:C *2913:A 0.000102201
6 *2728:C *3433:A 0.000311294
7 *2728:C *608:46 4.21973e-05
8 *2728:A *2728:C 2.75229e-05
*RES
1 *2727:X *2728:C 8.51 
*END

*D_NET *230 0.00124224
*CONN
*I *2730:A3 I *D sky130_fd_sc_hd__o31a_1
*I *2728:X O *D sky130_fd_sc_hd__or3_1
*CAP
1 *2730:A3 0.000249998
2 *2728:X 0.000249998
3 *2730:A3 *2730:B1 2.69217e-05
4 *2730:A3 *2916:A0 0.000264963
5 *2730:A3 *2916:S 0.000124007
6 *2730:A3 *2937:A 2.1112e-05
7 *2730:A3 *351:52 0.000160635
8 *2730:A3 *374:16 4.19249e-05
9 *2730:A3 *404:10 3.03199e-05
10 *2730:A3 *904:10 7.23602e-05
*RES
1 *2728:X *2730:A3 13.23 
*END

*D_NET *231 0.0205166
*CONN
*I *2786:A3 I *D sky130_fd_sc_hd__a31o_1
*I *2735:A3 I *D sky130_fd_sc_hd__a31o_1
*I *2788:A3 I *D sky130_fd_sc_hd__a32o_1
*I *2737:A3 I *D sky130_fd_sc_hd__a32o_1
*I *2807:B1 I *D sky130_fd_sc_hd__o21a_1
*I *2730:B1 I *D sky130_fd_sc_hd__o31a_1
*I *2749:C I *D sky130_fd_sc_hd__and3_1
*I *2729:X O *D sky130_fd_sc_hd__and2_2
*CAP
1 *2786:A3 0.000585241
2 *2735:A3 4.16178e-05
3 *2788:A3 0
4 *2737:A3 0.000274096
5 *2807:B1 0.000233197
6 *2730:B1 0.000121444
7 *2749:C 6.34553e-05
8 *2729:X 0.00099609
9 *231:133 0.000702477
10 *231:105 0.000367743
11 *231:101 0.00135974
12 *231:59 0.000838078
13 *231:46 0.000948951
14 *231:36 0.00258862
15 *2730:B1 *2916:A0 0
16 *2730:B1 *351:52 7.63204e-05
17 *2730:B1 *372:12 0.000107396
18 *2730:B1 *374:16 2.88357e-05
19 *2735:A3 *527:44 0.00012214
20 *2737:A3 *2738:C1 0.000111604
21 *2737:A3 *600:49 5.06382e-06
22 *2749:C *528:47 9.71838e-05
23 *2786:A3 *2735:B1 0.000283997
24 *2786:A3 *2785:A 9.37898e-05
25 *2786:A3 *2786:A1 0
26 *2786:A3 *2789:B1 4.77757e-05
27 *2786:A3 *2789:C1 0
28 *2786:A3 *2790:D1 2.68526e-05
29 *2786:A3 *2899:A1 0
30 *2786:A3 *2900:A 1.6783e-05
31 *2786:A3 *3374:A 7.23602e-05
32 *2786:A3 *391:64 0
33 *2786:A3 *527:44 4.28112e-06
34 *2786:A3 *600:87 0
35 *2807:B1 *3151:CLK 1.90686e-05
36 *2807:B1 *350:40 0.00024033
37 *2807:B1 *605:18 0.000285012
38 *2807:B1 *605:24 3.00355e-05
39 *231:36 *2546:A 4.36573e-06
40 *231:36 *2740:A1 7.03219e-05
41 *231:36 *2745:A1 2.10841e-05
42 *231:36 *2745:B1 0.000223951
43 *231:36 *2752:C 0.000246252
44 *231:36 *355:32 0.000102409
45 *231:36 *411:47 0.000234103
46 *231:36 *641:31 7.13883e-05
47 *231:36 *759:47 6.88421e-05
48 *231:36 *775:97 9.21178e-05
49 *231:46 *2546:A 3.82176e-05
50 *231:46 *2752:A 0.000559867
51 *231:46 *2752:C 9.74008e-05
52 *231:46 *2752:D 7.03276e-05
53 *231:46 *2753:B2 3.70832e-05
54 *231:46 *358:67 0.000433442
55 *231:46 *528:47 0.00019585
56 *231:59 *2750:A1 2.75892e-05
57 *231:59 *2752:A 0
58 *231:59 *2889:A 0.000136884
59 *231:59 *2889:B 4.40899e-05
60 *231:59 *2932:A1 7.4027e-05
61 *231:59 *2934:S 0.000357541
62 *231:59 *351:52 0.000337339
63 *231:59 *359:35 7.63821e-05
64 *231:59 *372:12 0.0003386
65 *231:59 *608:46 0
66 *231:101 *2788:A1 0.000257885
67 *231:101 *2902:B 0.000496091
68 *231:101 *2986:A1 0.000177899
69 *231:101 *3244:CLK 1.97429e-05
70 *231:101 *3400:A 2.49909e-05
71 *231:101 *328:84 5.129e-05
72 *231:101 *527:44 0.000860113
73 *231:101 *532:16 0.00137774
74 *231:105 *2788:A1 6.12158e-05
75 *231:133 *391:64 3.99246e-05
76 *231:133 *527:44 3.84918e-06
77 *2730:A3 *2730:B1 2.69217e-05
78 *2745:A2 *231:36 0.000202066
79 *2753:B1 *2737:A3 0.000153135
80 *2780:A3 *231:36 8.80293e-06
81 *3144:D *2786:A3 8.99337e-05
82 *3145:D *2786:A3 0
83 *3151:D *2807:B1 0.000233931
84 *174:18 *231:36 6.83488e-05
85 *174:110 *231:133 2.59925e-05
86 *174:122 *231:105 7.11235e-06
87 *174:134 *2737:A3 2.94813e-05
88 *176:16 *231:36 0.000130073
89 *177:102 *231:36 0.000268176
90 *177:117 *231:36 5.00602e-05
91 *207:43 *2735:A3 9.4424e-05
92 *207:51 *2735:A3 2.20014e-05
93 *211:76 *231:36 0.000150838
94 *211:94 *231:36 8.28018e-06
95 *211:150 *231:101 0
96 *212:73 *2737:A3 0.000312518
97 *212:73 *231:105 2.42703e-05
98 *212:77 *2737:A3 4.81521e-05
99 *215:78 *231:36 7.80168e-05
100 *215:102 *231:36 0.000364282
*RES
1 *2729:X *231:36 32.2625 
2 *231:36 *231:46 13.2875 
3 *231:46 *2749:C 2.62 
4 *231:46 *231:59 15.98 
5 *231:59 *2730:B1 6.45 
6 *231:59 *2807:B1 10.5 
7 *231:36 *231:101 14.8614 
8 *231:101 *231:105 1.755 
9 *231:105 *2737:A3 11.7463 
10 *231:105 *2788:A3 1.6 
11 *231:101 *231:133 3.38 
12 *231:133 *2735:A3 5.1 
13 *231:133 *2786:A3 13.965 
*END

*D_NET *232 0.0044696
*CONN
*I *2752:A I *D sky130_fd_sc_hd__or4_1
*I *2730:X O *D sky130_fd_sc_hd__o31a_1
*CAP
1 *2752:A 0.000765543
2 *2730:X 0.000765543
3 *2752:A *2546:A 0.000330034
4 *2752:A *2750:C1 2.16389e-05
5 *2752:A *2800:A2 0.000361055
6 *2752:A *2806:A 4.46808e-07
7 *2752:A *2889:B 0.000196991
8 *2752:A *2934:A1 7.23602e-05
9 *2752:A *3301:A 2.05571e-05
10 *2752:A *351:34 5.29813e-05
11 *2752:A *358:67 0.000529895
12 *2752:A *372:12 0.000367098
13 *2752:A *374:16 1.79098e-05
14 *2805:A2 *2752:A 0.00029528
15 *187:53 *2752:A 7.37078e-05
16 *215:102 *2752:A 3.86865e-05
17 *231:46 *2752:A 0.000559867
18 *231:59 *2752:A 0
*RES
1 *2730:X *2752:A 30.75 
*END

*D_NET *233 0.000311506
*CONN
*I *2733:B1 I *D sky130_fd_sc_hd__a211o_1
*I *2731:X O *D sky130_fd_sc_hd__a22o_1
*CAP
1 *2733:B1 7.09917e-05
2 *2731:X 7.09917e-05
3 *2733:B1 *2733:A1 1.85674e-05
4 *2731:A2 *2733:B1 0.000150955
*RES
1 *2731:X *2733:B1 5.06 
*END

*D_NET *234 0.000898749
*CONN
*I *2733:C1 I *D sky130_fd_sc_hd__a211o_1
*I *2732:X O *D sky130_fd_sc_hd__a22o_1
*CAP
1 *2733:C1 0.000341298
2 *2732:X 0.000341298
3 *2733:C1 *2732:A1 5.062e-06
4 *2733:C1 *3068:S 0.000135254
5 *2733:C1 *442:74 0
6 *2733:C1 *841:16 4.05674e-06
7 *2783:A2 *2733:C1 7.17811e-05
*RES
1 *2732:X *2733:C1 13.365 
*END

*D_NET *235 0.00863793
*CONN
*I *2738:A2 I *D sky130_fd_sc_hd__a211o_1
*I *2733:X O *D sky130_fd_sc_hd__a211o_1
*CAP
1 *2738:A2 0.00063227
2 *2733:X 0.00194939
3 *235:18 0.00258166
4 *2738:A2 *2577:A 0.000417216
5 *2738:A2 *2752:B 8.53011e-05
6 *2738:A2 *547:10 7.03901e-06
7 *235:18 *2701:A 9.30717e-05
8 *235:18 *2712:A1 0.000197187
9 *235:18 *2732:B2 0.000139933
10 *235:18 *2995:A 3.14155e-05
11 *235:18 *3050:B 0
12 *235:18 *3060:A 1.88602e-05
13 *235:18 *3065:B 0.000100612
14 *235:18 *3066:A1 9.32826e-05
15 *235:18 *3070:A 6.16226e-06
16 *235:18 *3102:A1 0.000338363
17 *235:18 *3179:CLK 0
18 *235:18 *345:41 5.13924e-05
19 *235:18 *345:53 0.000142318
20 *235:18 *445:88 0.000265735
21 *235:18 *474:59 0.000150944
22 *235:18 *476:46 2.10911e-05
23 *235:18 *476:70 5.96083e-05
24 *235:18 *476:89 2.87523e-05
25 *235:18 *483:10 0.000280832
26 *235:18 *598:111 0
27 *2712:A2 *235:18 5.09887e-05
28 *2719:A1 *2738:A2 9.55262e-06
29 *2719:A2 *235:18 5.08304e-06
30 *2719:B1 *2738:A2 0.000121036
31 *2719:B1 *235:18 1.05185e-05
32 *2720:D1 *2738:A2 4.55544e-05
33 *2783:B1 *235:18 0.000183036
34 *3182:D *235:18 9.24825e-05
35 *3219:D *235:18 0.000211808
36 *193:121 *2738:A2 9.03508e-06
37 *211:150 *2738:A2 4.77807e-05
38 *211:150 *235:18 1.93834e-05
39 *218:110 *235:18 0
40 *218:144 *235:18 0.000139245
*RES
1 *2733:X *235:18 46.265 
2 *235:18 *2738:A2 11.5 
*END

*D_NET *236 0.00138437
*CONN
*I *2735:B1 I *D sky130_fd_sc_hd__a31o_1
*I *2734:X O *D sky130_fd_sc_hd__and3_1
*CAP
1 *2735:B1 0.000339313
2 *2734:X 0.000339313
3 *2735:B1 *2572:A 0.000307429
4 *2735:B1 *2735:A1 0.00011432
5 *2735:B1 *2789:C1 0
6 *2786:A3 *2735:B1 0.000283997
*RES
1 *2734:X *2735:B1 13.485 
*END

*D_NET *237 0.000946361
*CONN
*I *2738:B1 I *D sky130_fd_sc_hd__a211o_1
*I *2735:X O *D sky130_fd_sc_hd__a31o_1
*CAP
1 *2738:B1 0.000277967
2 *2735:X 0.000277967
3 *2738:B1 *2738:C1 0.00011109
4 *2753:B1 *2738:B1 0.000112387
5 *207:51 *2738:B1 0.000166949
*RES
1 *2735:X *2738:B1 11.445 
*END

*D_NET *238 0.00180759
*CONN
*I *2737:B1 I *D sky130_fd_sc_hd__a32o_1
*I *2736:X O *D sky130_fd_sc_hd__a22o_1
*CAP
1 *2737:B1 0.000343195
2 *2736:X 0.000343195
3 *2737:B1 *2736:A1 0
4 *2737:B1 *2737:A1 2.90167e-05
5 *2737:B1 *2904:A 0.000415451
6 *2737:B1 *528:140 7.12477e-05
7 *2737:B1 *600:49 3.48384e-05
8 *3146:D *2737:B1 9.39507e-05
9 *174:134 *2737:B1 1.58616e-05
10 *197:143 *2737:B1 0.000460833
*RES
1 *2736:X *2737:B1 15.7875 
*END

*D_NET *239 0.00118342
*CONN
*I *2738:C1 I *D sky130_fd_sc_hd__a211o_1
*I *2737:X O *D sky130_fd_sc_hd__a32o_1
*CAP
1 *2738:C1 0.000234127
2 *2737:X 0.000234127
3 *2738:C1 *600:49 0.000191262
4 *2737:A3 *2738:C1 0.000111604
5 *2738:B1 *2738:C1 0.00011109
6 *2753:B1 *2738:C1 0.000125905
7 *212:73 *2738:C1 9.17884e-05
8 *212:77 *2738:C1 8.35157e-05
*RES
1 *2737:X *2738:C1 13.455 
*END

*D_NET *240 0.00664367
*CONN
*I *2752:B I *D sky130_fd_sc_hd__or4_1
*I *2738:X O *D sky130_fd_sc_hd__a211o_1
*CAP
1 *2752:B 0.00243916
2 *2738:X 0.00243916
3 *2752:B *2737:A1 0.000248073
4 *2752:B *2746:A 2.69153e-05
5 *2752:B *2752:D 3.62258e-06
6 *2752:B *2788:B1 1.05328e-05
7 *2752:B *2903:A0 2.97593e-05
8 *2752:B *2903:A1 7.05599e-06
9 *2752:B *2903:S 0.000340777
10 *2752:B *3144:CLK 2.69153e-05
11 *2752:B *3244:CLK 2.74281e-05
12 *2752:B *291:40 5.76988e-05
13 *2752:B *369:77 6.53867e-05
14 *2752:B *600:49 0.00040539
15 *2752:B *929:8 8.55279e-05
16 *2738:A2 *2752:B 8.53011e-05
17 *3244:D *2752:B 1.66897e-05
18 *174:122 *2752:B 9.54115e-05
19 *193:121 *2752:B 1.70373e-05
20 *197:143 *2752:B 0.000215821
*RES
1 *2738:X *2752:B 45.82 
*END

*D_NET *241 0.00169401
*CONN
*I *2740:B1 I *D sky130_fd_sc_hd__a31o_1
*I *2739:X O *D sky130_fd_sc_hd__and3_1
*CAP
1 *2740:B1 0.000428287
2 *2739:X 0.000428287
3 *2740:B1 *2739:B 4.77719e-05
4 *2740:B1 *2772:A 0
5 *2740:B1 *2778:B 1.77595e-05
6 *2740:B1 *759:47 0.0006919
7 *2740:A3 *2740:B1 8.0002e-05
8 *211:66 *2740:B1 0
*RES
1 *2739:X *2740:B1 16.17 
*END

*D_NET *242 0.000552406
*CONN
*I *2742:B1 I *D sky130_fd_sc_hd__a311o_1
*I *2740:X O *D sky130_fd_sc_hd__a31o_1
*CAP
1 *2742:B1 0.000160376
2 *2740:X 0.000160376
3 *2742:B1 *2742:C1 0.000112403
4 *2742:B1 *608:82 0.000119251
*RES
1 *2740:X *2742:B1 9.72 
*END

*D_NET *243 0.00218062
*CONN
*I *2742:C1 I *D sky130_fd_sc_hd__a311o_1
*I *2741:X O *D sky130_fd_sc_hd__and3_1
*CAP
1 *2742:C1 0.000655649
2 *2741:X 0.000655649
3 *2742:C1 *2741:A 4.05674e-06
4 *2742:C1 *2776:A 4.95266e-05
5 *2742:C1 *2778:C 0.000119756
6 *2742:C1 *411:47 0
7 *2742:B1 *2742:C1 0.000112403
8 *2776:B *2742:C1 8.41307e-05
9 *2776:C *2742:C1 2.81446e-06
10 *211:66 *2742:C1 0.000359402
11 *211:72 *2742:C1 0.000137235
*RES
1 *2741:X *2742:C1 19.305 
*END

*D_NET *244 0.00136787
*CONN
*I *2752:C I *D sky130_fd_sc_hd__or4_1
*I *2742:X O *D sky130_fd_sc_hd__a311o_1
*CAP
1 *2752:C 0.000443449
2 *2742:X 0.000443449
3 *2752:C *2751:A 6.55013e-05
4 *2752:C *2752:D 2.76356e-05
5 *2752:C *2931:B 4.41857e-05
6 *231:36 *2752:C 0.000246252
7 *231:46 *2752:C 9.74008e-05
*RES
1 *2742:X *2752:C 14.64 
*END

*D_NET *245 0.0038705
*CONN
*I *2751:A I *D sky130_fd_sc_hd__or4_1
*I *2743:X O *D sky130_fd_sc_hd__and3_1
*CAP
1 *2751:A 0.000822707
2 *2743:X 0.000822707
3 *2751:A *2751:C 0
4 *2751:A *2777:A 0.00015997
5 *2751:A *2781:B 0.000182349
6 *2751:A *2781:D 0.00083257
7 *2751:A *2931:B 0.000169495
8 *2751:A *3228:CLK 4.41381e-05
9 *2751:A *527:24 0.00023182
10 *2751:A *608:16 0.000245212
11 *2752:C *2751:A 6.55013e-05
12 *2776:C *2751:A 0.000204768
13 *2780:A2 *2751:A 1.36113e-05
14 *3175:D *2751:A 7.5654e-05
15 *212:38 *2751:A 0
*RES
1 *2743:X *2751:A 27.78 
*END

*D_NET *246 0.000634993
*CONN
*I *2745:B1 I *D sky130_fd_sc_hd__a31o_1
*I *2744:X O *D sky130_fd_sc_hd__and3_1
*CAP
1 *2745:B1 9.04311e-05
2 *2744:X 9.04311e-05
3 *2745:B1 *2745:A1 0.000158556
4 *2745:B1 *355:32 7.1624e-05
5 *231:36 *2745:B1 0.000223951
*RES
1 *2744:X *2745:B1 10.17 
*END

*D_NET *247 0.00221111
*CONN
*I *2751:B I *D sky130_fd_sc_hd__or4_1
*I *2745:X O *D sky130_fd_sc_hd__a31o_1
*CAP
1 *2751:B 0.000706138
2 *2745:X 0.000706138
3 *2751:B *2546:A 4.77769e-05
4 *2751:B *2552:A 0.000121031
5 *2751:B *2781:D 0.000119873
6 *2751:B *527:16 7.01359e-05
7 *2751:B *527:18 0.000101609
8 *2751:B *527:24 0.000268268
9 *2751:B *759:47 7.01359e-05
*RES
1 *2745:X *2751:B 16.8 
*END

*D_NET *248 0.000745682
*CONN
*I *2747:B1 I *D sky130_fd_sc_hd__a31o_1
*I *2746:X O *D sky130_fd_sc_hd__and3_1
*CAP
1 *2747:B1 0.000283267
2 *2746:X 0.000283267
3 *2747:B1 *2747:A1 8.7152e-06
4 *2747:B1 *370:32 6.60907e-06
5 *2747:B1 *403:22 0
6 *2747:B1 *606:58 4.59585e-05
7 *177:102 *2747:B1 0.000117865
*RES
1 *2746:X *2747:B1 11.1 
*END

*D_NET *249 0.00212802
*CONN
*I *2751:C I *D sky130_fd_sc_hd__or4_1
*I *2747:X O *D sky130_fd_sc_hd__a31o_1
*CAP
1 *2751:C 0.000680918
2 *2747:X 0.000680918
3 *2751:C *2986:A1 1.7635e-05
4 *2751:C *3175:CLK 0.000169382
5 *2751:C *358:67 3.11035e-05
6 *2751:C *606:92 7.68414e-06
7 *2751:C *608:24 4.79442e-05
8 *2751:C *608:46 0.000146711
9 *2751:C *879:14 2.16214e-05
10 *2751:A *2751:C 0
11 *193:108 *2751:C 0.000118081
12 *212:38 *2751:C 2.20014e-05
13 *215:102 *2751:C 0.000184023
*RES
1 *2747:X *2751:C 17.865 
*END

*D_NET *250 0.00249382
*CONN
*I *2780:B1 I *D sky130_fd_sc_hd__a31o_1
*I *2750:B1 I *D sky130_fd_sc_hd__a311o_1
*I *2748:X O *D sky130_fd_sc_hd__and2_1
*CAP
1 *2780:B1 0.000535019
2 *2750:B1 7.3473e-05
3 *2748:X 0
4 *250:4 0.000608492
5 *2750:B1 *2750:A2 1.10085e-05
6 *2780:B1 *2546:B 0
7 *2780:B1 *2617:B 0.000157418
8 *2780:B1 *2621:A 0.000132366
9 *2780:B1 *2748:A 0.000234906
10 *2780:B1 *2780:A1 8.35118e-05
11 *2780:B1 *2931:B 0.000182697
12 *2780:B1 *316:33 0.000134475
13 *2780:B1 *527:24 8.23457e-05
14 *2780:B1 *528:8 4.66108e-05
15 *2673:B *2780:B1 3.24882e-05
16 *174:55 *2750:B1 9.33415e-05
17 *174:55 *2780:B1 3.96653e-05
18 *215:102 *2750:B1 4.60061e-05
*RES
1 *2748:X *250:4 1.6 
2 *250:4 *2750:B1 3.46 
3 *250:4 *2780:B1 17.435 
*END

*D_NET *251 0.000506909
*CONN
*I *2750:C1 I *D sky130_fd_sc_hd__a311o_1
*I *2749:X O *D sky130_fd_sc_hd__and3_1
*CAP
1 *2750:C1 0.000129795
2 *2749:X 0.000129795
3 *2750:C1 *2889:B 8.58063e-05
4 *2750:C1 *322:76 6.99129e-05
5 *2752:A *2750:C1 2.16389e-05
6 *215:102 *2750:C1 6.99601e-05
*RES
1 *2749:X *2750:C1 9.63 
*END

*D_NET *252 0.00154973
*CONN
*I *2751:D I *D sky130_fd_sc_hd__or4_1
*I *2750:X O *D sky130_fd_sc_hd__a311o_1
*CAP
1 *2751:D 0.000322971
2 *2750:X 0.000322971
3 *2751:D *322:76 0.000116165
4 *2751:D *608:46 0.000305415
5 *174:40 *2751:D 4.82919e-05
6 *174:55 *2751:D 0.000197535
7 *215:102 *2751:D 0.000236377
*RES
1 *2750:X *2751:D 14.58 
*END

*D_NET *253 0.000515578
*CONN
*I *2752:D I *D sky130_fd_sc_hd__or4_1
*I *2751:X O *D sky130_fd_sc_hd__or4_1
*CAP
1 *2752:D 0.000188392
2 *2751:X 0.000188392
3 *2752:D *2546:A 3.72081e-05
4 *2752:B *2752:D 3.62258e-06
5 *2752:C *2752:D 2.76356e-05
6 *231:46 *2752:D 7.03276e-05
*RES
1 *2751:X *2752:D 9.915 
*END

*D_NET *254 0.0034362
*CONN
*I *2753:B2 I *D sky130_fd_sc_hd__o221a_1
*I *2752:X O *D sky130_fd_sc_hd__or4_1
*CAP
1 *2753:B2 0.000776883
2 *2752:X 0.000776883
3 *2753:B2 *2617:B 6.51664e-05
4 *2753:B2 *2753:C1 9.23888e-06
5 *2753:B2 *2808:B1 0.000195787
6 *2753:B2 *2949:B 7.96104e-06
7 *2753:B2 *3259:CLK 1.88602e-05
8 *2753:B2 *322:55 0.000454532
9 *2753:B2 *358:67 0.000370561
10 *2753:B2 *528:47 4.60584e-05
11 *2753:B2 *679:23 2.38557e-05
12 *2673:B *2753:B2 0.000458663
13 *2753:B1 *2753:B2 0.000187691
14 *175:6 *2753:B2 6.97528e-06
15 *231:46 *2753:B2 3.70832e-05
*RES
1 *2752:X *2753:B2 24.7578 
*END

*D_NET *255 0.00178915
*CONN
*I *2757:B1 I *D sky130_fd_sc_hd__a211o_1
*I *2754:X O *D sky130_fd_sc_hd__a22o_1
*CAP
1 *2757:B1 0.000612163
2 *2754:X 0.000612163
3 *2682:A2 *2757:B1 0
4 *2688:B1 *2757:B1 0.000163387
5 *2688:C1 *2757:B1 0.00012677
6 *2754:A2 *2757:B1 0.000122814
7 *181:130 *2757:B1 0.000151857
*RES
1 *2754:X *2757:B1 17.325 
*END

*D_NET *256 0.00076258
*CONN
*I *2756:C1 I *D sky130_fd_sc_hd__a221o_1
*I *2755:X O *D sky130_fd_sc_hd__a22o_1
*CAP
1 *2756:C1 0.000143944
2 *2755:X 0.000143944
3 *2756:C1 *3040:A1 0.000132821
4 *2756:C1 *430:144 1.56428e-05
5 *2756:C1 *432:171 6.04372e-05
6 *2756:C1 *468:16 8.46818e-05
7 *2756:C1 *595:34 0.000133329
8 *2756:A2 *2756:C1 4.77807e-05
*RES
1 *2755:X *2756:C1 10.77 
*END

*D_NET *257 0.00338398
*CONN
*I *2757:C1 I *D sky130_fd_sc_hd__a211o_1
*I *2756:X O *D sky130_fd_sc_hd__a221o_1
*CAP
1 *2757:C1 0.000828583
2 *2756:X 0.000828583
3 *2757:C1 *2686:A1 8.40269e-05
4 *2757:C1 *2687:B2 3.06743e-05
5 *2757:C1 *2757:A1 1.37328e-05
6 *2757:C1 *3037:A 0.000277223
7 *2757:C1 *430:110 0.000210352
8 *2757:C1 *465:12 0
9 *2686:A2 *2757:C1 0.000119756
10 *2687:C1 *2757:C1 0.000471794
11 *2755:B1 *2757:C1 1.60203e-05
12 *2757:A2 *2757:C1 0.00016569
13 *186:26 *2757:C1 0.000247946
14 *187:120 *2757:C1 8.96017e-05
*RES
1 *2756:X *2757:C1 26.715 
*END

*D_NET *258 0.00956455
*CONN
*I *2790:A2 I *D sky130_fd_sc_hd__a2111o_1
*I *2757:X O *D sky130_fd_sc_hd__a211o_1
*CAP
1 *2790:A2 0.00464034
2 *2757:X 0.00464034
3 *2790:A2 *2790:B1 1.83847e-05
4 *2790:A2 *2790:C1 8.49205e-05
5 *2790:A2 *391:64 2.71027e-05
6 *2790:A2 *419:67 0
7 *2790:A2 *456:16 7.97197e-06
8 *2790:A2 *511:70 3.64998e-06
9 *3285:A *2790:A2 7.54285e-05
10 *181:130 *2790:A2 1.00941e-05
11 *182:50 *2790:A2 0
12 *183:59 *2790:A2 5.63183e-05
13 *208:26 *2790:A2 0
*RES
1 *2757:X *2790:A2 17.4883 
*END

*D_NET *259 0.00341653
*CONN
*I *2760:B1 I *D sky130_fd_sc_hd__a311o_1
*I *2758:X O *D sky130_fd_sc_hd__and3_1
*CAP
1 *2760:B1 0.00089928
2 *2758:X 0.00089928
3 *2760:B1 *2696:A 2.19562e-06
4 *2760:B1 *2760:C1 3.28822e-05
5 *2760:B1 *2768:A 4.77719e-05
6 *2760:B1 *2768:C 1.18961e-06
7 *2760:B1 *3100:A 1.88656e-05
8 *2760:B1 *3216:CLK 2.05641e-05
9 *2760:B1 *407:22 0.000686044
10 *2694:A3 *2760:B1 0.000122801
11 *2703:A *2760:B1 0.000362843
12 *2720:B1 *2760:B1 4.43871e-06
13 *177:75 *2760:B1 4.41506e-05
14 *182:50 *2760:B1 0.000232534
15 *190:28 *2760:B1 0
16 *197:110 *2760:B1 1.25169e-05
17 *197:143 *2760:B1 2.91683e-05
*RES
1 *2758:X *2760:B1 21.4618 
*END

*D_NET *260 0.00161965
*CONN
*I *2760:C1 I *D sky130_fd_sc_hd__a311o_1
*I *2759:X O *D sky130_fd_sc_hd__and3_1
*CAP
1 *2760:C1 0.000421489
2 *2759:X 0.000421489
3 *2760:C1 *2768:C 2.69217e-05
4 *2760:C1 *3097:A0 7.06865e-05
5 *2760:C1 *391:42 0.000256802
6 *2720:B1 *2760:C1 8.55057e-05
7 *2760:B1 *2760:C1 3.28822e-05
8 *177:75 *2760:C1 0
9 *190:28 *2760:C1 1.68246e-05
10 *192:91 *2760:C1 4.77757e-05
11 *192:109 *2760:C1 8.40213e-05
12 *197:143 *2760:C1 0.000155254
*RES
1 *2759:X *2760:C1 14.505 
*END

*D_NET *261 0.000331653
*CONN
*I *2768:A I *D sky130_fd_sc_hd__or4_1
*I *2760:X O *D sky130_fd_sc_hd__a311o_1
*CAP
1 *2768:A 0.000114824
2 *2760:X 0.000114824
3 *2768:A *2768:B 2.0452e-05
4 *2768:A *2768:C 3.37818e-05
5 *2760:B1 *2768:A 4.77719e-05
*RES
1 *2760:X *2768:A 5.3 
*END

*D_NET *262 0.00059013
*CONN
*I *2762:B1 I *D sky130_fd_sc_hd__a31o_1
*I *2761:X O *D sky130_fd_sc_hd__and3_1
*CAP
1 *2762:B1 0.000158392
2 *2761:X 0.000158392
3 *193:24 *2762:B1 0.000268157
4 *193:28 *2762:B1 5.19006e-06
*RES
1 *2761:X *2762:B1 6.08 
*END

*D_NET *263 0.00211889
*CONN
*I *2768:B I *D sky130_fd_sc_hd__or4_1
*I *2762:X O *D sky130_fd_sc_hd__a31o_1
*CAP
1 *2768:B 0.000677483
2 *2762:X 0.000677483
3 *2768:B *2693:A 7.5173e-05
4 *2768:B *2693:C 0.000303691
5 *2768:B *2768:C 2.50233e-05
6 *2768:B *3089:A0 7.15568e-05
7 *2768:B *3212:CLK 1.43187e-05
8 *2768:B *380:10 0.00014285
9 *2768:B *603:33 0.00010603
10 *2768:A *2768:B 2.0452e-05
11 *3212:D *2768:B 4.82319e-06
*RES
1 *2762:X *2768:B 18.285 
*END

*D_NET *264 0.000316103
*CONN
*I *2764:B1 I *D sky130_fd_sc_hd__a31o_1
*I *2763:X O *D sky130_fd_sc_hd__and3_1
*CAP
1 *2764:B1 5.04718e-05
2 *2763:X 5.04718e-05
3 *2764:B1 *2764:A1 2.93136e-05
4 *2764:B1 *2767:B1 2.69443e-06
5 *2764:B1 *3101:A 6.98881e-05
6 *2763:C *2764:B1 2.68037e-05
7 *202:102 *2764:B1 8.64599e-05
*RES
1 *2763:X *2764:B1 8.865 
*END

*D_NET *265 0.00375132
*CONN
*I *2768:C I *D sky130_fd_sc_hd__or4_1
*I *2764:X O *D sky130_fd_sc_hd__a31o_1
*CAP
1 *2768:C 0.00126387
2 *2764:X 0.00126387
3 *2768:C *2760:A1 4.36573e-06
4 *2768:C *3212:CLK 3.09774e-05
5 *2768:C *391:42 4.51265e-05
6 *2697:B1 *2768:C 0.000151649
7 *2703:D *2768:C 1.74678e-05
8 *2720:B1 *2768:C 3.1562e-06
9 *2760:A2 *2768:C 0.000277584
10 *2760:B1 *2768:C 1.18961e-06
11 *2760:C1 *2768:C 2.69217e-05
12 *2768:A *2768:C 3.37818e-05
13 *2768:B *2768:C 2.50233e-05
14 *181:24 *2768:C 0.00018561
15 *197:100 *2768:C 9.47962e-06
16 *197:110 *2768:C 0.000130646
17 *202:62 *2768:C 8.56774e-05
18 *202:77 *2768:C 0.000194921
*RES
1 *2764:X *2768:C 21.8257 
*END

*D_NET *266 0.00446673
*CONN
*I *2767:A2 I *D sky130_fd_sc_hd__a22o_1
*I *2765:X O *D sky130_fd_sc_hd__a22o_1
*CAP
1 *2767:A2 0.00135848
2 *2765:X 0.00135848
3 *2767:A2 *2697:A1 0.000351084
4 *2767:A2 *2765:B2 0.000269625
5 *2767:A2 *3299:A 9.22294e-06
6 *2767:A2 *374:152 0
7 *2767:A2 *421:49 0
8 *2767:A2 *590:181 0
9 *2767:A2 *603:10 5.72752e-05
10 *2767:A2 *603:12 8.31977e-06
11 *2703:B *2767:A2 0.000119251
12 *3167:D *2767:A2 3.55948e-05
13 *177:6 *2767:A2 8.73389e-06
14 *177:8 *2767:A2 3.39368e-05
15 *181:24 *2767:A2 0.000722138
16 *193:40 *2767:A2 3.12916e-05
17 *197:100 *2767:A2 0.000103298
*RES
1 *2765:X *2767:A2 30.09 
*END

*D_NET *267 0.00371242
*CONN
*I *2767:B1 I *D sky130_fd_sc_hd__a22o_1
*I *2766:X O *D sky130_fd_sc_hd__a22o_1
*CAP
1 *2767:B1 0.00126705
2 *2766:X 0.00126705
3 *2767:B1 *2763:A 0.000713073
4 *2767:B1 *3101:A 2.10905e-05
5 *2767:B1 *345:41 5.23039e-05
6 *2767:B1 *430:46 7.03276e-05
7 *2708:A1 *2767:B1 7.76447e-05
8 *2708:B1 *2767:B1 2.69153e-05
9 *2708:B2 *2767:B1 1.7034e-05
10 *2764:B1 *2767:B1 2.69443e-06
11 *177:14 *2767:B1 8.23457e-05
12 *193:40 *2767:B1 8.23457e-05
13 *202:102 *2767:B1 3.25567e-05
*RES
1 *2766:X *2767:B1 24.27 
*END

*D_NET *268 0.000961913
*CONN
*I *2768:D I *D sky130_fd_sc_hd__or4_1
*I *2767:X O *D sky130_fd_sc_hd__a22o_1
*CAP
1 *2768:D 0.000323345
2 *2767:X 0.000323345
3 *2697:B1 *2768:D 0
4 *2760:A2 *2768:D 4.07499e-05
5 *177:6 *2768:D 0.00010899
6 *177:8 *2768:D 0.000156767
7 *197:143 *2768:D 8.7152e-06
*RES
1 *2767:X *2768:D 11.64 
*END

*D_NET *269 0.00211031
*CONN
*I *2790:B1 I *D sky130_fd_sc_hd__a2111o_1
*I *2768:X O *D sky130_fd_sc_hd__or4_1
*CAP
1 *2790:B1 0.000476568
2 *2768:X 0.000476568
3 *2790:B1 *2694:A1 0
4 *2790:B1 *2790:C1 7.10593e-06
5 *2790:B1 *3372:A 0.000206123
6 *2790:B1 *391:42 0.000153139
7 *2790:B1 *391:64 0.00027076
8 *2790:B1 *500:141 4.88478e-05
9 *2790:B1 *511:70 9.044e-05
10 *2696:B *2790:B1 7.1165e-05
11 *2696:C *2790:B1 6.88421e-05
12 *2697:B1 *2790:B1 6.88421e-05
13 *2790:A2 *2790:B1 1.83847e-05
14 *183:59 *2790:B1 8.18263e-05
15 *192:91 *2790:B1 0
16 *197:143 *2790:B1 0
17 *207:26 *2790:B1 7.17008e-05
*RES
1 *2768:X *2790:B1 17.715 
*END

*D_NET *270 0.00136107
*CONN
*I *2773:A I *D sky130_fd_sc_hd__or4_1
*I *2769:X O *D sky130_fd_sc_hd__and3_1
*CAP
1 *2773:A 0.000231353
2 *2769:X 0.000231353
3 *2773:A *2769:B 4.94457e-05
4 *2773:A *415:41 2.10135e-05
5 *2773:A *641:12 0.000148881
6 *176:24 *2773:A 0.000139245
7 *215:78 *2773:A 0.000462629
8 *215:102 *2773:A 8.53113e-06
9 *218:55 *2773:A 6.86229e-05
*RES
1 *2769:X *2773:A 13.365 
*END

*D_NET *271 0.000979095
*CONN
*I *2773:B I *D sky130_fd_sc_hd__or4_1
*I *2770:X O *D sky130_fd_sc_hd__and3_1
*CAP
1 *2773:B 0.000191605
2 *2770:X 0.000191605
3 *2773:B *2781:A 1.16578e-05
4 *2773:B *350:120 4.42614e-05
5 *2773:B *415:41 0.00030726
6 *2773:B *759:18 7.23602e-05
7 *176:24 *2773:B 0.000160346
*RES
1 *2770:X *2773:B 12.39 
*END

*D_NET *272 0.000917442
*CONN
*I *2773:C I *D sky130_fd_sc_hd__or4_1
*I *2771:X O *D sky130_fd_sc_hd__and3_1
*CAP
1 *2773:C 0.000154637
2 *2771:X 0.000154637
3 *2773:C *2773:D 9.50342e-06
4 *2773:C *350:120 9.70557e-05
5 *2773:C *355:32 0.000290096
6 *2773:C *775:97 7.71267e-05
7 *215:72 *2773:C 0.000134386
*RES
1 *2771:X *2773:C 11.775 
*END

*D_NET *273 0.00081977
*CONN
*I *2773:D I *D sky130_fd_sc_hd__or4_1
*I *2772:X O *D sky130_fd_sc_hd__and3_1
*CAP
1 *2773:D 0.000143334
2 *2772:X 0.000143334
3 *2773:D *355:32 2.94708e-05
4 *2773:D *775:97 0.000138551
5 *2772:B *2773:D 3.66286e-05
6 *2773:C *2773:D 9.50342e-06
7 *174:18 *2773:D 7.4027e-05
8 *176:16 *2773:D 0.000244922
*RES
1 *2772:X *2773:D 11.025 
*END

*D_NET *274 0.0019561
*CONN
*I *2781:A I *D sky130_fd_sc_hd__or4_1
*I *2773:X O *D sky130_fd_sc_hd__or4_1
*CAP
1 *2781:A 0.000523417
2 *2773:X 0.000523417
3 *2781:A *2778:C 0.00015639
4 *2781:A *2781:C 1.56428e-05
5 *2781:A *350:120 0.000625419
6 *2773:B *2781:A 1.16578e-05
7 *211:66 *2781:A 0.000100156
*RES
1 *2773:X *2781:A 16.83 
*END

*D_NET *275 0.00210984
*CONN
*I *2778:A I *D sky130_fd_sc_hd__or4_1
*I *2774:X O *D sky130_fd_sc_hd__and3_1
*CAP
1 *2778:A 0.000472187
2 *2774:X 0.000472187
3 *2778:A *2778:C 3.26889e-05
4 *2778:A *2781:C 0.000177532
5 *2778:A *3113:S 0.000142895
6 *2778:A *3369:A 0.000110665
7 *2778:A *358:67 0
8 *2778:A *715:10 0.00043444
9 *2778:A *715:20 8.53113e-06
10 *2778:A *825:14 0.000230429
11 *187:43 *2778:A 2.82853e-05
*RES
1 *2774:X *2778:A 17.355 
*END

*D_NET *276 0.00161082
*CONN
*I *2778:B I *D sky130_fd_sc_hd__or4_1
*I *2775:X O *D sky130_fd_sc_hd__and3_1
*CAP
1 *2778:B 0.000580401
2 *2775:X 0.000580401
3 *2778:B *2542:A 2.68464e-05
4 *2778:B *2739:A 5.49879e-05
5 *2778:B *2739:B 3.21047e-05
6 *2778:B *2778:C 2.39856e-05
7 *2778:B *2778:D 5.83121e-06
8 *2778:B *759:18 3.79425e-05
9 *2739:C *2778:B 0.000108772
10 *2740:B1 *2778:B 1.77595e-05
11 *2775:B *2778:B 8.73389e-06
12 *3228:D *2778:B 8.64421e-05
13 *215:78 *2778:B 4.66108e-05
*RES
1 *2775:X *2778:B 12.965 
*END

*D_NET *277 0.00158855
*CONN
*I *2778:C I *D sky130_fd_sc_hd__or4_1
*I *2776:X O *D sky130_fd_sc_hd__and3_1
*CAP
1 *2778:C 0.000388516
2 *2776:X 0.000388516
3 *2778:C *2778:D 4.82863e-05
4 *2778:C *2781:D 0.000141599
5 *2778:C *2931:B 7.70938e-05
6 *2778:C *411:47 0.000129376
7 *2739:C *2778:C 8.23457e-05
8 *2742:C1 *2778:C 0.000119756
9 *2778:A *2778:C 3.26889e-05
10 *2778:B *2778:C 2.39856e-05
11 *2781:A *2778:C 0.00015639
*RES
1 *2776:X *2778:C 18.94 
*END

*D_NET *278 0.00133422
*CONN
*I *2778:D I *D sky130_fd_sc_hd__or4_1
*I *2777:X O *D sky130_fd_sc_hd__and3_1
*CAP
1 *2778:D 0.000269837
2 *2777:X 0.000269837
3 *2778:D *2777:A 4.99619e-05
4 *2778:D *2931:B 0.000305885
5 *2739:C *2778:D 0.00013611
6 *2778:B *2778:D 5.83121e-06
7 *2778:C *2778:D 4.82863e-05
8 *3464:A *2778:D 7.79847e-05
9 *192:44 *2778:D 0.000170484
*RES
1 *2777:X *2778:D 13.155 
*END

*D_NET *279 0.000493435
*CONN
*I *2781:B I *D sky130_fd_sc_hd__or4_1
*I *2778:X O *D sky130_fd_sc_hd__or4_1
*CAP
1 *2781:B 6.52019e-05
2 *2778:X 6.52019e-05
3 *2751:A *2781:B 0.000182349
4 *2776:C *2781:B 0.000180682
*RES
1 *2778:X *2781:B 9.345 
*END

*D_NET *280 0.00140363
*CONN
*I *2781:C I *D sky130_fd_sc_hd__or4_1
*I *2779:X O *D sky130_fd_sc_hd__and3_1
*CAP
1 *2781:C 0.000384346
2 *2779:X 0.000384346
3 *2781:C *2776:A 0.000303684
4 *2781:C *350:120 2.74126e-06
5 *2781:C *358:67 2.16389e-05
6 *2778:A *2781:C 0.000177532
7 *2781:A *2781:C 1.56428e-05
8 *187:43 *2781:C 0.000113703
*RES
1 *2779:X *2781:C 13.725 
*END

*D_NET *281 0.00245773
*CONN
*I *2781:D I *D sky130_fd_sc_hd__or4_1
*I *2780:X O *D sky130_fd_sc_hd__a31o_1
*CAP
1 *2781:D 0.000317742
2 *2780:X 0.000317742
3 *2781:D *2931:B 1.0748e-05
4 *2781:D *527:24 0.000121043
5 *2742:A3 *2781:D 0.000391018
6 *2751:A *2781:D 0.00083257
7 *2751:B *2781:D 0.000119873
8 *2778:C *2781:D 0.000141599
9 *2780:A2 *2781:D 6.66631e-05
10 *218:24 *2781:D 0.000138728
*RES
1 *2780:X *2781:D 18.39 
*END

*D_NET *282 0.00503932
*CONN
*I *2790:C1 I *D sky130_fd_sc_hd__a2111o_1
*I *2781:X O *D sky130_fd_sc_hd__or4_1
*CAP
1 *2790:C1 0.00112563
2 *2781:X 0.00112563
3 *2790:C1 *3081:A1 0.000316177
4 *2790:C1 *3081:S 2.01504e-05
5 *2790:C1 *3113:A0 0.000119762
6 *2790:C1 *3410:A 9.28013e-05
7 *2790:C1 *350:120 0.000299125
8 *2790:C1 *350:140 0.000504134
9 *2790:C1 *370:32 9.44681e-05
10 *2790:C1 *500:141 7.59111e-05
11 *2790:C1 *511:70 0.000121871
12 *2790:C1 *825:14 0.0001249
13 *2790:C1 *838:6 4.09035e-06
14 *2790:A2 *2790:C1 8.49205e-05
15 *2790:B1 *2790:C1 7.10593e-06
16 *3222:D *2790:C1 4.1548e-05
17 *177:75 *2790:C1 0.00012306
18 *177:102 *2790:C1 0.000560767
19 *187:24 *2790:C1 0.000197264
*RES
1 *2781:X *2790:C1 30.42 
*END

*D_NET *283 0.00186789
*CONN
*I *2784:B1 I *D sky130_fd_sc_hd__a211o_1
*I *2782:X O *D sky130_fd_sc_hd__a22o_1
*CAP
1 *2784:B1 0.000410795
2 *2782:X 0.000410795
3 *2784:B1 *3066:A1 0.000139245
4 *2784:B1 *3068:A0 0
5 *2784:B1 *3204:CLK 5.87295e-05
6 *2784:B1 *430:46 0
7 *2784:B1 *430:65 0
8 *2784:B1 *430:82 7.23602e-05
9 *2784:B1 *483:10 0
10 *2784:B1 *845:10 0.000114492
11 *2733:A2 *2784:B1 9.29751e-06
12 *2784:A2 *2784:B1 9.72742e-06
13 *3204:D *2784:B1 0.000423927
14 *197:40 *2784:B1 0.00020364
15 *197:48 *2784:B1 1.48813e-05
*RES
1 *2782:X *2784:B1 17.325 
*END

*D_NET *284 0.00045659
*CONN
*I *2784:C1 I *D sky130_fd_sc_hd__a211o_1
*I *2783:X O *D sky130_fd_sc_hd__a22o_1
*CAP
1 *2784:C1 0.000102681
2 *2783:X 0.000102681
3 *2784:C1 *442:74 0.000116165
4 *2784:C1 *602:94 3.42142e-05
5 *2783:A2 *2784:C1 4.92062e-05
6 *197:48 *2784:C1 5.16418e-05
*RES
1 *2783:X *2784:C1 9.375 
*END

*D_NET *285 0.00900672
*CONN
*I *2789:A2 I *D sky130_fd_sc_hd__a211o_1
*I *2784:X O *D sky130_fd_sc_hd__a211o_1
*CAP
1 *2789:A2 0.000698025
2 *2784:X 0.00212724
3 *285:18 0.00282526
4 *2789:A2 *2789:B1 1.52352e-05
5 *2789:A2 *3000:A0 2.0514e-05
6 *2789:A2 *3083:A1 0.000419398
7 *285:18 *2612:A 5.83121e-06
8 *285:18 *2704:A1 0.000138141
9 *285:18 *2766:B2 0.000154857
10 *285:18 *2783:A1 5.93674e-05
11 *285:18 *3001:A 0.00010413
12 *285:18 *3053:A1 2.96012e-05
13 *285:18 *3077:A 0.00011301
14 *285:18 *3111:A 0.00031209
15 *285:18 *3416:A 0.000139342
16 *285:18 *442:27 0
17 *285:18 *442:42 0
18 *285:18 *445:20 0.000381368
19 *285:18 *445:33 2.24833e-05
20 *285:18 *602:8 5.93674e-05
21 *285:18 *602:94 0
22 *285:18 *726:38 0.000242086
23 *285:18 *726:74 4.13569e-05
24 *2789:A1 *2789:A2 0.000295362
25 *3208:D *285:18 0.000113797
26 *197:54 *285:18 0
27 *202:110 *285:18 0.000178604
28 *202:120 *285:18 0.000510253
*RES
1 *2784:X *285:18 49.745 
2 *285:18 *2789:A2 10.945 
*END

*D_NET *286 0.00102397
*CONN
*I *2786:B1 I *D sky130_fd_sc_hd__a31o_1
*I *2785:X O *D sky130_fd_sc_hd__and3_1
*CAP
1 *2786:B1 0.000223503
2 *2785:X 0.000223503
3 *2786:B1 *321:61 0.000104132
4 *2786:B1 *374:152 1.91597e-05
5 *2786:B1 *600:87 0.000109386
6 *2734:B *2786:B1 0.000119734
7 *2786:A2 *2786:B1 8.49205e-05
8 *3210:D *2786:B1 3.60648e-06
9 *183:59 *2786:B1 6.28765e-05
10 *207:26 *2786:B1 7.3151e-05
*RES
1 *2785:X *2786:B1 11.895 
*END

*D_NET *287 0.000474609
*CONN
*I *2789:B1 I *D sky130_fd_sc_hd__a211o_1
*I *2786:X O *D sky130_fd_sc_hd__a31o_1
*CAP
1 *2789:B1 9.41845e-05
2 *2786:X 9.41845e-05
3 *2789:B1 *3374:A 0.000161985
4 *2786:A3 *2789:B1 4.77757e-05
5 *2789:A1 *2789:B1 6.12441e-05
6 *2789:A2 *2789:B1 1.52352e-05
*RES
1 *2786:X *2789:B1 5.735 
*END

*D_NET *288 0.00264598
*CONN
*I *2788:B1 I *D sky130_fd_sc_hd__a32o_1
*I *2787:X O *D sky130_fd_sc_hd__a22o_1
*CAP
1 *2788:B1 0.000726677
2 *2787:X 0.000726677
3 *2788:B1 *2737:A1 4.04634e-05
4 *2788:B1 *2788:A1 1.12459e-05
5 *2788:B1 *291:40 0
6 *2788:B1 *328:102 0
7 *2788:B1 *391:64 0.000865001
8 *2788:B1 *914:12 0.000192515
9 *2752:B *2788:B1 1.05328e-05
10 *174:122 *2788:B1 7.28657e-05
11 *197:143 *2788:B1 0
*RES
1 *2787:X *2788:B1 20.8125 
*END

*D_NET *289 0.00179916
*CONN
*I *2789:C1 I *D sky130_fd_sc_hd__a211o_1
*I *2788:X O *D sky130_fd_sc_hd__a32o_1
*CAP
1 *2789:C1 0.000433385
2 *2788:X 0.000433385
3 *2789:C1 *2785:A 0
4 *2789:C1 *2900:A 1.73877e-05
5 *2789:C1 *3374:A 0
6 *2789:C1 *291:40 0.000820532
7 *2735:B1 *2789:C1 0
8 *2786:A3 *2789:C1 0
9 *3145:D *2789:C1 9.44681e-05
*RES
1 *2788:X *2789:C1 16.995 
*END

*D_NET *290 0.000347893
*CONN
*I *2790:D1 I *D sky130_fd_sc_hd__a2111o_1
*I *2789:X O *D sky130_fd_sc_hd__a211o_1
*CAP
1 *2790:D1 0.000135152
2 *2789:X 0.000135152
3 *2790:D1 *291:40 0
4 *2790:D1 *391:64 0
5 *2786:A3 *2790:D1 2.68526e-05
6 *177:75 *2790:D1 5.07376e-05
*RES
1 *2789:X *2790:D1 9.03 
*END

*D_NET *291 0.0098243
*CONN
*I *2809:A1 I *D sky130_fd_sc_hd__o31a_1
*I *2790:X O *D sky130_fd_sc_hd__a2111o_1
*CAP
1 *2809:A1 0.00109002
2 *2790:X 0.00139733
3 *291:40 0.00248736
4 *2809:A1 *2809:A2 0.000396042
5 *2809:A1 *2878:A0 0.000195586
6 *2809:A1 *2878:A1 0.000158072
7 *2809:A1 *2879:A 0.000163199
8 *2809:A1 *2889:A 4.87263e-05
9 *2809:A1 *2889:B 4.66108e-05
10 *2809:A1 *3375:A 0.000192125
11 *291:40 *2567:A 0.000448435
12 *291:40 *3081:A1 9.5372e-05
13 *291:40 *3139:CLK 0.000174617
14 *291:40 *3146:CLK 0
15 *291:40 *3339:A 4.05358e-05
16 *291:40 *316:51 0.000171702
17 *291:40 *328:84 0
18 *291:40 *350:140 0
19 *291:40 *500:141 0.000161984
20 *2752:B *291:40 5.76988e-05
21 *2787:B1 *291:40 3.1835e-05
22 *2788:B1 *291:40 0
23 *2789:C1 *291:40 0.000820532
24 *2790:D1 *291:40 0
25 *3139:D *291:40 9.03376e-05
26 *3146:D *291:40 7.82872e-05
27 *3271:D *2809:A1 8.65961e-05
28 *174:122 *291:40 2.14363e-05
29 *177:75 *291:40 0
30 *183:59 *291:40 5.44032e-05
31 *197:143 *291:40 0.00130086
32 *212:63 *291:40 1.45975e-05
*RES
1 *2790:X *291:40 42.915 
2 *291:40 *2809:A1 20.455 
*END

*D_NET *292 0.00129979
*CONN
*I *2792:B1 I *D sky130_fd_sc_hd__a21o_1
*I *2791:X O *D sky130_fd_sc_hd__a22o_1
*CAP
1 *2792:B1 0.000276888
2 *2791:X 0.000276888
3 *2792:B1 *2567:A 3.09179e-05
4 *2792:B1 *2792:A1 0.000240378
5 *2792:B1 *2797:C1 7.4027e-05
6 *2792:B1 *2798:A1 0.000120655
7 *2792:B1 *2798:A2 0.000122331
8 *2792:B1 *2798:A3 4.99619e-05
9 *2792:B1 *3286:A 0
10 *2792:B1 *848:14 8.51862e-05
11 *2798:B1 *2792:B1 2.25596e-05
*RES
1 *2791:X *2792:B1 14.1 
*END

*D_NET *293 0.000246949
*CONN
*I *2798:A1 I *D sky130_fd_sc_hd__o31a_1
*I *2792:X O *D sky130_fd_sc_hd__a21o_1
*CAP
1 *2798:A1 5.06514e-05
2 *2792:X 5.06514e-05
3 *2798:A1 *2567:A 2.49909e-05
4 *2792:B1 *2798:A1 0.000120655
*RES
1 *2792:X *2798:A1 4.34 
*END

*D_NET *294 0.00165253
*CONN
*I *2794:B1 I *D sky130_fd_sc_hd__a21o_1
*I *2793:X O *D sky130_fd_sc_hd__a22o_1
*CAP
1 *2794:B1 0.000454463
2 *2793:X 0.000454463
3 *2794:B1 *2568:S 0
4 *2794:B1 *2795:B2 0.000127151
5 *2794:B1 *2798:A2 7.47215e-05
6 *2794:B1 *3345:A 9.97548e-05
7 *2718:A *2794:B1 0.000162311
8 *2719:A2 *2794:B1 0.000279667
*RES
1 *2793:X *2794:B1 15.12 
*END

*D_NET *295 0.0024373
*CONN
*I *2798:A2 I *D sky130_fd_sc_hd__o31a_1
*I *2794:X O *D sky130_fd_sc_hd__a21o_1
*CAP
1 *2798:A2 0.000402923
2 *2794:X 0.000402923
3 *2798:A2 *2603:A0 0.000259171
4 *2798:A2 *2606:A 4.05358e-05
5 *2798:A2 *2792:A1 0.000122331
6 *2798:A2 *2795:B2 0.000721548
7 *2798:A2 *3345:A 1.32017e-05
8 *2798:A2 *345:53 0.000157752
9 *2798:A2 *541:14 0
10 *2798:A2 *892:8 0.000119866
11 *2792:B1 *2798:A2 0.000122331
12 *2794:B1 *2798:A2 7.47215e-05
*RES
1 *2794:X *2798:A2 18 
*END

*D_NET *296 0.000587285
*CONN
*I *2797:B1 I *D sky130_fd_sc_hd__a211o_1
*I *2795:X O *D sky130_fd_sc_hd__a22o_1
*CAP
1 *2797:B1 0.000144929
2 *2795:X 0.000144929
3 *2797:B1 *2613:A0 0.000102433
4 *2797:B1 *2795:B2 3.70624e-05
5 *2797:B1 *2797:C1 9.50342e-06
6 *2791:A2 *2797:B1 4.81502e-06
7 *2797:A2 *2797:B1 0.000143612
*RES
1 *2795:X *2797:B1 10.875 
*END

*D_NET *297 0.00215438
*CONN
*I *2797:C1 I *D sky130_fd_sc_hd__a211o_1
*I *2796:X O *D sky130_fd_sc_hd__a22o_1
*CAP
1 *2797:C1 0.000528675
2 *2796:X 0.000528675
3 *2797:C1 *2603:A0 7.17925e-05
4 *2797:C1 *2613:A0 1.32017e-05
5 *2797:C1 *2615:A1 0.000306155
6 *2797:C1 *3286:A 0
7 *2797:C1 *590:66 0
8 *2797:C1 *598:12 7.83487e-05
9 *2797:C1 *848:14 0.000347017
10 *2791:A2 *2797:C1 4.43871e-06
11 *2792:B1 *2797:C1 7.4027e-05
12 *2797:B1 *2797:C1 9.50342e-06
13 *197:54 *2797:C1 9.71067e-05
14 *215:147 *2797:C1 9.54399e-05
*RES
1 *2796:X *2797:C1 22.075 
*END

*D_NET *298 0.000365564
*CONN
*I *2798:A3 I *D sky130_fd_sc_hd__o31a_1
*I *2797:X O *D sky130_fd_sc_hd__a211o_1
*CAP
1 *2798:A3 5.83767e-05
2 *2797:X 5.83767e-05
3 *2798:A3 *2567:A 1.37328e-05
4 *2719:A2 *2798:A3 7.4027e-05
5 *2792:B1 *2798:A3 4.99619e-05
6 *2798:B1 *2798:A3 0.000111088
*RES
1 *2797:X *2798:A3 9.135 
*END

*D_NET *299 0.0094158
*CONN
*I *2809:A2 I *D sky130_fd_sc_hd__o31a_1
*I *2798:X O *D sky130_fd_sc_hd__o31a_1
*CAP
1 *2809:A2 0.000678028
2 *2798:X 0.00185855
3 *299:34 0.00253657
4 *2809:A2 *2889:A 0.000123492
5 *2809:A2 *2889:B 2.75145e-05
6 *2809:A2 *3375:A 8.15136e-05
7 *2809:A2 *372:12 8.49205e-05
8 *299:34 *2562:A 0.0005129
9 *299:34 *2567:A 2.21654e-05
10 *299:34 *2599:A 0.000236197
11 *299:34 *2750:A1 0.000267258
12 *299:34 *2792:A1 0.000196376
13 *299:34 *3153:CLK 0.000119756
14 *299:34 *3317:A 9.50342e-06
15 *299:34 *316:57 0
16 *299:34 *328:102 0.000886003
17 *299:34 *359:35 0.000458588
18 *299:34 *385:16 9.04308e-05
19 *299:34 *599:8 0.000425972
20 *299:34 *606:58 3.18207e-05
21 *299:34 *902:8 0.000149613
22 *2717:B1 *299:34 0.000206406
23 *2809:A1 *2809:A2 0.000396042
24 *3271:D *2809:A2 1.61831e-05
*RES
1 *2798:X *299:34 47.98 
2 *299:34 *2809:A2 13.09 
*END

*D_NET *300 0.000911568
*CONN
*I *2800:C1 I *D sky130_fd_sc_hd__a221o_1
*I *2799:X O *D sky130_fd_sc_hd__a22o_1
*CAP
1 *2800:C1 0.000177416
2 *2799:X 0.000177416
3 *2800:C1 *2721:A1 6.98629e-05
4 *2800:C1 *2799:A2 3.77324e-05
5 *2800:C1 *2944:S 0.000114524
6 *2800:C1 *356:14 0.000125908
7 *2800:C1 *408:12 7.03219e-05
8 *2799:B1 *2800:C1 0.000138386
*RES
1 *2799:X *2800:C1 11.67 
*END

*D_NET *301 0.00151245
*CONN
*I *2807:A1 I *D sky130_fd_sc_hd__o21a_1
*I *2800:X O *D sky130_fd_sc_hd__a221o_1
*CAP
1 *2807:A1 0.000495826
2 *2800:X 0.000495826
3 *2807:A1 *2952:S 2.75145e-05
4 *2807:A1 *3162:CLK 2.90558e-05
5 *2807:A1 *350:40 1.97069e-05
6 *2807:A1 *605:16 4.61338e-05
7 *2807:A1 *605:18 1.22248e-05
8 *2807:A1 *759:93 0.000135506
9 *3162:D *2807:A1 4.82319e-06
10 *218:55 *2807:A1 0.000245838
*RES
1 *2800:X *2807:A1 15.315 
*END

*D_NET *302 0.00126049
*CONN
*I *2802:C1 I *D sky130_fd_sc_hd__a221o_1
*I *2801:X O *D sky130_fd_sc_hd__a22o_1
*CAP
1 *2802:C1 0.000380623
2 *2801:X 0.000380623
3 *2802:C1 *2726:A1 0.000245891
4 *2802:C1 *2726:A2 4.00541e-06
5 *2802:C1 *2726:B2 2.30292e-05
6 *2802:C1 *2794:A2 6.07575e-06
7 *2802:C1 *2802:B2 0
8 *2802:C1 *2935:A 1.16578e-05
9 *2802:C1 *3156:CLK 3.86529e-05
10 *2802:C1 *385:16 0.000102184
11 *2802:C1 *748:44 4.65607e-05
12 *2726:B1 *2802:C1 2.11921e-05
13 *3156:D *2802:C1 0
14 *208:26 *2802:C1 0
*RES
1 *2801:X *2802:C1 14.7 
*END

*D_NET *303 0.00173842
*CONN
*I *2806:A I *D sky130_fd_sc_hd__or3_1
*I *2802:X O *D sky130_fd_sc_hd__a221o_1
*CAP
1 *2806:A 0.000320063
2 *2802:X 0.000320063
3 *2806:A *2727:A1 7.04828e-05
4 *2806:A *2802:B2 4.66108e-05
5 *2806:A *2806:B 0.000123225
6 *2806:A *2892:A 4.92096e-05
7 *2806:A *325:56 2.59926e-05
8 *2806:A *351:34 9.61321e-05
9 *2806:A *358:6 4.21973e-05
10 *2806:A *358:8 6.26945e-05
11 *2806:A *358:20 0.000170895
12 *2806:A *359:10 0.000306259
13 *2752:A *2806:A 4.46808e-07
14 *187:53 *2806:A 0.000104146
*RES
1 *2802:X *2806:A 15.6 
*END

*D_NET *304 0.00188888
*CONN
*I *2804:C1 I *D sky130_fd_sc_hd__a221o_1
*I *2803:X O *D sky130_fd_sc_hd__a22o_1
*CAP
1 *2804:C1 0.000486478
2 *2803:X 0.000486478
3 *2804:C1 *2882:S 8.44437e-05
4 *2804:C1 *2909:A0 0.000286022
5 *2804:C1 *350:50 0.000121039
6 *2804:C1 *359:37 1.26626e-05
7 *2804:C1 *359:39 8.95269e-05
8 *2804:C1 *366:10 1.70935e-05
9 *2804:C1 *369:12 0.000113293
10 *2804:C1 *369:33 4.77807e-05
11 *2723:A2 *2804:C1 0.000144063
*RES
1 *2803:X *2804:C1 16.815 
*END

*D_NET *305 0.00327818
*CONN
*I *2806:B I *D sky130_fd_sc_hd__or3_1
*I *2804:X O *D sky130_fd_sc_hd__a221o_1
*CAP
1 *2806:B 0.000663837
2 *2804:X 0.000663837
3 *2806:B *2607:A 0.000347911
4 *2806:B *2726:B2 0
5 *2806:B *2727:A1 4.21973e-05
6 *2806:B *2727:A2 4.66108e-05
7 *2806:B *3433:A 6.65725e-05
8 *2806:B *374:16 3.26889e-05
9 *2806:B *608:46 0.000307054
10 *2728:A *2806:B 0.000644964
11 *2728:B *2806:B 0.000233879
12 *2728:C *2806:B 2.17931e-05
13 *2804:A2 *2806:B 8.3606e-05
14 *2806:A *2806:B 0.000123225
*RES
1 *2804:X *2806:B 22.32 
*END

*D_NET *306 0.00171351
*CONN
*I *2806:C I *D sky130_fd_sc_hd__or3_1
*I *2805:X O *D sky130_fd_sc_hd__a22o_1
*CAP
1 *2806:C 0.000340487
2 *2805:X 0.000340487
3 *2806:C *2727:B2 0.000523526
4 *2806:C *2805:B2 9.12671e-06
5 *2806:C *2892:A 5.33085e-05
6 *2806:C *374:16 0.000183414
7 *2805:A2 *2806:C 9.03066e-05
8 *2805:B1 *2806:C 0.000172851
*RES
1 *2805:X *2806:C 16.65 
*END

*D_NET *307 0.000892033
*CONN
*I *2807:A2 I *D sky130_fd_sc_hd__o21a_1
*I *2806:X O *D sky130_fd_sc_hd__or3_1
*CAP
1 *2807:A2 0.000276879
2 *2806:X 0.000276879
3 *2807:A2 *2727:A1 0.000105731
4 *2807:A2 *350:40 3.79229e-05
5 *2807:A2 *351:34 7.19229e-05
6 *2807:A2 *374:16 0.000122699
7 *3162:D *2807:A2 0
*RES
1 *2806:X *2807:A2 12.195 
*END

*D_NET *308 0.00156184
*CONN
*I *2809:A3 I *D sky130_fd_sc_hd__o31a_1
*I *2807:X O *D sky130_fd_sc_hd__o21a_1
*CAP
1 *2809:A3 0.000754762
2 *2807:X 0.000754762
3 *2809:A3 *2892:A 0
4 *2809:A3 *2931:A 0
5 *2809:A3 *2931:B 0
6 *2809:A3 *350:40 9.09788e-06
7 *2809:A3 *351:34 0
8 *2809:A3 *358:67 0
9 *2809:A3 *374:16 4.32126e-05
10 *2809:A3 *400:12 0
*RES
1 *2807:X *2809:A3 18.525 
*END

*D_NET *309 0.000234583
*CONN
*I *2809:B1 I *D sky130_fd_sc_hd__o31a_1
*I *2808:X O *D sky130_fd_sc_hd__o21a_1
*CAP
1 *2809:B1 5.53143e-05
2 *2808:X 5.53143e-05
3 *3271:D *2809:B1 0.000123955
*RES
1 *2808:X *2809:B1 4.34 
*END

*D_NET *310 0.00427072
*CONN
*I *2842:B I *D sky130_fd_sc_hd__and2_1
*I *2834:B I *D sky130_fd_sc_hd__nand2_1
*I *2815:A I *D sky130_fd_sc_hd__and2_1
*I *2632:B1 I *D sky130_fd_sc_hd__o21ai_1
*I *2814:A1 I *D sky130_fd_sc_hd__a32o_1
*I *2810:Y O *D sky130_fd_sc_hd__inv_2
*CAP
1 *2842:B 0.000103813
2 *2834:B 0.000106204
3 *2815:A 3.35987e-05
4 *2632:B1 0.000272837
5 *2814:A1 0
6 *2810:Y 0.000445076
7 *310:55 0.000324543
8 *310:44 0.000213158
9 *310:25 0.000485707
10 *310:16 0.000592911
11 *2632:B1 *2633:B1 4.82863e-05
12 *2632:B1 *2811:B 4.99619e-05
13 *2632:B1 *3134:D 0
14 *2632:B1 *3275:RESET_B 9.42224e-05
15 *2632:B1 *3308:A 5.16418e-05
16 *2632:B1 *596:49 0.000197826
17 *2632:B1 *596:51 0
18 *2815:A *2815:B 3.45708e-05
19 *2815:A *3127:CLK 4.66108e-05
20 *2815:A *3127:RESET_B 1.91597e-05
21 *2815:A *779:12 1.54111e-05
22 *2834:B *2842:A 5.39775e-05
23 *2834:B *330:8 0.000196056
24 *2842:B *2813:D 7.01359e-05
25 *2842:B *2837:A1 0
26 *2842:B *2842:A 1.18236e-05
27 *2842:B *774:35 6.48137e-05
28 *310:16 *2633:B1 4.82863e-05
29 *310:16 *2811:A 0
30 *310:16 *2811:B 1.46828e-05
31 *310:16 *2814:A3 0.000131285
32 *310:16 *2814:B1 4.21451e-05
33 *310:16 *2814:B2 2.68464e-05
34 *310:16 *2816:A 3.26889e-05
35 *310:16 *311:6 0.000111285
36 *310:25 *2814:A3 1.85044e-05
37 *310:25 *2816:A 0
38 *310:25 *596:49 3.6355e-05
39 *310:44 *3127:CLK 0.00011099
40 *310:44 *3308:A 0
41 *310:55 *3127:CLK 2.97802e-05
42 *310:55 *3308:A 0
43 *310:55 *313:12 5.53883e-05
44 *310:55 *774:35 4.1652e-06
45 *2633:A2 *310:16 7.01303e-05
46 *2813:C *2834:B 3.64998e-06
47 *8:18 *310:25 2.19562e-06
*RES
1 *2810:Y *310:16 12.635 
2 *310:16 *2814:A1 1.6 
3 *310:16 *310:25 1.845 
4 *310:25 *2632:B1 10.535 
5 *310:25 *310:44 3.38 
6 *310:44 *2815:A 4.395 
7 *310:44 *310:55 2.145 
8 *310:55 *2834:B 6.135 
9 *310:55 *2842:B 5.85 
*END

*D_NET *311 0.00141065
*CONN
*I *2814:A3 I *D sky130_fd_sc_hd__a32o_1
*I *2633:B2 I *D sky130_fd_sc_hd__a22o_1
*I *2811:X O *D sky130_fd_sc_hd__or2_1
*CAP
1 *2814:A3 0.000234024
2 *2633:B2 1.31277e-05
3 *2811:X 6.86822e-05
4 *311:6 0.000315834
5 *2633:B2 *2811:B 3.26889e-05
6 *2814:A3 *2633:B1 8.53113e-06
7 *2814:A3 *2811:A 0
8 *2814:A3 *2811:B 2.29156e-05
9 *2814:A3 *2814:B1 1.12459e-05
10 *2814:A3 *2814:B2 0.000121817
11 *311:6 *2811:B 3.00381e-05
12 *2633:A2 *2814:A3 4.38721e-06
13 *8:6 *2814:A3 8.40269e-05
14 *8:18 *2814:A3 0.00020226
15 *310:16 *2814:A3 0.000131285
16 *310:16 *311:6 0.000111285
17 *310:25 *2814:A3 1.85044e-05
*RES
1 *2811:X *311:6 3.43 
2 *311:6 *2633:B2 1.96 
3 *311:6 *2814:A3 11.27 
*END

*D_NET *312 0.00578789
*CONN
*I *2813:D I *D sky130_fd_sc_hd__and4_1
*I *2836:B I *D sky130_fd_sc_hd__nand2_1
*I *2855:A1 I *D sky130_fd_sc_hd__a21o_1
*I *2812:X O *D sky130_fd_sc_hd__and4_1
*CAP
1 *2813:D 0.000587494
2 *2836:B 5.07964e-05
3 *2855:A1 0.000181038
4 *2812:X 0.000522598
5 *312:29 0.00117928
6 *312:8 0.00124462
7 *2813:D *2835:A 2.76728e-05
8 *2813:D *2836:A 7.49727e-06
9 *2813:D *2837:A1 3.59266e-06
10 *2813:D *2842:A 0.000115614
11 *2813:D *332:6 8.35157e-05
12 *2813:D *774:35 0.000217617
13 *2813:D *775:22 1.51857e-05
14 *2836:B *332:6 4.66108e-05
15 *2836:B *775:22 7.73666e-05
16 *2855:A1 *2843:A 0.000111293
17 *2855:A1 *2856:B 4.28112e-06
18 *2855:A1 *2857:A 7.95963e-05
19 *2855:A1 *597:43 7.27704e-06
20 *2855:A1 *597:56 7.28465e-06
21 *2855:A1 *774:77 8.46818e-05
22 *2855:A1 *775:76 1.0397e-05
23 *312:8 *2839:A1 6.81237e-05
24 *312:8 *2845:A2 0.000163019
25 *312:8 *2857:A 8.53536e-05
26 *312:8 *3264:CLK 0.00024822
27 *312:8 *597:56 1.64056e-05
28 *312:8 *770:14 7.23602e-05
29 *312:29 *330:18 9.01378e-05
30 *312:29 *663:19 8.34874e-05
31 *312:29 *663:25 5.01076e-05
32 *312:29 *775:12 0.000110494
33 *2842:B *2813:D 7.01359e-05
34 *3133:D *2855:A1 3.89366e-05
35 *3133:D *312:8 2.57991e-05
*RES
1 *2812:X *312:8 15.945 
2 *312:8 *2855:A1 7.305 
3 *312:8 *312:29 13.845 
4 *312:29 *2836:B 3.01 
5 *312:29 *2813:D 14.375 
*END

*D_NET *313 0.00264429
*CONN
*I *2814:B1 I *D sky130_fd_sc_hd__a32o_1
*I *2632:A2 I *D sky130_fd_sc_hd__o21ai_1
*I *2813:X O *D sky130_fd_sc_hd__and4_1
*CAP
1 *2814:B1 0.000162937
2 *2632:A2 0.000272732
3 *2813:X 0.000283816
4 *313:12 0.000719485
5 *2632:A2 *2633:B1 0.000343348
6 *2632:A2 *2811:B 1.19928e-05
7 *2814:B1 *2633:B1 0.000110767
8 *2814:B1 *2814:A2 6.90457e-05
9 *313:12 *2814:A2 0.000132586
10 *313:12 *3127:CLK 0.000157031
11 *313:12 *330:8 4.77757e-05
12 *313:12 *596:51 0.000153263
13 *313:12 *780:14 3.62197e-05
14 *2633:A2 *2814:B1 3.45117e-05
15 *2814:A3 *2814:B1 1.12459e-05
16 *310:16 *2814:B1 4.21451e-05
17 *310:55 *313:12 5.53883e-05
*RES
1 *2813:X *313:12 11 
2 *313:12 *2632:A2 5.155 
3 *313:12 *2814:B1 8.5775 
*END

*D_NET *314 0.000665988
*CONN
*I *2816:A I *D sky130_fd_sc_hd__buf_1
*I *2815:X O *D sky130_fd_sc_hd__and2_1
*CAP
1 *2816:A 0.00021088
2 *2815:X 0.00021088
3 *2816:A *2814:B2 8.8266e-05
4 *2816:A *3127:RESET_B 0.000123273
5 *2816:A *780:38 0
6 *310:16 *2816:A 3.26889e-05
7 *310:25 *2816:A 0
*RES
1 *2815:X *2816:A 10.62 
*END

*D_NET *315 0.0021435
*CONN
*I *2642:A2 I *D sky130_fd_sc_hd__o21ai_1
*I *2861:A I *D sky130_fd_sc_hd__clkbuf_4
*I *2818:A I *D sky130_fd_sc_hd__buf_2
*I *3106:A I *D sky130_fd_sc_hd__clkbuf_4
*I *2817:X O *D sky130_fd_sc_hd__xor2_2
*CAP
1 *2642:A2 0.000235744
2 *2861:A 0.000101772
3 *2818:A 0
4 *3106:A 8.62771e-05
5 *2817:X 0
6 *315:28 0.000566804
7 *315:8 0.000157002
8 *315:4 0.000300012
9 *2642:A2 *2640:A 4.92935e-05
10 *2642:A2 *2641:B 0
11 *2642:A2 *2971:A0 0
12 *2642:A2 *592:12 0.000133408
13 *2861:A *2641:B 0
14 *2861:A *350:10 7.35729e-05
15 *3106:A *2630:A0 2.16917e-05
16 *3106:A *796:32 0.000226462
17 *315:8 *2630:A0 0.000152415
18 *315:8 *796:32 1.60203e-05
19 *315:28 *2630:A0 2.30292e-05
20 *315:28 *2641:A 0
21 *315:28 *2641:B 0
22 *315:28 *2643:B1 0
23 *315:28 *2971:A0 0
*RES
1 *2817:X *315:4 1.6 
2 *315:4 *315:8 1.845 
3 *315:8 *3106:A 3.775 
4 *315:8 *2818:A 1.6 
5 *315:4 *315:28 4.955 
6 *315:28 *2861:A 5.61 
7 *315:28 *2642:A2 7.59 
*END

*D_NET *316 0.0242009
*CONN
*I *2630:A0 I *D sky130_fd_sc_hd__mux2_1
*I *2618:A0 I *D sky130_fd_sc_hd__mux2_1
*I *2583:A0 I *D sky130_fd_sc_hd__mux2_1
*I *2613:A0 I *D sky130_fd_sc_hd__mux2_1
*I *2603:A0 I *D sky130_fd_sc_hd__mux2_1
*I *2598:A0 I *D sky130_fd_sc_hd__mux2_1
*I *2593:A0 I *D sky130_fd_sc_hd__mux2_1
*I *2829:A1 I *D sky130_fd_sc_hd__mux2_1
*I *2608:A0 I *D sky130_fd_sc_hd__mux2_1
*I *2623:A0 I *D sky130_fd_sc_hd__mux2_1
*I *2818:X O *D sky130_fd_sc_hd__buf_2
*CAP
1 *2630:A0 0.000314473
2 *2618:A0 5.97637e-05
3 *2583:A0 0
4 *2613:A0 0.000145517
5 *2603:A0 0.000531025
6 *2598:A0 0
7 *2593:A0 9.66416e-05
8 *2829:A1 0.000262219
9 *2608:A0 0.000550548
10 *2623:A0 0
11 *2818:X 0
12 *316:121 0.00133463
13 *316:98 0.000699047
14 *316:59 0.000991338
15 *316:57 0.000905617
16 *316:51 0.00229548
17 *316:39 0.00254388
18 *316:33 0.00165142
19 *316:14 0.00156371
20 *316:4 0.00120629
21 *2593:A0 *2547:A 3.64722e-05
22 *2603:A0 *2557:A 4.20645e-05
23 *2603:A0 *2603:A1 9.2741e-05
24 *2603:A0 *2795:B2 0.000132442
25 *2603:A0 *541:14 0
26 *2608:A0 *2595:S 0
27 *2608:A0 *2596:A 4.61744e-05
28 *2608:A0 *2608:A1 0.000199021
29 *2608:A0 *2609:A 0.000373719
30 *2608:A0 *2717:B2 0.000117265
31 *2608:A0 *3449:A 0.000170627
32 *2608:A0 *599:24 0
33 *2608:A0 *599:32 0
34 *2608:A0 *923:10 0
35 *2613:A0 *2613:S 8.41384e-05
36 *2613:A0 *2792:A2 2.72392e-05
37 *2613:A0 *2795:B2 0.000238297
38 *2618:A0 *2618:S 4.60123e-05
39 *2630:A0 *2817:B 0.000100536
40 *2630:A0 *796:32 0.000380917
41 *2829:A1 *2607:A 0.000373741
42 *2829:A1 *2830:A 5.05521e-05
43 *316:14 *2625:A0 8.40213e-05
44 *316:14 *2625:A1 8.57024e-05
45 *316:14 *2625:S 0.000410785
46 *316:14 *2827:A 8.53113e-06
47 *316:14 *3352:A 0.000137571
48 *316:14 *325:16 0.000174436
49 *316:14 *351:164 0.000257793
50 *316:14 *356:14 0
51 *316:14 *744:6 0.000108098
52 *316:14 *796:32 0.000379579
53 *316:33 *2621:A 0.000152055
54 *316:33 *2625:S 5.96587e-05
55 *316:33 *2808:B1 0
56 *316:33 *2931:B 0.000101949
57 *316:33 *2949:B 0
58 *316:39 *2583:A1 0.000198051
59 *316:39 *2617:B 3.03775e-05
60 *316:39 *2618:S 5.83121e-06
61 *316:39 *2908:C 0.000421948
62 *316:39 *322:76 8.2183e-05
63 *316:39 *322:89 3.79763e-05
64 *316:39 *358:67 6.57426e-05
65 *316:51 *2567:A 6.59025e-05
66 *316:51 *2598:A1 5.85534e-05
67 *316:51 *2875:A 0.000197297
68 *316:51 *3146:CLK 8.75238e-05
69 *316:51 *3440:A 9.02259e-05
70 *316:51 *322:89 8.02756e-05
71 *316:51 *369:77 0
72 *316:57 *2599:A 0
73 *316:57 *2600:S 0.000117984
74 *316:57 *2601:A 3.55813e-05
75 *316:57 *2736:B2 0
76 *316:57 *2794:A2 0.00013691
77 *316:57 *3294:A 0
78 *316:57 *3317:A 0
79 *316:59 *2595:S 0
80 *316:59 *2596:A 4.4277e-05
81 *316:59 *2794:A2 3.86529e-05
82 *316:98 *2600:S 3.05373e-05
83 *316:98 *559:10 2.68721e-05
84 *316:121 *2797:A1 2.04101e-05
85 *316:121 *559:10 4.94326e-05
86 *2717:B1 *2608:A0 0
87 *2717:B1 *316:57 0
88 *2717:B1 *316:98 0
89 *2717:B1 *316:121 0.000155129
90 *2780:B1 *316:33 0.000134475
91 *2797:A2 *316:121 1.4174e-05
92 *2797:B1 *2613:A0 0.000102433
93 *2797:C1 *2603:A0 7.17925e-05
94 *2797:C1 *2613:A0 1.32017e-05
95 *2798:A2 *2603:A0 0.000259171
96 *3106:A *2630:A0 2.16917e-05
97 *3124:D *2608:A0 3.32056e-05
98 *3146:D *316:51 3.90943e-05
99 *3248:D *316:59 0
100 *3254:D *2608:A0 3.0933e-05
101 *3270:D *316:14 4.5783e-05
102 *3271:D *316:33 0.000455601
103 *197:149 *2829:A1 0.000160314
104 *208:61 *2608:A0 2.92496e-05
105 *208:61 *2829:A1 4.66108e-05
106 *208:61 *316:59 0.000135422
107 *212:77 *2613:A0 0.000157393
108 *215:147 *316:51 0.000159156
109 *215:147 *316:121 0.00024267
110 *291:40 *316:51 0.000171702
111 *299:34 *316:57 0
112 *315:8 *2630:A0 0.000152415
113 *315:28 *2630:A0 2.30292e-05
*RES
1 *2818:X *316:4 1.6 
2 *316:4 *316:14 21.97 
3 *316:14 *2623:A0 1.6 
4 *316:14 *316:33 15.055 
5 *316:33 *316:39 13.68 
6 *316:39 *316:51 27.24 
7 *316:51 *316:57 10.86 
8 *316:57 *316:59 3.675 
9 *316:59 *2608:A0 16.47 
10 *316:59 *2829:A1 10.26 
11 *316:57 *2593:A0 4.74 
12 *316:51 *316:98 1.125 
13 *316:98 *2598:A0 3.6 
14 *316:98 *316:121 13.405 
15 *316:121 *2603:A0 12.315 
16 *316:121 *2613:A0 7.995 
17 *316:39 *2583:A0 1.6 
18 *316:33 *2618:A0 2.395 
19 *316:4 *2630:A0 16.62 
*END

*D_NET *317 0.0117134
*CONN
*I *2948:A I *D sky130_fd_sc_hd__or3_2
*I *2942:A I *D sky130_fd_sc_hd__or3_4
*I *2888:D_N I *D sky130_fd_sc_hd__or4b_4
*I *2936:A I *D sky130_fd_sc_hd__or3_2
*I *2895:D_N I *D sky130_fd_sc_hd__or4b_4
*I *2901:D_N I *D sky130_fd_sc_hd__or4b_2
*I *2918:B I *D sky130_fd_sc_hd__or3b_2
*I *2924:B I *D sky130_fd_sc_hd__or3b_4
*I *2853:B2 I *D sky130_fd_sc_hd__a2bb2o_1
*I *2823:A I *D sky130_fd_sc_hd__nand2_2
*I *2819:X O *D sky130_fd_sc_hd__buf_2
*CAP
1 *2948:A 0.000321567
2 *2942:A 2.51091e-05
3 *2888:D_N 0.000121693
4 *2936:A 0.00013191
5 *2895:D_N 0
6 *2901:D_N 0
7 *2918:B 0.000117623
8 *2924:B 4.59013e-05
9 *2853:B2 7.18095e-05
10 *2823:A 8.23713e-05
11 *2819:X 4.58988e-05
12 *317:81 0.000438039
13 *317:69 0.000717662
14 *317:59 0.000529156
15 *317:50 0.000314978
16 *317:40 0.000549066
17 *317:38 0.000458199
18 *317:12 0.00022441
19 *317:10 0.000380183
20 *317:8 0.000402626
21 *2823:A *2823:B 6.36297e-05
22 *2823:A *2865:B 4.86483e-05
23 *2853:B2 *2844:A1_N 2.03356e-05
24 *2853:B2 *2853:A2_N 6.03681e-05
25 *2853:B2 *2853:B1 2.85587e-05
26 *2853:B2 *2865:B 4.66108e-05
27 *2853:B2 *2874:A 3.11381e-05
28 *2853:B2 *361:12 2.49909e-05
29 *2888:D_N *2851:B 5.53549e-06
30 *2888:D_N *2907:A 1.10085e-05
31 *2888:D_N *2907:D_N 3.4026e-05
32 *2888:D_N *340:35 9.80032e-06
33 *2888:D_N *343:31 3.92551e-05
34 *2888:D_N *384:14 0.000120655
35 *2888:D_N *411:33 0.000120187
36 *2888:D_N *678:16 0.00013077
37 *2918:B *2918:A 8.09052e-05
38 *2918:B *3027:A 0
39 *2918:B *340:47 0
40 *2918:B *380:10 5.07362e-05
41 *2918:B *421:20 9.25026e-05
42 *2924:B *2962:A 2.75145e-05
43 *2924:B *336:58 0.000122331
44 *2936:A *2936:C 0.00015639
45 *2936:A *2962:A 0.000137571
46 *2936:A *3383:A 7.00889e-06
47 *2936:A *340:37 0.000145515
48 *2936:A *340:39 4.82863e-05
49 *2936:A *677:12 1.75721e-05
50 *2942:A *352:20 5.88596e-05
51 *2948:A *2880:B 3.89311e-05
52 *2948:A *2930:D_N 0
53 *2948:A *3060:A 0.000117275
54 *2948:A *3290:A 0
55 *2948:A *340:25 0.000177407
56 *2948:A *361:33 1.09082e-05
57 *2948:A *411:12 2.0851e-06
58 *2948:A *773:60 8.42651e-06
59 *317:8 *595:10 0.000146374
60 *317:10 *595:10 0.000102791
61 *317:12 *2823:B 3.39944e-05
62 *317:12 *2865:B 0.00013499
63 *317:12 *595:10 2.92496e-05
64 *317:38 *323:55 8.21446e-06
65 *317:38 *352:20 4.19311e-05
66 *317:38 *407:8 1.83756e-05
67 *317:38 *595:10 4.66108e-05
68 *317:40 *2851:A 3.6355e-05
69 *317:40 *2852:A 0.0005631
70 *317:40 *2880:A 8.40269e-05
71 *317:40 *2880:B 8.73389e-06
72 *317:40 *336:58 0.000120504
73 *317:40 *352:20 6.72738e-05
74 *317:50 *2851:A 0.00012182
75 *317:50 *2852:A 4.66108e-05
76 *317:50 *2961:A 2.49909e-05
77 *317:50 *2962:A 5.83121e-06
78 *317:50 *336:58 0.000118856
79 *317:69 *3003:A1 9.0751e-05
80 *317:69 *3048:B 1.79174e-05
81 *317:69 *352:42 0.000197294
82 *317:69 *677:12 7.1115e-05
83 *317:81 *2761:A 0.000173814
84 *317:81 *2901:A 8.52845e-05
85 *317:81 *2901:B 4.60061e-05
86 *317:81 *2901:C 0.000111901
87 *317:81 *352:42 8.46818e-05
88 *317:81 *380:10 3.03684e-05
89 *317:81 *873:8 8.88715e-05
90 *3181:D *2918:B 9.50342e-06
91 *3463:A *317:69 0.000450444
92 *176:51 *317:69 0.000266398
93 *182:38 *2918:B 3.88668e-05
94 *187:24 *317:81 0.00017517
95 *212:18 *2936:A 0.000178432
96 *212:18 *317:69 0.000147832
97 *215:72 *2823:A 0.000171481
98 *215:72 *317:8 0.000138091
99 *215:72 *317:10 9.42596e-05
100 *215:72 *317:12 0.000210311
*RES
1 *2819:X *317:8 5.3625 
2 *317:8 *317:10 1.2525 
3 *317:10 *317:12 2.655 
4 *317:12 *2823:A 5.745 
5 *317:12 *2853:B2 5.445 
6 *317:10 *317:38 5.225 
7 *317:38 *317:40 5.625 
8 *317:40 *317:50 4.74 
9 *317:50 *2924:B 2.74 
10 *317:50 *317:59 2 
11 *317:59 *317:69 11.615 
12 *317:69 *317:81 11.545 
13 *317:81 *2918:B 8.255 
14 *317:81 *2901:D_N 1.6 
15 *317:69 *2895:D_N 1.6 
16 *317:59 *2936:A 7.575 
17 *317:40 *2888:D_N 9.095 
18 *317:38 *2942:A 2.41 
19 *317:8 *2948:A 5.76643 
*END

*D_NET *318 0.00836234
*CONN
*I *2863:B_N I *D sky130_fd_sc_hd__or2b_1
*I *2954:A I *D sky130_fd_sc_hd__or4_2
*I *2907:A I *D sky130_fd_sc_hd__or4b_2
*I *2880:A I *D sky130_fd_sc_hd__or3_2
*I *2850:A I *D sky130_fd_sc_hd__nand2_1
*I *2930:A I *D sky130_fd_sc_hd__or4b_4
*I *2822:A I *D sky130_fd_sc_hd__and3_1
*I *2847:A1 I *D sky130_fd_sc_hd__a31o_1
*I *2841:A I *D sky130_fd_sc_hd__or2b_1
*I *2844:B1 I *D sky130_fd_sc_hd__a2bb2o_1
*I *2820:X O *D sky130_fd_sc_hd__clkbuf_2
*CAP
1 *2863:B_N 2.88173e-05
2 *2954:A 0
3 *2907:A 8.284e-05
4 *2880:A 0.000119652
5 *2850:A 0.00013721
6 *2930:A 1.94658e-05
7 *2822:A 0
8 *2847:A1 0
9 *2841:A 0.000369905
10 *2844:B1 0.000272814
11 *2820:X 0.000175531
12 *318:92 0.000329691
13 *318:70 0.000223702
14 *318:68 0.000273159
15 *318:66 0.000349753
16 *318:60 0.000629773
17 *318:51 0.000475808
18 *318:42 0.00014567
19 *318:16 0.000707011
20 *318:14 0.000239823
21 *2841:A *2841:B_N 0.000105508
22 *2841:A *336:14 5.4155e-06
23 *2841:A *340:8 2.75145e-05
24 *2841:A *772:31 6.0011e-05
25 *2841:A *772:33 2.76356e-05
26 *2841:A *772:39 7.79365e-05
27 *2844:B1 *2844:A1_N 5.83121e-06
28 *2844:B1 *2844:A2_N 8.67073e-05
29 *2844:B1 *2845:A1 5.17287e-05
30 *2844:B1 *2864:B 0
31 *2844:B1 *652:59 4.44927e-05
32 *2844:B1 *652:63 0.000201407
33 *2850:A *2850:B 8.0434e-05
34 *2850:A *384:14 2.65814e-06
35 *2850:A *399:6 3.83041e-05
36 *2850:A *399:16 0.000124007
37 *2880:A *2851:C_N 5.40144e-05
38 *2880:A *2907:C 2.36707e-05
39 *2880:A *2930:D_N 1.03572e-05
40 *2880:A *336:22 0.000127378
41 *2880:A *336:58 4.66108e-05
42 *2907:A *336:22 3.09774e-05
43 *2907:A *772:45 8.41307e-05
44 *2907:A *773:79 9.00196e-05
45 *2930:A *2850:B 0
46 *2930:A *2930:C 5.12969e-06
47 *318:14 *2863:A 0.000157522
48 *318:14 *3128:CLK 0.000183036
49 *318:14 *319:10 0.000104287
50 *318:14 *319:16 3.25831e-05
51 *318:14 *652:53 0.000216473
52 *318:14 *652:59 1.26626e-05
53 *318:14 *770:28 6.00468e-05
54 *318:16 *2847:B1 0.000113821
55 *318:16 *319:16 5.4003e-05
56 *318:16 *652:59 6.27014e-05
57 *318:51 *2847:A3 5.4155e-06
58 *318:51 *2849:A 8.77612e-05
59 *318:51 *2863:A 4.01778e-05
60 *318:51 *319:16 1.90662e-05
61 *318:51 *319:112 9.72742e-06
62 *318:51 *773:46 4.66108e-05
63 *318:60 *2822:C 5.66235e-05
64 *318:60 *319:39 4.99873e-05
65 *318:60 *773:46 0.00011557
66 *318:66 *2954:C 4.66108e-05
67 *318:66 *319:39 8.8196e-05
68 *318:66 *319:41 2.19562e-06
69 *318:66 *415:8 2.68464e-05
70 *318:66 *773:62 3.6355e-05
71 *318:68 *2930:C 3.57349e-05
72 *318:68 *415:8 5.06989e-05
73 *318:68 *773:62 0.000198618
74 *318:70 *2850:B 2.86975e-05
75 *318:70 *2930:C 8.52845e-05
76 *318:70 *319:47 9.97536e-06
77 *318:92 *2851:B 0
78 *318:92 *2930:D_N 1.07969e-05
79 *318:92 *678:16 0
80 *318:92 *773:79 0.00014808
81 *2888:D_N *2907:A 1.10085e-05
82 *3129:D *2844:B1 5.21627e-05
83 *3129:D *318:16 1.48502e-06
84 *3130:D *318:14 2.49909e-05
85 *317:40 *2880:A 8.40269e-05
*RES
1 *2820:X *318:14 9.045 
2 *318:14 *318:16 1.89 
3 *318:16 *2844:B1 8.955 
4 *318:16 *2841:A 9.84 
5 *318:14 *318:42 2 
6 *318:42 *2847:A1 1.6 
7 *318:42 *318:51 2.79 
8 *318:51 *2822:A 1.6 
9 *318:51 *318:60 4.26 
10 *318:60 *318:66 3.93 
11 *318:66 *318:68 2.175 
12 *318:68 *318:70 1.485 
13 *318:70 *2930:A 1.96 
14 *318:70 *2850:A 4.84 
15 *318:68 *318:92 4.4 
16 *318:92 *2880:A 6.285 
17 *318:92 *2907:A 5.805 
18 *318:66 *2954:A 1.6 
19 *318:60 *2863:B_N 2.215 
*END

*D_NET *319 0.00850855
*CONN
*I *2840:A1 I *D sky130_fd_sc_hd__o21a_1
*I *2839:A1 I *D sky130_fd_sc_hd__o21ai_1
*I *2847:A2 I *D sky130_fd_sc_hd__a31o_1
*I *2822:B I *D sky130_fd_sc_hd__and3_1
*I *2954:B I *D sky130_fd_sc_hd__or4_2
*I *2880:B I *D sky130_fd_sc_hd__or3_2
*I *2907:B I *D sky130_fd_sc_hd__or4b_2
*I *2930:B I *D sky130_fd_sc_hd__or4b_4
*I *2850:B I *D sky130_fd_sc_hd__nand2_1
*I *2841:B_N I *D sky130_fd_sc_hd__or2b_1
*I *2821:X O *D sky130_fd_sc_hd__buf_2
*CAP
1 *2840:A1 0
2 *2839:A1 0.000317075
3 *2847:A2 0
4 *2822:B 0
5 *2954:B 0
6 *2880:B 0.000310766
7 *2907:B 0.000195895
8 *2930:B 0
9 *2850:B 0.000153672
10 *2841:B_N 0.000134621
11 *2821:X 0.000192245
12 *319:112 0.000416692
13 *319:101 0.000105214
14 *319:47 0.000351648
15 *319:43 0.000501997
16 *319:41 0.000484301
17 *319:39 0.000291493
18 *319:18 0.000360705
19 *319:16 0.000277906
20 *319:10 0.000475748
21 *2839:A1 *2845:A2 9.50342e-06
22 *2839:A1 *2848:A 2.53785e-05
23 *2839:A1 *2848:B 8.06582e-05
24 *2839:A1 *3264:CLK 0.000136877
25 *2839:A1 *334:56 8.53113e-06
26 *2841:B_N *2822:C 7.90106e-05
27 *2841:B_N *772:39 0.000203341
28 *2880:B *2852:A 0.000106377
29 *2880:B *2930:D_N 0
30 *2880:B *2942:B 4.77719e-05
31 *2880:B *336:22 0
32 *2880:B *352:20 1.9767e-05
33 *2880:B *352:26 3.59499e-05
34 *2880:B *415:31 0.000162402
35 *2907:B *2930:D_N 7.06865e-05
36 *2907:B *340:35 0.000231167
37 *319:10 *652:59 0.000114492
38 *319:16 *2849:A 2.19562e-06
39 *319:16 *2863:A 0.000232111
40 *319:16 *652:59 7.5416e-05
41 *319:39 *2822:C 2.59981e-05
42 *319:39 *2863:A 0.000381094
43 *319:39 *352:20 5.05437e-05
44 *319:39 *773:46 0.000193801
45 *319:41 *2954:C 1.91597e-05
46 *319:41 *773:62 5.83121e-06
47 *319:43 *773:62 9.10058e-05
48 *319:47 *2930:C 7.61556e-05
49 *319:47 *773:62 3.83194e-05
50 *319:101 *2849:A 7.91379e-06
51 *319:112 *2847:A3 4.60229e-05
52 *319:112 *2848:B 0.000234674
53 *319:112 *2849:A 0.000216319
54 *2841:A *2841:B_N 0.000105508
55 *2850:A *2850:B 8.0434e-05
56 *2930:A *2850:B 0
57 *2948:A *2880:B 3.89311e-05
58 *3131:D *2841:B_N 8.53113e-06
59 *211:18 *2841:B_N 0.000158989
60 *211:18 *319:39 4.21314e-05
61 *312:8 *2839:A1 6.81237e-05
62 *317:40 *2880:B 8.73389e-06
63 *318:14 *319:10 0.000104287
64 *318:14 *319:16 3.25831e-05
65 *318:16 *319:16 5.4003e-05
66 *318:51 *319:16 1.90662e-05
67 *318:51 *319:112 9.72742e-06
68 *318:60 *319:39 4.99873e-05
69 *318:66 *319:39 8.8196e-05
70 *318:66 *319:41 2.19562e-06
71 *318:70 *2850:B 2.86975e-05
72 *318:70 *319:47 9.97536e-06
*RES
1 *2821:X *319:10 6.465 
2 *319:10 *319:16 6.08 
3 *319:16 *319:18 2 
4 *319:18 *2841:B_N 7.68 
5 *319:18 *319:39 8.51 
6 *319:39 *319:41 0.795 
7 *319:41 *319:43 1.485 
8 *319:43 *319:47 2.535 
9 *319:47 *2850:B 4.39 
10 *319:47 *2930:B 1.6 
11 *319:43 *2907:B 8.645 
12 *319:41 *2880:B 10.925 
13 *319:39 *2954:B 1.6 
14 *319:16 *2822:B 1.6 
15 *319:10 *319:101 2.1425 
16 *319:101 *2847:A2 1.6 
17 *319:101 *319:112 3.6375 
18 *319:112 *2839:A1 14.37 
19 *319:112 *2840:A1 1.6 
*END

*D_NET *320 0.00336176
*CONN
*I *2845:A1 I *D sky130_fd_sc_hd__o21ai_1
*I *2823:B I *D sky130_fd_sc_hd__nand2_2
*I *2822:X O *D sky130_fd_sc_hd__and3_1
*CAP
1 *2845:A1 0.000492086
2 *2823:B 0.000143592
3 *2822:X 0.000181838
4 *320:10 0.000817516
5 *2823:B *2865:B 0.000172839
6 *2823:B *3131:CLK 2.02082e-05
7 *2823:B *594:10 1.10359e-05
8 *2823:B *595:10 8.53113e-06
9 *2823:B *607:33 0.000275235
10 *2845:A1 *2844:A1_N 8.37585e-05
11 *2845:A1 *2844:A2_N 8.23457e-05
12 *2845:A1 *2864:A 4.82919e-05
13 *2845:A1 *2864:B 4.66108e-05
14 *2845:A1 *2865:B 1.74678e-05
15 *2845:A1 *3290:A 0.000119762
16 *320:10 *2863:A 0.000122331
17 *320:10 *595:10 0.000256419
18 *320:10 *607:33 0.000262575
19 *2823:A *2823:B 6.36297e-05
20 *2844:B1 *2845:A1 5.17287e-05
21 *3129:D *2845:A1 4.99619e-05
22 *317:12 *2823:B 3.39944e-05
*RES
1 *2822:X *320:10 7.905 
2 *320:10 *2823:B 8.04 
3 *320:10 *2845:A1 11.445 
*END

*D_NET *321 0.0290906
*CONN
*I *2963:A I *D sky130_fd_sc_hd__nor2_1
*I *2828:A I *D sky130_fd_sc_hd__nor2_1
*I *2547:A I *D sky130_fd_sc_hd__or2_1
*I *3050:A I *D sky130_fd_sc_hd__nor2_1
*I *2823:Y O *D sky130_fd_sc_hd__nand2_2
*CAP
1 *2963:A 0.000123565
2 *2828:A 2.51377e-05
3 *2547:A 0.00167542
4 *3050:A 0.00195271
5 *2823:Y 0.00237715
6 *321:65 0.00190734
7 *321:61 0.00208358
8 *321:20 0.00403322
9 *321:16 0.00270442
10 *2547:A *2563:A0 0
11 *2547:A *2570:A0 2.59835e-05
12 *2547:A *2570:A1 4.82919e-05
13 *2547:A *2571:A 0.000311974
14 *2547:A *2592:A 4.43625e-05
15 *2547:A *2592:B 2.58336e-05
16 *2547:A *2594:A 0.000145184
17 *2547:A *2595:S 4.66108e-05
18 *2547:A *2919:B 0.000217949
19 *2547:A *541:14 0.000238137
20 *2547:A *556:6 0.000423126
21 *2828:A *2828:B 1.71542e-05
22 *2828:A *2919:B 1.39421e-05
23 *2963:A *369:128 5.57963e-05
24 *2963:A *421:28 6.84808e-05
25 *3050:A *2764:A1 2.83582e-05
26 *3050:A *3008:A0 4.8135e-05
27 *3050:A *3008:S 9.64815e-05
28 *3050:A *3011:A 0.000124895
29 *3050:A *3050:B 0.000779239
30 *3050:A *3079:A 7.00889e-06
31 *3050:A *365:26 0.000123058
32 *3050:A *376:18 0.000595438
33 *3050:A *430:46 5.83373e-05
34 *3050:A *445:88 0
35 *3050:A *474:55 0.000163056
36 *3050:A *590:159 0.000150959
37 *3050:A *868:6 4.11678e-06
38 *321:16 *3085:B 0.000341975
39 *321:16 *3290:A 0.000135878
40 *321:16 *345:29 0.00013826
41 *321:16 *369:128 6.76303e-05
42 *321:16 *407:16 1.88602e-05
43 *321:16 *590:145 9.51586e-05
44 *321:16 *677:30 0.000612907
45 *321:16 *748:28 3.94454e-05
46 *321:20 *376:6 8.83758e-05
47 *321:20 *376:18 6.04372e-05
48 *321:61 *2697:A1 0.000361759
49 *321:61 *2881:A 0.000103107
50 *321:61 *2896:A 0.000451404
51 *321:61 *2905:A0 0.000133237
52 *321:61 *2922:S 5.21046e-05
53 *321:61 *2925:B 0.000363701
54 *321:61 *3090:A 0.000111073
55 *321:61 *322:91 8.07863e-05
56 *321:61 *322:115 0.000107431
57 *321:61 *369:77 0
58 *321:61 *369:128 1.20478e-05
59 *321:61 *374:63 2.84137e-05
60 *321:61 *374:84 0.000441632
61 *321:61 *374:107 0.000760663
62 *321:61 *374:152 0.00148368
63 *321:61 *376:46 0.000139386
64 *321:61 *396:12 9.54469e-05
65 *321:61 *419:67 0.000122379
66 *321:65 *2828:B 0.000267846
67 *321:65 *2919:B 2.56558e-05
68 *321:65 *325:104 1.61831e-05
69 *2593:A0 *2547:A 3.64722e-05
70 *2714:A2 *2547:A 4.43871e-06
71 *2715:B1 *2547:A 3.54025e-05
72 *2725:A2 *321:61 0
73 *2734:B *321:61 4.00394e-05
74 *2786:B1 *321:61 0.000104132
75 *3139:D *321:61 9.21178e-05
76 *3183:D *3050:A 0.000168581
77 *3210:D *321:61 2.89319e-05
78 *3212:D *321:61 7.29993e-05
79 *3285:A *321:61 0
80 *3463:A *321:16 0.000256568
81 *182:50 *321:16 4.18386e-05
82 *183:59 *321:61 4.24292e-06
83 *183:65 *321:61 0
84 *197:20 *2963:A 0.000153937
85 *197:20 *321:16 9.83951e-05
86 *202:62 *321:16 0
87 *202:120 *2547:A 5.55384e-05
88 *207:26 *321:61 0.00037678
89 *215:72 *321:16 1.88602e-05
*RES
1 *2823:Y *321:16 11.5349 
2 *321:16 *321:20 4.52 
3 *321:20 *3050:A 35.84 
4 *321:20 *321:61 48.8961 
5 *321:61 *321:65 5.555 
6 *321:65 *2547:A 33.575 
7 *321:65 *2828:A 2.215 
8 *321:16 *2963:A 7.02 
*END

*D_NET *322 0.0156013
*CONN
*I *2867:A I *D sky130_fd_sc_hd__or2_1
*I *2896:A I *D sky130_fd_sc_hd__nor2_1
*I *2902:A I *D sky130_fd_sc_hd__nor2_1
*I *2875:A I *D sky130_fd_sc_hd__or2_1
*I *2881:A I *D sky130_fd_sc_hd__or2_1
*I *2908:A I *D sky130_fd_sc_hd__or3_1
*I *2889:A I *D sky130_fd_sc_hd__nor2_1
*I *2826:A I *D sky130_fd_sc_hd__or2_1
*I *2824:Y O *D sky130_fd_sc_hd__nand3_4
*CAP
1 *2867:A 0
2 *2896:A 0.000251179
3 *2902:A 1.83509e-05
4 *2875:A 0.000178383
5 *2881:A 0.000331851
6 *2908:A 0
7 *2889:A 0.000138725
8 *2826:A 0.000254464
9 *2824:Y 0.00042408
10 *322:115 0.000446452
11 *322:91 0.000586374
12 *322:89 0.000714369
13 *322:76 0.00087572
14 *322:55 0.00149738
15 *322:31 0.00110611
16 *322:8 0.00084041
17 *2826:A *2826:B 0.000140562
18 *2826:A *323:55 3.76596e-05
19 *2826:A *350:106 0
20 *2826:A *356:14 2.66935e-05
21 *2875:A *2567:A 0.000684266
22 *2875:A *362:10 2.97522e-05
23 *2881:A *2879:A 0.000193801
24 *2881:A *528:47 0.000109947
25 *2889:A *2750:A1 0.000198658
26 *2889:A *2889:B 0
27 *2889:A *3375:A 4.66108e-05
28 *2896:A *2897:S 0
29 *2896:A *369:94 0.000174622
30 *2902:A *2902:B 8.41384e-05
31 *2902:A *328:84 8.41384e-05
32 *322:8 *2780:A1 3.54721e-05
33 *322:8 *323:55 0.000556935
34 *322:8 *350:106 0.000184531
35 *322:31 *2867:B 1.16578e-05
36 *322:31 *356:14 1.56428e-05
37 *322:55 *2620:A1 8.88799e-05
38 *322:55 *2621:A 4.72463e-05
39 *322:55 *2625:A0 3.41827e-05
40 *322:55 *2673:A 6.99456e-05
41 *322:55 *2867:B 2.54522e-05
42 *322:55 *2889:B 0.000160739
43 *322:55 *3258:CLK 1.12141e-05
44 *322:55 *328:18 2.88589e-05
45 *322:55 *328:22 0.000105439
46 *322:55 *528:47 0.000277753
47 *322:55 *759:70 6.46085e-05
48 *322:55 *759:93 0.000243347
49 *322:76 *2750:A1 0.000169332
50 *322:76 *2908:C 0.000420272
51 *322:76 *358:67 2.68526e-05
52 *322:76 *608:46 0.000123046
53 *322:89 *2583:A1 0.000119623
54 *322:89 *2905:A0 2.49909e-05
55 *322:89 *2905:A1 0.000131665
56 *322:89 *2908:B 0.000265765
57 *322:91 *2905:A0 3.02745e-05
58 *322:91 *2905:S 5.31158e-06
59 *322:115 *2905:A0 0.000110785
60 *322:115 *2905:S 4.85865e-05
61 *322:115 *369:94 5.58985e-05
62 *322:115 *381:8 3.02125e-05
63 *2673:B *322:55 8.23329e-05
64 *2734:B *2896:A 3.28691e-05
65 *2744:B *322:8 0.000113797
66 *2750:C1 *322:76 6.99129e-05
67 *2751:D *322:76 0.000116165
68 *2753:B2 *322:55 0.000454532
69 *2809:A1 *2889:A 4.87263e-05
70 *2809:A2 *2889:A 0.000123492
71 *183:59 *2881:A 7.09909e-05
72 *183:59 *2896:A 0
73 *183:59 *322:91 6.20979e-05
74 *215:102 *322:76 9.31831e-06
75 *215:147 *322:89 0.00014053
76 *231:59 *2889:A 0.000136884
77 *316:39 *322:76 8.2183e-05
78 *316:39 *322:89 3.79763e-05
79 *316:51 *2875:A 0.000197297
80 *316:51 *322:89 8.02756e-05
81 *321:61 *2881:A 0.000103107
82 *321:61 *2896:A 0.000451404
83 *321:61 *322:91 8.07863e-05
84 *321:61 *322:115 0.000107431
*RES
1 *2824:Y *322:8 15.435 
2 *322:8 *2826:A 8.31 
3 *322:8 *322:31 4.535 
4 *322:31 *322:55 22.605 
5 *322:55 *2889:A 7.5 
6 *322:55 *322:76 11.57 
7 *322:76 *2908:A 1.6 
8 *322:76 *322:89 11.795 
9 *322:89 *322:91 2.145 
10 *322:91 *2881:A 9.915 
11 *322:91 *2875:A 9.915 
12 *322:89 *322:115 3.93 
13 *322:115 *2902:A 4.395 
14 *322:115 *2896:A 10.08 
15 *322:31 *2867:A 1.6 
*END

*D_NET *323 0.0124677
*CONN
*I *2865:A I *D sky130_fd_sc_hd__or2_1
*I *2887:A I *D sky130_fd_sc_hd__buf_2
*I *2826:B I *D sky130_fd_sc_hd__or2_1
*I *2825:X O *D sky130_fd_sc_hd__or4b_2
*CAP
1 *2865:A 0
2 *2887:A 0.00012852
3 *2826:B 0.00017892
4 *2825:X 0.00104738
5 *323:57 0.00012852
6 *323:55 0.00180632
7 *323:22 0.00303262
8 *2826:B *3352:A 5.53249e-06
9 *2826:B *351:164 8.58145e-05
10 *2826:B *356:14 0
11 *2887:A *2853:A2_N 4.77807e-05
12 *2887:A *2866:A 4.77757e-05
13 *2887:A *2866:B 4.77807e-05
14 *2887:A *2874:B 7.20926e-05
15 *2887:A *336:28 0.000247897
16 *2887:A *352:42 0.0001949
17 *2887:A *355:18 9.83376e-05
18 *323:22 *2825:D_N 0.000113255
19 *323:22 *3269:D 0.000654089
20 *323:22 *3365:A 3.40435e-05
21 *323:55 *2745:A1 0.000114518
22 *323:55 *2771:A 1.23244e-05
23 *323:55 *2844:A1_N 7.06865e-05
24 *323:55 *2844:A2_N 0
25 *323:55 *2853:A2_N 3.55539e-05
26 *323:55 *2865:B 0.00026102
27 *323:55 *2974:A0 0.000128172
28 *323:55 *3056:A1 0
29 *323:55 *3058:A1 7.23602e-05
30 *323:55 *3059:A 7.63204e-05
31 *323:55 *3380:A 5.59418e-05
32 *323:55 *345:8 5.73375e-05
33 *323:55 *351:164 0.000282313
34 *323:55 *352:20 5.83121e-06
35 *323:55 *407:8 2.75145e-05
36 *323:55 *407:16 7.89471e-05
37 *323:55 *419:16 0
38 *323:55 *419:43 0.000145576
39 *323:55 *511:22 0.000464669
40 *323:55 *595:10 1.74678e-05
41 *323:55 *774:83 0.00139938
42 *323:55 *774:103 0.000154857
43 *2744:B *323:55 0
44 *2826:A *2826:B 0.000140562
45 *2826:A *323:55 3.76596e-05
46 *3131:D *323:55 7.23533e-05
47 *176:51 *2887:A 3.64998e-06
48 *211:18 *323:55 0.000215998
49 *317:38 *323:55 8.21446e-06
50 *322:8 *323:55 0.000556935
*RES
1 *2825:X *323:22 22.365 
2 *323:22 *2826:B 6.975 
3 *323:22 *323:55 48.715 
4 *323:55 *323:57 2 
5 *323:57 *2887:A 5.965 
6 *323:57 *2865:A 1.6 
*END

*D_NET *324 0.000309505
*CONN
*I *2827:A I *D sky130_fd_sc_hd__buf_2
*I *2826:X O *D sky130_fd_sc_hd__or2_1
*CAP
1 *2827:A 6.56763e-05
2 *2826:X 6.56763e-05
3 *2827:A *3352:A 5.84456e-05
4 *2827:A *351:164 6.28843e-05
5 *2827:A *744:6 4.82919e-05
6 *316:14 *2827:A 8.53113e-06
*RES
1 *2826:X *2827:A 9.03 
*END

*D_NET *325 0.0127378
*CONN
*I *2943:A I *D sky130_fd_sc_hd__or2_1
*I *2949:A I *D sky130_fd_sc_hd__or2_1
*I *2925:A I *D sky130_fd_sc_hd__nor2_1
*I *2828:B I *D sky130_fd_sc_hd__nor2_1
*I *2919:A I *D sky130_fd_sc_hd__nor2_1
*I *2913:A I *D sky130_fd_sc_hd__nor2_1
*I *2937:A I *D sky130_fd_sc_hd__nor2_1
*I *2931:A I *D sky130_fd_sc_hd__or2_1
*I *2955:A I *D sky130_fd_sc_hd__or2_1
*I *2827:X O *D sky130_fd_sc_hd__buf_2
*CAP
1 *2943:A 0
2 *2949:A 0
3 *2925:A 9.62364e-05
4 *2828:B 0.000110142
5 *2919:A 0
6 *2913:A 0.000163058
7 *2937:A 0.000111469
8 *2931:A 0.000589051
9 *2955:A 3.99824e-05
10 *2827:X 0.000386952
11 *325:104 0.000227754
12 *325:100 0.000878252
13 *325:58 0.000374629
14 *325:56 0.00122901
15 *325:35 0.00111499
16 *325:33 0.00021349
17 *325:31 0.000224357
18 *325:16 0.000499243
19 *2828:B *2919:B 0.000109377
20 *2925:A *2922:S 0
21 *2925:A *3405:A 2.73058e-05
22 *2925:A *369:77 0.00015998
23 *2925:A *374:84 3.26889e-05
24 *2925:A *396:12 7.46228e-05
25 *2931:A *2622:A 8.52845e-05
26 *2931:A *2622:B 0.000247937
27 *2931:A *2949:B 0.000427372
28 *2937:A *2937:B 4.82919e-05
29 *2937:A *715:41 7.00632e-05
30 *2937:A *904:10 7.23533e-05
31 *325:16 *2624:A 8.65905e-05
32 *325:16 *350:106 4.47209e-05
33 *325:16 *356:14 0.000489658
34 *325:31 *356:14 0
35 *325:31 *416:12 7.4027e-05
36 *325:33 *796:32 0.000335369
37 *325:35 *2949:B 0.000162775
38 *325:35 *328:18 1.46828e-05
39 *325:35 *796:32 0.000274432
40 *325:56 *2802:B2 2.49909e-05
41 *325:56 *2870:A 0.000122699
42 *325:56 *2892:A 4.82863e-05
43 *325:56 *2934:A0 4.66108e-05
44 *325:56 *2934:A1 0.000194962
45 *325:56 *2935:A 8.65961e-05
46 *325:56 *328:18 4.77719e-05
47 *325:56 *351:34 3.43427e-05
48 *325:56 *358:6 0.000160635
49 *325:56 *358:8 0.000122325
50 *325:56 *358:20 0.000300221
51 *325:56 *796:32 6.28097e-05
52 *325:58 *2802:B2 0.00017354
53 *325:58 *358:20 1.22676e-05
54 *325:58 *608:46 0
55 *325:58 *715:41 9.38244e-05
56 *325:58 *748:38 3.09233e-05
57 *325:58 *748:44 4.9968e-05
58 *325:58 *904:10 5.16418e-05
59 *325:100 *2802:A1 2.56157e-05
60 *325:100 *2933:A 0.000169636
61 *325:100 *3157:CLK 5.85626e-05
62 *325:100 *3405:A 0.000345347
63 *325:100 *358:20 3.90866e-05
64 *325:100 *748:38 0.000104609
65 *325:104 *2919:B 1.67131e-05
66 *325:104 *3405:A 4.66108e-05
67 *2728:A *2913:A 6.11718e-05
68 *2728:C *2913:A 0.000102201
69 *2730:A3 *2937:A 2.1112e-05
70 *2806:A *325:56 2.59926e-05
71 *2809:A3 *2931:A 0
72 *2828:A *2828:B 1.71542e-05
73 *3151:D *2937:A 4.66108e-05
74 *3156:D *325:100 3.07153e-05
75 *3157:D *325:100 0.000154545
76 *3270:D *325:16 0.000157595
77 *211:94 *325:31 9.54399e-05
78 *316:14 *325:16 0.000174436
79 *321:65 *2828:B 0.000267846
80 *321:65 *325:104 1.61831e-05
*RES
1 *2827:X *325:16 14.645 
2 *325:16 *2955:A 2.05 
3 *325:16 *325:31 5.74 
4 *325:31 *325:33 3.21 
5 *325:33 *325:35 2.52 
6 *325:35 *2931:A 15.32 
7 *325:35 *325:56 12.125 
8 *325:56 *325:58 3.165 
9 *325:58 *2937:A 5.985 
10 *325:58 *2913:A 6.255 
11 *325:56 *325:100 14.315 
12 *325:100 *325:104 1.845 
13 *325:104 *2919:A 1.6 
14 *325:104 *2828:B 4.84 
15 *325:100 *2925:A 8.36 
16 *325:33 *2949:A 1.6 
17 *325:31 *2943:A 1.6 
*END

*D_NET *326 0.00193512
*CONN
*I *2829:S I *D sky130_fd_sc_hd__mux2_1
*I *2832:S I *D sky130_fd_sc_hd__mux2_1
*I *2828:Y O *D sky130_fd_sc_hd__nor2_1
*CAP
1 *2829:S 1.65033e-05
2 *2832:S 0.000193223
3 *2828:Y 0.000327859
4 *326:10 0.000537586
5 *2829:S *2607:A 4.66108e-05
6 *2832:S *2832:A0 2.20014e-05
7 *2832:S *2832:A1 4.77757e-05
8 *2832:S *3152:CLK 0.000225883
9 *2832:S *922:12 8.80293e-06
10 *326:10 *2919:B 0.000177029
11 *326:10 *3152:CLK 0.000171068
12 *3152:D *326:10 0.000135792
13 *181:90 *2832:S 0
14 *181:90 *326:10 0
15 *197:149 *2829:S 2.49909e-05
16 *197:149 *326:10 0
*RES
1 *2828:Y *326:10 9.195 
2 *326:10 *2832:S 7.41 
3 *326:10 *2829:S 4.05 
*END

*D_NET *327 0.000981164
*CONN
*I *2830:A I *D sky130_fd_sc_hd__clkbuf_1
*I *2829:X O *D sky130_fd_sc_hd__mux2_1
*CAP
1 *2830:A 0.000407177
2 *2829:X 0.000407177
3 *2830:A *2595:A1 0
4 *2830:A *2595:S 0
5 *2830:A *2829:A0 0
6 *2830:A *2833:A 0
7 *2830:A *3152:CLK 0
8 *2830:A *923:10 6.4422e-05
9 *2829:A1 *2830:A 5.05521e-05
10 *3125:D *2830:A 5.18362e-05
*RES
1 *2829:X *2830:A 14.01 
*END

*D_NET *328 0.0271387
*CONN
*I *2585:A0 I *D sky130_fd_sc_hd__mux2_1
*I *2600:A0 I *D sky130_fd_sc_hd__mux2_1
*I *2610:A0 I *D sky130_fd_sc_hd__mux2_1
*I *2832:A1 I *D sky130_fd_sc_hd__mux2_1
*I *2595:A0 I *D sky130_fd_sc_hd__mux2_1
*I *2580:A0 I *D sky130_fd_sc_hd__mux2_1
*I *2615:A0 I *D sky130_fd_sc_hd__mux2_1
*I *2605:A0 I *D sky130_fd_sc_hd__mux2_1
*I *2625:A0 I *D sky130_fd_sc_hd__mux2_1
*I *2620:A0 I *D sky130_fd_sc_hd__mux2_1
*I *2831:X O *D sky130_fd_sc_hd__buf_2
*CAP
1 *2585:A0 0
2 *2600:A0 0
3 *2610:A0 3.69588e-05
4 *2832:A1 0.000377188
5 *2595:A0 0
6 *2580:A0 0.000428319
7 *2615:A0 3.59253e-05
8 *2605:A0 0
9 *2625:A0 0.000518715
10 *2620:A0 0
11 *2831:X 0.000597729
12 *328:149 0.00112071
13 *328:137 0.0010204
14 *328:113 0.000808385
15 *328:102 0.00165906
16 *328:84 0.00232096
17 *328:58 0.0024832
18 *328:22 0.000611764
19 *328:18 0.00192802
20 *2580:A0 *2613:A1 7.03276e-05
21 *2580:A0 *2613:S 0.000154197
22 *2580:A0 *2615:S 1.17036e-05
23 *2580:A0 *2791:B2 0.000353527
24 *2580:A0 *3286:A 0.00010117
25 *2580:A0 *568:10 4.24292e-06
26 *2580:A0 *848:14 7.4027e-05
27 *2615:A0 *2615:A1 4.82863e-05
28 *2615:A0 *528:87 0.000133437
29 *2615:A0 *535:6 6.52265e-05
30 *2625:A0 *2619:A 0
31 *2625:A0 *2620:A1 8.63479e-05
32 *2625:A0 *2867:B 5.51419e-05
33 *2625:A0 *350:106 0.000243306
34 *2832:A1 *2595:A1 7.22354e-05
35 *2832:A1 *2725:B2 0.000277848
36 *2832:A1 *2832:A0 4.77757e-05
37 *2832:A1 *2833:A 4.79892e-05
38 *2832:A1 *3331:A 5.59592e-05
39 *328:18 *2621:A 6.87295e-05
40 *328:18 *2626:A 0.000164679
41 *328:18 *2673:A 2.40202e-05
42 *328:18 *2808:A1 1.5269e-05
43 *328:18 *2949:B 0.000850094
44 *328:18 *2955:B 0
45 *328:18 *3258:CLK 0
46 *328:18 *3259:CLK 0
47 *328:18 *3300:A 0.000221299
48 *328:18 *605:16 0
49 *328:22 *759:70 5.99393e-05
50 *328:58 *2583:A1 5.79947e-05
51 *328:58 *2583:S 0.00026615
52 *328:58 *2621:A 1.79536e-05
53 *328:58 *2949:B 1.05827e-05
54 *328:58 *385:16 0.00010415
55 *328:58 *403:22 8.16396e-05
56 *328:58 *606:58 8.68075e-05
57 *328:58 *748:28 0.000157552
58 *328:84 *2600:A1 8.23457e-05
59 *328:84 *2600:S 3.69766e-05
60 *328:84 *2788:A1 0.000132003
61 *328:84 *2902:B 0.000235256
62 *328:84 *2906:A 9.76821e-05
63 *328:84 *3400:A 0.000180528
64 *328:84 *391:64 0.000412465
65 *328:84 *527:44 0.000231026
66 *328:84 *908:12 0.00010767
67 *328:84 *909:10 0.000165075
68 *328:102 *2562:A 0.000107643
69 *328:102 *2605:A1 0.000237243
70 *328:102 *2605:S 3.83194e-05
71 *328:102 *391:64 0
72 *328:102 *599:8 7.69977e-05
73 *328:113 *2605:S 0.000345436
74 *328:113 *2791:B2 0.00036366
75 *328:113 *3345:A 0.000159313
76 *328:113 *568:10 5.93844e-05
77 *328:113 *591:12 0
78 *328:113 *808:6 2.75145e-05
79 *328:137 *2608:S 4.9968e-05
80 *328:137 *2610:A1 0
81 *328:137 *2795:B2 0.000532002
82 *328:137 *538:16 0.000640317
83 *328:137 *870:10 0.000215662
84 *328:149 *2608:S 7.23533e-05
85 *328:149 *2611:A 0.000196628
86 *328:149 *870:10 7.23602e-05
87 *2711:B1 *2580:A0 0.000159165
88 *2718:C *328:137 0
89 *2753:B1 *328:58 0.0015884
90 *2788:B1 *328:102 0
91 *2832:S *2832:A1 4.77757e-05
92 *2902:A *328:84 8.41384e-05
93 *3252:D *328:113 0
94 *3261:D *328:18 0
95 *3271:D *328:18 5.73633e-05
96 *174:122 *328:84 0
97 *181:76 *328:84 0.000119671
98 *181:76 *328:102 8.56934e-05
99 *183:59 *328:84 0
100 *187:85 *328:58 0
101 *197:143 *328:102 0.000254992
102 *208:61 *2610:A0 4.66108e-05
103 *211:94 *2625:A0 0.000373418
104 *215:147 *328:84 0.000156473
105 *231:101 *328:84 5.129e-05
106 *291:40 *328:84 0
107 *299:34 *328:102 0.000886003
108 *316:14 *2625:A0 8.40213e-05
109 *322:55 *2625:A0 3.41827e-05
110 *322:55 *328:18 2.88589e-05
111 *322:55 *328:22 0.000105439
112 *325:35 *328:18 1.46828e-05
113 *325:56 *328:18 4.77719e-05
*RES
1 *2831:X *328:18 17.685 
2 *328:18 *328:22 3.83 
3 *328:22 *2620:A0 1.6 
4 *328:22 *2625:A0 14.66 
5 *328:18 *328:58 11.5002 
6 *328:58 *328:84 31.655 
7 *328:84 *328:102 22.015 
8 *328:102 *2605:A0 1.6 
9 *328:102 *328:113 10.775 
10 *328:113 *2615:A0 5.085 
11 *328:113 *2580:A0 12.84 
12 *328:102 *328:137 10.775 
13 *328:137 *328:149 12.575 
14 *328:149 *2595:A0 1.6 
15 *328:149 *2832:A1 9.76 
16 *328:137 *2610:A0 4.05 
17 *328:84 *2600:A0 1.6 
18 *328:58 *2585:A0 1.6 
*END

*D_NET *329 0.000861096
*CONN
*I *2833:A I *D sky130_fd_sc_hd__clkbuf_1
*I *2832:X O *D sky130_fd_sc_hd__mux2_1
*CAP
1 *2833:A 0.000336758
2 *2832:X 0.000336758
3 *2833:A *3152:CLK 0.00013959
4 *2830:A *2833:A 0
5 *2832:A1 *2833:A 4.79892e-05
*RES
1 *2832:X *2833:A 12.66 
*END

*D_NET *330 0.00518069
*CONN
*I *2838:A1 I *D sky130_fd_sc_hd__o21ba_2
*I *2839:A2 I *D sky130_fd_sc_hd__o21ai_1
*I *2845:A2 I *D sky130_fd_sc_hd__o21ai_1
*I *2834:Y O *D sky130_fd_sc_hd__nand2_1
*CAP
1 *2838:A1 0
2 *2839:A2 0
3 *2845:A2 0.000318814
4 *2834:Y 0.000300357
5 *330:18 0.0013039
6 *330:8 0.00128544
7 *2845:A2 *3264:CLK 8.42239e-05
8 *2845:A2 *339:8 2.49909e-05
9 *330:8 *2813:B 2.20014e-05
10 *330:8 *2838:A2 8.82557e-05
11 *330:8 *3268:D 4.99619e-05
12 *330:8 *774:35 3.75126e-05
13 *330:8 *774:39 0.000121023
14 *330:8 *775:30 2.16833e-05
15 *330:18 *2838:A2 8.8266e-05
16 *330:18 *2839:B1 8.40269e-05
17 *330:18 *2854:B1_N 2.75092e-05
18 *330:18 *3133:RESET_B 0.000115945
19 *330:18 *3268:D 6.90876e-05
20 *330:18 *3292:A 0
21 *330:18 *334:8 0.000134887
22 *330:18 *337:20 0.000204756
23 *330:18 *663:25 0
24 *330:18 *775:12 9.65637e-05
25 *330:18 *775:18 5.87002e-05
26 *2813:C *330:8 7.10593e-06
27 *2834:B *330:8 0.000196056
28 *2838:B1_N *330:18 8.53113e-06
29 *2839:A1 *2845:A2 9.50342e-06
30 *159:58 *330:8 0.000120655
31 *312:8 *2845:A2 0.000163019
32 *312:29 *330:18 9.01378e-05
33 *313:12 *330:8 4.77757e-05
*RES
1 *2834:Y *330:8 7.93 
2 *330:8 *330:18 23.77 
3 *330:18 *2845:A2 11.39 
4 *330:18 *2839:A2 1.6 
5 *330:8 *2838:A1 1.6 
*END

*D_NET *331 0.000508251
*CONN
*I *2837:A1 I *D sky130_fd_sc_hd__o21a_1
*I *2835:Y O *D sky130_fd_sc_hd__inv_2
*CAP
1 *2837:A1 0.000145686
2 *2835:Y 0.000145686
3 *2837:A1 *2835:A 1.14192e-05
4 *2837:A1 *2837:A2 2.93678e-05
5 *2837:A1 *337:20 8.69583e-05
6 *2837:A1 *774:35 2.15738e-05
7 *2837:A1 *775:30 6.39674e-05
8 *2813:D *2837:A1 3.59266e-06
9 *2842:B *2837:A1 0
*RES
1 *2835:Y *2837:A1 10.185 
*END

*D_NET *332 0.00196061
*CONN
*I *2858:B I *D sky130_fd_sc_hd__or2_1
*I *2837:A2 I *D sky130_fd_sc_hd__o21a_1
*I *2854:A1 I *D sky130_fd_sc_hd__a21bo_1
*I *2836:Y O *D sky130_fd_sc_hd__nand2_1
*CAP
1 *2858:B 0
2 *2837:A2 0.000172923
3 *2854:A1 0.000300496
4 *2836:Y 2.27137e-05
5 *332:12 0.000554427
6 *332:6 0.000103722
7 *2837:A2 *337:20 7.96207e-05
8 *2837:A2 *597:8 1.16578e-05
9 *2854:A1 *2854:B1_N 1.0397e-05
10 *2854:A1 *2856:A 5.01408e-05
11 *2854:A1 *334:8 3.61328e-05
12 *2854:A1 *334:18 4.77769e-05
13 *2854:A1 *337:20 2.62605e-05
14 *2854:A1 *597:8 0.000172642
15 *332:6 *775:22 1.42674e-05
16 *332:12 *337:20 4.35384e-05
17 *332:12 *663:25 0.000154398
18 *2813:D *332:6 8.35157e-05
19 *2836:B *332:6 4.66108e-05
20 *2837:A1 *2837:A2 2.93678e-05
*RES
1 *2836:Y *332:6 2.395 
2 *332:6 *332:12 5.89 
3 *332:12 *2854:A1 10.4 
4 *332:12 *2837:A2 4.48 
5 *332:6 *2858:B 1.6 
*END

*D_NET *333 0.000622002
*CONN
*I *2838:A2 I *D sky130_fd_sc_hd__o21ba_2
*I *2837:X O *D sky130_fd_sc_hd__o21a_1
*CAP
1 *2838:A2 0.000165459
2 *2837:X 0.000165459
3 *2838:A2 *663:25 4.05358e-05
4 *2838:A2 *775:30 7.4027e-05
5 *330:8 *2838:A2 8.82557e-05
6 *330:18 *2838:A2 8.8266e-05
*RES
1 *2837:X *2838:A2 10.86 
*END

*D_NET *334 0.00532931
*CONN
*I *2854:B1_N I *D sky130_fd_sc_hd__a21bo_1
*I *2855:A2 I *D sky130_fd_sc_hd__a21o_1
*I *2843:B I *D sky130_fd_sc_hd__nand2_1
*I *2840:A2 I *D sky130_fd_sc_hd__o21a_1
*I *2847:A3 I *D sky130_fd_sc_hd__a31o_1
*I *2839:B1 I *D sky130_fd_sc_hd__o21ai_1
*I *2845:B1 I *D sky130_fd_sc_hd__o21ai_1
*I *2838:X O *D sky130_fd_sc_hd__o21ba_2
*CAP
1 *2854:B1_N 4.17019e-05
2 *2855:A2 0
3 *2843:B 0
4 *2840:A2 0
5 *2847:A3 0.000223213
6 *2839:B1 0.000119048
7 *2845:B1 0
8 *2838:X 0.000113675
9 *334:56 0.000290327
10 *334:43 0.00029328
11 *334:34 0.000496738
12 *334:26 0.000521371
13 *334:18 0.000478098
14 *334:8 0.000501723
15 *2839:B1 *2846:A 1.34503e-05
16 *2839:B1 *335:8 0.000381082
17 *2839:B1 *772:31 4.58257e-05
18 *2839:B1 *773:12 7.22354e-05
19 *2847:A3 *2848:B 0.000196364
20 *2854:B1_N *337:20 4.77807e-05
21 *334:8 *2856:A 0
22 *334:8 *3292:A 3.68682e-05
23 *334:8 *774:64 0
24 *334:18 *2843:A 6.07575e-06
25 *334:18 *337:20 3.67321e-05
26 *334:18 *774:64 0.000109283
27 *334:18 *774:77 6.21447e-05
28 *334:26 *597:43 8.19282e-05
29 *334:26 *774:77 8.41384e-05
30 *334:34 *2853:B1 0.000141264
31 *334:34 *2960:C 3.03989e-05
32 *334:34 *3264:CLK 0
33 *334:34 *338:12 7.97759e-05
34 *334:34 *775:76 0.000115345
35 *334:43 *2848:A 0.000139238
36 *334:43 *2853:B1 6.52181e-05
37 *334:43 *3264:CLK 0
38 *334:43 *772:29 0
39 *334:56 *2848:A 0.000104287
40 *2839:A1 *334:56 8.53113e-06
41 *2854:A1 *2854:B1_N 1.0397e-05
42 *2854:A1 *334:8 3.61328e-05
43 *2854:A1 *334:18 4.77769e-05
44 *318:51 *2847:A3 5.4155e-06
45 *319:112 *2847:A3 4.60229e-05
46 *330:18 *2839:B1 8.40269e-05
47 *330:18 *2854:B1_N 2.75092e-05
48 *330:18 *334:8 0.000134887
*RES
1 *2838:X *334:8 6.51 
2 *334:8 *334:18 7.325 
3 *334:18 *334:26 6.685 
4 *334:26 *334:34 10.16 
5 *334:34 *2845:B1 3.6 
6 *334:34 *334:43 2.4 
7 *334:43 *2839:B1 7.5 
8 *334:43 *334:56 3.38 
9 *334:56 *2847:A3 4.735 
10 *334:56 *2840:A2 1.6 
11 *334:26 *2843:B 1.6 
12 *334:18 *2855:A2 1.6 
13 *334:8 *2854:B1_N 4.665 
*END

*D_NET *335 0.00194874
*CONN
*I *2840:B1 I *D sky130_fd_sc_hd__o21a_1
*I *2844:B2 I *D sky130_fd_sc_hd__a2bb2o_1
*I *2839:Y O *D sky130_fd_sc_hd__o21ai_1
*CAP
1 *2840:B1 8.73999e-05
2 *2844:B2 0.000203863
3 *2839:Y 0.000167156
4 *335:8 0.000458419
5 *2840:B1 *2848:A 0.000155234
6 *2840:B1 *652:59 0
7 *2844:B2 *2848:A 0.000152814
8 *2844:B2 *2853:B1 5.4003e-05
9 *2844:B2 *652:59 0
10 *2844:B2 *652:63 0
11 *335:8 *340:8 0.000271303
12 *335:8 *772:31 1.74678e-05
13 *2839:B1 *335:8 0.000381082
*RES
1 *2839:Y *335:8 7.845 
2 *335:8 *2844:B2 7.14 
3 *335:8 *2840:B1 5.49 
*END

*D_NET *336 0.00832348
*CONN
*I *2948:C I *D sky130_fd_sc_hd__or3_2
*I *2924:A I *D sky130_fd_sc_hd__or3b_4
*I *2901:C I *D sky130_fd_sc_hd__or4b_2
*I *2874:A I *D sky130_fd_sc_hd__or2_2
*I *2844:A1_N I *D sky130_fd_sc_hd__a2bb2o_1
*I *2841:X O *D sky130_fd_sc_hd__or2b_1
*CAP
1 *2948:C 0
2 *2924:A 0
3 *2901:C 0.000441308
4 *2874:A 2.71862e-05
5 *2844:A1_N 0.000491393
6 *2841:X 0.000143328
7 *336:58 0.000776642
8 *336:28 0.00079367
9 *336:22 0.000782474
10 *336:14 0.000315377
11 *2844:A1_N *2844:A2_N 4.66108e-05
12 *2844:A1_N *2853:B1 0.000154986
13 *2844:A1_N *2864:A 4.66108e-05
14 *2844:A1_N *2864:B 4.99619e-05
15 *2844:A1_N *2865:B 8.49205e-05
16 *2844:A1_N *3290:A 5.83121e-06
17 *2844:A1_N *361:12 0.000118081
18 *2874:A *2865:B 6.60853e-05
19 *2874:A *361:12 4.77719e-05
20 *2901:C *2924:C_N 4.99619e-05
21 *2901:C *3027:A 0.000451664
22 *2901:C *3180:CLK 0.000253337
23 *2901:C *873:8 3.98565e-05
24 *336:14 *2942:B 2.39856e-05
25 *336:14 *340:31 4.11718e-05
26 *336:14 *340:35 1.08758e-05
27 *336:14 *772:39 0.000224613
28 *336:22 *2880:C 8.67465e-06
29 *336:22 *2930:D_N 8.7152e-06
30 *336:22 *340:35 0.000119009
31 *336:22 *411:12 1.08732e-05
32 *336:22 *772:39 0.000194891
33 *336:22 *772:45 2.95491e-05
34 *336:22 *773:79 1.16578e-05
35 *336:28 *2865:B 4.77769e-05
36 *336:28 *2866:B 4.66108e-05
37 *336:28 *2874:B 0.00013346
38 *336:28 *2880:C 0.000156214
39 *336:28 *352:26 0
40 *336:28 *365:12 4.00257e-05
41 *336:28 *411:33 0
42 *336:58 *2851:A 0.000159845
43 *336:58 *2961:A 4.66108e-05
44 *336:58 *3180:CLK 0.00029271
45 *2841:A *336:14 5.4155e-06
46 *2844:B1 *2844:A1_N 5.83121e-06
47 *2845:A1 *2844:A1_N 8.37585e-05
48 *2853:B2 *2844:A1_N 2.03356e-05
49 *2853:B2 *2874:A 3.11381e-05
50 *2880:A *336:22 0.000127378
51 *2880:A *336:58 4.66108e-05
52 *2880:B *336:22 0
53 *2887:A *336:28 0.000247897
54 *2907:A *336:22 3.09774e-05
55 *2924:B *336:58 0.000122331
56 *3131:D *2844:A1_N 3.06212e-05
57 *3180:D *2901:C 0.000191425
58 *176:51 *336:28 4.96965e-05
59 *211:18 *2844:A1_N 0.000113797
60 *317:40 *336:58 0.000120504
61 *317:50 *336:58 0.000118856
62 *317:81 *2901:C 0.000111901
63 *323:55 *2844:A1_N 7.06865e-05
*RES
1 *2841:X *336:14 5.305 
2 *336:14 *336:22 6.425 
3 *336:22 *336:28 8.48 
4 *336:28 *2844:A1_N 14.015 
5 *336:28 *2874:A 2.755 
6 *336:22 *336:58 9.695 
7 *336:58 *2901:C 11.44 
8 *336:58 *2924:A 1.6 
9 *336:14 *2948:C 1.6 
*END

*D_NET *337 0.00279641
*CONN
*I *2843:A I *D sky130_fd_sc_hd__nand2_1
*I *2854:A2 I *D sky130_fd_sc_hd__a21bo_1
*I *2842:X O *D sky130_fd_sc_hd__and2_1
*CAP
1 *2843:A 0.000235437
2 *2854:A2 5.44163e-06
3 *2842:X 0.000474739
4 *337:20 0.000715618
5 *2843:A *2856:B 2.22956e-05
6 *2843:A *2859:A1_N 8.23457e-05
7 *2843:A *3132:CLK 1.91597e-05
8 *2843:A *346:8 8.53011e-05
9 *2843:A *597:43 4.92205e-05
10 *2843:A *774:64 0.000119247
11 *2843:A *774:77 0
12 *2843:A *775:76 9.54046e-05
13 *2854:A2 *774:77 0
14 *337:20 *2859:A2_N 2.21074e-05
15 *337:20 *597:8 7.35813e-05
16 *337:20 *663:25 0
17 *337:20 *775:18 0.000122202
18 *337:20 *775:22 3.12916e-05
19 *2837:A1 *337:20 8.69583e-05
20 *2837:A2 *337:20 7.96207e-05
21 *2854:A1 *337:20 2.62605e-05
22 *2854:B1_N *337:20 4.77807e-05
23 *2855:A1 *2843:A 0.000111293
24 *330:18 *337:20 0.000204756
25 *332:12 *337:20 4.35384e-05
26 *334:18 *2843:A 6.07575e-06
27 *334:18 *337:20 3.67321e-05
*RES
1 *2842:X *337:20 15.3575 
2 *337:20 *2854:A2 1.7275 
3 *337:20 *2843:A 11.0075 
*END

*D_NET *338 0.00342067
*CONN
*I *2859:A1_N I *D sky130_fd_sc_hd__a2bb2o_1
*I *2844:A2_N I *D sky130_fd_sc_hd__a2bb2o_1
*I *2853:A1_N I *D sky130_fd_sc_hd__a2bb2o_1
*I *2843:Y O *D sky130_fd_sc_hd__nand2_1
*CAP
1 *2859:A1_N 0.000138656
2 *2844:A2_N 0.000132696
3 *2853:A1_N 4.46016e-05
4 *2843:Y 0
5 *338:12 0.000744071
6 *338:4 0.00070543
7 *2844:A2_N *2864:B 2.97004e-06
8 *2844:A2_N *652:63 5.2419e-05
9 *2853:A1_N *2853:B1 0.0002336
10 *2853:A1_N *3306:A 0.000136435
11 *2859:A1_N *2859:A2_N 1.76091e-05
12 *2859:A1_N *775:76 0.000102671
13 *338:12 *2960:C 0.000235382
14 *338:12 *3047:B 4.00704e-05
15 *338:12 *419:126 0.000138106
16 *338:12 *652:63 0.000308058
17 *338:12 *775:76 1.01074e-05
18 *2843:A *2859:A1_N 8.23457e-05
19 *2844:A1_N *2844:A2_N 4.66108e-05
20 *2844:B1 *2844:A2_N 8.67073e-05
21 *2845:A1 *2844:A2_N 8.23457e-05
22 *3131:D *2844:A2_N 0
23 *323:55 *2844:A2_N 0
24 *334:34 *338:12 7.97759e-05
*RES
1 *2843:Y *338:4 1.6 
2 *338:4 *338:12 11.405 
3 *338:12 *2853:A1_N 5.775 
4 *338:12 *2844:A2_N 6.54 
5 *338:4 *2859:A1_N 4.57 
*END

*D_NET *339 0.00335596
*CONN
*I *2848:A I *D sky130_fd_sc_hd__and2_1
*I *2853:B1 I *D sky130_fd_sc_hd__a2bb2o_1
*I *2845:Y O *D sky130_fd_sc_hd__o21ai_1
*CAP
1 *2848:A 0.000337521
2 *2853:B1 0.000450895
3 *2845:Y 3.98087e-05
4 *339:8 0.000828225
5 *2848:A *2848:B 5.00638e-05
6 *2848:A *2849:A 0.0001249
7 *2848:A *772:29 0
8 *2853:B1 *2853:A2_N 5.42146e-05
9 *2853:B1 *3306:A 0.000141822
10 *2853:B1 *652:63 0
11 *2839:A1 *2848:A 2.53785e-05
12 *2840:B1 *2848:A 0.000155234
13 *2844:A1_N *2853:B1 0.000154986
14 *2844:B2 *2848:A 0.000152814
15 *2844:B2 *2853:B1 5.4003e-05
16 *2845:A2 *339:8 2.49909e-05
17 *2853:A1_N *2853:B1 0.0002336
18 *2853:B2 *2853:B1 2.85587e-05
19 *3131:D *2853:B1 4.89395e-05
20 *334:34 *2853:B1 0.000141264
21 *334:43 *2848:A 0.000139238
22 *334:43 *2853:B1 6.52181e-05
23 *334:56 *2848:A 0.000104287
*RES
1 *2845:Y *339:8 4.05 
2 *339:8 *2853:B1 13.365 
3 *339:8 *2848:A 10.575 
*END

*D_NET *340 0.0104017
*CONN
*I *2954:D I *D sky130_fd_sc_hd__or4_2
*I *2942:B I *D sky130_fd_sc_hd__or3_4
*I *2948:B I *D sky130_fd_sc_hd__or3_2
*I *2888:A I *D sky130_fd_sc_hd__or4b_4
*I *2936:B I *D sky130_fd_sc_hd__or3_2
*I *2924:C_N I *D sky130_fd_sc_hd__or3b_4
*I *2918:C_N I *D sky130_fd_sc_hd__or3b_2
*I *2901:A I *D sky130_fd_sc_hd__or4b_2
*I *2895:A I *D sky130_fd_sc_hd__or4b_4
*I *2847:B1 I *D sky130_fd_sc_hd__a31o_1
*I *2846:X O *D sky130_fd_sc_hd__buf_2
*CAP
1 *2954:D 8.76271e-05
2 *2942:B 0.000266504
3 *2948:B 0
4 *2888:A 1.60636e-05
5 *2936:B 2.08101e-05
6 *2924:C_N 0.000105875
7 *2918:C_N 0
8 *2901:A 3.71233e-05
9 *2895:A 0.000154426
10 *2847:B1 5.03374e-05
11 *2846:X 0.000429909
12 *340:47 0.00032964
13 *340:43 0.000636536
14 *340:39 0.000694653
15 *340:37 0.000221955
16 *340:35 0.000550189
17 *340:31 0.000488456
18 *340:29 0.000341357
19 *340:25 0.000723758
20 *340:8 0.00110667
21 *2847:B1 *2863:A 3.09233e-05
22 *2888:A *343:31 4.00541e-06
23 *2895:A *2895:B 4.77807e-05
24 *2895:A *2918:A 8.46818e-05
25 *2895:A *365:26 0
26 *2895:A *370:26 8.53722e-05
27 *2895:A *370:28 2.85364e-05
28 *2895:A *371:47 1.80211e-05
29 *2924:C_N *3383:A 1.38321e-05
30 *2924:C_N *384:22 0.000102848
31 *2924:C_N *395:24 0.000156614
32 *2942:B *3032:A 1.15436e-05
33 *2942:B *345:8 0.000240994
34 *2942:B *352:20 0.000391191
35 *2942:B *407:16 1.0183e-05
36 *2942:B *415:31 4.37983e-06
37 *2954:D *3032:A 1.44493e-05
38 *2954:D *352:20 1.84258e-05
39 *2954:D *415:31 0.000112189
40 *340:8 *772:31 3.06659e-05
41 *340:25 *773:60 0.000155703
42 *340:29 *352:20 2.53191e-06
43 *340:29 *415:31 1.83975e-05
44 *340:35 *2907:D_N 0.000121643
45 *340:35 *2936:C 2.87395e-05
46 *340:35 *343:31 0.000184236
47 *340:35 *773:79 0.000232403
48 *340:37 *2936:C 1.91597e-05
49 *340:39 *3383:A 3.79854e-05
50 *340:43 *3003:A1 2.72392e-05
51 *340:43 *3005:A0 4.21973e-05
52 *340:43 *3005:S 0.00018955
53 *340:43 *3006:A 2.09263e-05
54 *340:43 *3383:A 4.38278e-05
55 *340:43 *403:10 2.81489e-05
56 *340:47 *2918:A 0
57 *340:47 *3027:A 0.000137082
58 *340:47 *371:47 1.38321e-05
59 *2841:A *340:8 2.75145e-05
60 *2880:B *2942:B 4.77719e-05
61 *2888:D_N *340:35 9.80032e-06
62 *2901:C *2924:C_N 4.99619e-05
63 *2907:B *340:35 0.000231167
64 *2918:B *340:47 0
65 *2936:A *340:37 0.000145515
66 *2936:A *340:39 4.82863e-05
67 *2948:A *340:25 0.000177407
68 *3129:D *2847:B1 2.67394e-05
69 *3181:D *340:43 0
70 *317:81 *2901:A 8.52845e-05
71 *318:16 *2847:B1 0.000113821
72 *335:8 *340:8 0.000271303
73 *336:14 *2942:B 2.39856e-05
74 *336:14 *340:31 4.11718e-05
75 *336:14 *340:35 1.08758e-05
76 *336:22 *340:35 0.000119009
*RES
1 *2846:X *340:8 8.88 
2 *340:8 *2847:B1 4.98 
3 *340:8 *340:25 2.31987 
4 *340:25 *340:29 2.2325 
5 *340:29 *340:31 0.795 
6 *340:31 *340:35 8.4 
7 *340:35 *340:37 1.83 
8 *340:37 *340:39 1.485 
9 *340:39 *340:43 7.365 
10 *340:43 *340:47 4.145 
11 *340:47 *2895:A 6.54 
12 *340:47 *2901:A 4.395 
13 *340:43 *2918:C_N 1.6 
14 *340:39 *2924:C_N 8.45 
15 *340:37 *2936:B 1.96 
16 *340:35 *2888:A 1.96 
17 *340:31 *2948:B 1.6 
18 *340:29 *2942:B 11.39 
19 *340:25 *2954:D 5.1075 
*END

*D_NET *341 0.000806071
*CONN
*I *2848:B I *D sky130_fd_sc_hd__and2_1
*I *2847:X O *D sky130_fd_sc_hd__a31o_1
*CAP
1 *2848:B 0.000111421
2 *2847:X 0.000111421
3 *2848:B *2849:A 2.14672e-05
4 *2839:A1 *2848:B 8.06582e-05
5 *2847:A3 *2848:B 0.000196364
6 *2848:A *2848:B 5.00638e-05
7 *319:112 *2848:B 0.000234674
*RES
1 *2847:X *2848:B 7.13 
*END

*D_NET *342 0.00198518
*CONN
*I *2849:A I *D sky130_fd_sc_hd__clkbuf_1
*I *2848:X O *D sky130_fd_sc_hd__and2_1
*CAP
1 *2849:A 0.000421176
2 *2848:X 0.000421176
3 *2849:A *2863:A 0.000116158
4 *2849:A *3128:CLK 1.1561e-05
5 *2849:A *3376:A 1.83756e-05
6 *2849:A *770:28 0.000177561
7 *2849:A *773:16 4.38278e-05
8 *2848:A *2849:A 0.0001249
9 *2848:B *2849:A 2.14672e-05
10 *3128:D *2849:A 8.8266e-05
11 *3129:D *2849:A 0.000178496
12 *3130:D *2849:A 4.80285e-05
13 *318:51 *2849:A 8.77612e-05
14 *319:16 *2849:A 2.19562e-06
15 *319:101 *2849:A 7.91379e-06
16 *319:112 *2849:A 0.000216319
*RES
1 *2848:X *2849:A 17.415 
*END

*D_NET *343 0.00215984
*CONN
*I *2888:B I *D sky130_fd_sc_hd__or4b_4
*I *2936:C I *D sky130_fd_sc_hd__or3_2
*I *2851:A I *D sky130_fd_sc_hd__or3b_1
*I *2850:Y O *D sky130_fd_sc_hd__nand2_1
*CAP
1 *2888:B 0
2 *2936:C 0.000129902
3 *2851:A 0.000116149
4 *2850:Y 4.36313e-05
5 *343:31 0.00027966
6 *343:8 0.000309538
7 *2851:A *384:14 5.07376e-05
8 *2851:A *399:16 5.54826e-05
9 *2851:A *678:16 7.72123e-05
10 *2936:C *2961:B 1.54111e-05
11 *343:8 *384:14 0.000126816
12 *343:8 *678:16 0.000125111
13 *343:31 *2907:D_N 3.02363e-05
14 *343:31 *2961:B 2.87395e-05
15 *343:31 *384:14 1.19928e-05
16 *343:31 *678:16 9.41588e-06
17 *2888:A *343:31 4.00541e-06
18 *2888:D_N *343:31 3.92551e-05
19 *2936:A *2936:C 0.00015639
20 *317:40 *2851:A 3.6355e-05
21 *317:50 *2851:A 0.00012182
22 *336:58 *2851:A 0.000159845
23 *340:35 *2936:C 2.87395e-05
24 *340:35 *343:31 0.000184236
25 *340:37 *2936:C 1.91597e-05
*RES
1 *2850:Y *343:8 5.235 
2 *343:8 *2851:A 6.975 
3 *343:8 *343:31 5.2775 
4 *343:31 *2936:C 3.9475 
5 *343:31 *2888:B 1.6 
*END

*D_NET *344 0.0017806
*CONN
*I *2852:A I *D sky130_fd_sc_hd__buf_2
*I *2851:X O *D sky130_fd_sc_hd__or3b_1
*CAP
1 *2852:A 0.000476823
2 *2851:X 0.000476823
3 *2852:A *415:31 0.000110862
4 *2880:B *2852:A 0.000106377
5 *317:40 *2852:A 0.0005631
6 *317:50 *2852:A 4.66108e-05
*RES
1 *2851:X *2852:A 14.205 
*END

*D_NET *345 0.0323527
*CONN
*I *3007:A I *D sky130_fd_sc_hd__nor2_1
*I *3091:A I *D sky130_fd_sc_hd__nor2_1
*I *2913:B I *D sky130_fd_sc_hd__nor2_1
*I *2587:A I *D sky130_fd_sc_hd__nor2_1
*I *2853:A2_N I *D sky130_fd_sc_hd__a2bb2o_1
*I *2852:X O *D sky130_fd_sc_hd__buf_2
*CAP
1 *3007:A 0.00011059
2 *3091:A 0
3 *2913:B 0.00332868
4 *2587:A 0.00041651
5 *2853:A2_N 0.000444908
6 *2852:X 0.000135284
7 *345:53 0.00838717
8 *345:41 0.00584734
9 *345:29 0.00426356
10 *345:8 0.00352781
11 *2587:A *2568:S 3.96088e-05
12 *2587:A *2715:A1 0.000348704
13 *2587:A *2715:B2 8.53113e-06
14 *2587:A *3424:A 4.82919e-05
15 *2587:A *358:20 0
16 *2587:A *538:16 0.000125959
17 *2853:A2_N *2865:B 0.000134737
18 *2853:A2_N *2874:B 0.000100676
19 *2853:A2_N *3306:A 4.66108e-05
20 *2853:A2_N *354:23 3.72952e-05
21 *2853:A2_N *355:18 8.33066e-06
22 *2853:A2_N *407:16 0
23 *2853:A2_N *415:31 1.42845e-05
24 *2913:B *358:20 0
25 *2913:B *715:41 3.96153e-05
26 *2913:B *737:30 0
27 *3007:A *365:26 3.33338e-05
28 *3007:A *474:55 9.60547e-05
29 *345:8 *354:23 3.14383e-05
30 *345:8 *407:16 0
31 *345:8 *415:31 0.000281189
32 *345:29 *3060:A 0.000396733
33 *345:29 *3290:A 0.000349442
34 *345:29 *365:12 0.000149829
35 *345:29 *365:26 5.14468e-05
36 *345:29 *370:20 0.000581912
37 *345:29 *590:145 0.000292227
38 *345:29 *677:30 9.55891e-05
39 *345:29 *748:28 3.86223e-05
40 *345:41 *3050:B 1.74776e-05
41 *345:41 *474:55 6.11763e-05
42 *345:41 *476:89 8.54281e-05
43 *345:53 *2602:A 0.000287332
44 *345:53 *3050:B 2.69443e-06
45 *345:53 *3102:A1 0.000138309
46 *345:53 *399:49 1.99293e-05
47 *2703:B *345:41 4.28112e-06
48 *2703:C *345:41 6.18631e-05
49 *2708:B2 *345:41 0.000231812
50 *2715:B1 *2587:A 1.37074e-05
51 *2724:A2 *2913:B 3.96153e-05
52 *2760:A2 *345:29 0
53 *2767:B1 *345:41 5.23039e-05
54 *2793:A2 *2587:A 8.40213e-05
55 *2798:A2 *345:53 0.000157752
56 *2853:B1 *2853:A2_N 5.42146e-05
57 *2853:B2 *2853:A2_N 6.03681e-05
58 *2887:A *2853:A2_N 4.77807e-05
59 *2942:B *345:8 0.000240994
60 *3463:A *345:29 0.000416957
61 *182:50 *345:29 3.75422e-05
62 *190:28 *3007:A 0
63 *190:28 *345:41 0
64 *235:18 *345:41 5.13924e-05
65 *235:18 *345:53 0.000142318
66 *321:16 *345:29 0.00013826
67 *323:55 *2853:A2_N 3.55539e-05
68 *323:55 *345:8 5.73375e-05
*RES
1 *2852:X *345:8 7.9125 
2 *345:8 *2853:A2_N 10.2525 
3 *345:8 *345:29 6.86467 
4 *345:29 *345:41 19.9225 
5 *345:41 *345:53 10.6611 
6 *345:53 *2587:A 8.33077 
7 *345:53 *2913:B 9.84037 
8 *345:41 *3091:A 3.6 
9 *345:29 *3007:A 5.6175 
*END

*D_NET *346 0.00108873
*CONN
*I *2856:A I *D sky130_fd_sc_hd__and2_1
*I *2859:B1 I *D sky130_fd_sc_hd__a2bb2o_1
*I *2854:X O *D sky130_fd_sc_hd__a21bo_1
*CAP
1 *2856:A 0.000206256
2 *2859:B1 6.19591e-05
3 *2854:X 5.85433e-05
4 *346:8 0.000326759
5 *2856:A *2859:A2_N 9.12494e-06
6 *2856:A *774:64 0.000197609
7 *2856:A *775:18 1.28996e-05
8 *2859:B1 *2857:A 6.05046e-05
9 *2859:B1 *2859:A2_N 1.96308e-05
10 *2843:A *346:8 8.53011e-05
11 *2854:A1 *2856:A 5.01408e-05
12 *334:8 *2856:A 0
*RES
1 *2854:X *346:8 4.395 
2 *346:8 *2859:B1 4.98 
3 *346:8 *2856:A 8.205 
*END

*D_NET *347 0.000640521
*CONN
*I *2856:B I *D sky130_fd_sc_hd__and2_1
*I *2855:X O *D sky130_fd_sc_hd__a21o_1
*CAP
1 *2856:B 0.000178261
2 *2855:X 0.000178261
3 *2856:B *2857:A 0.000174127
4 *2856:B *597:8 4.82919e-05
5 *2856:B *597:10 0
6 *2856:B *597:43 0
7 *2856:B *774:64 3.50033e-05
8 *2843:A *2856:B 2.22956e-05
9 *2855:A1 *2856:B 4.28112e-06
*RES
1 *2855:X *2856:B 10.56 
*END

*D_NET *348 0.00144096
*CONN
*I *2857:A I *D sky130_fd_sc_hd__clkbuf_1
*I *2856:X O *D sky130_fd_sc_hd__and2_1
*CAP
1 *2857:A 0.000361663
2 *2856:X 0.000361663
3 *2857:A *597:8 4.92062e-05
4 *2857:A *774:64 0.000134291
5 *2855:A1 *2857:A 7.95963e-05
6 *2856:B *2857:A 0.000174127
7 *2859:B1 *2857:A 6.05046e-05
8 *3132:D *2857:A 0.000134557
9 *312:8 *2857:A 8.53536e-05
*RES
1 *2856:X *2857:A 15.495 
*END

*D_NET *349 0.00111557
*CONN
*I *2859:A2_N I *D sky130_fd_sc_hd__a2bb2o_1
*I *2858:X O *D sky130_fd_sc_hd__or2_1
*CAP
1 *2859:A2_N 0.000323415
2 *2858:X 0.000323415
3 *2859:A2_N *775:18 0.000153164
4 *2859:A2_N *775:64 0.000176169
5 *2859:A2_N *775:76 7.09332e-05
6 *2856:A *2859:A2_N 9.12494e-06
7 *2859:A1_N *2859:A2_N 1.76091e-05
8 *2859:B1 *2859:A2_N 1.96308e-05
9 *337:20 *2859:A2_N 2.21074e-05
*RES
1 *2858:X *2859:A2_N 12.4425 
*END

*D_NET *350 0.0415875
*CONN
*I *2643:A2 I *D sky130_fd_sc_hd__a21oi_1
*I *2979:A I *D sky130_fd_sc_hd__buf_2
*I *3113:A1 I *D sky130_fd_sc_hd__mux2_1
*I *3097:A1 I *D sky130_fd_sc_hd__mux2_1
*I *3102:A1 I *D sky130_fd_sc_hd__mux2_1
*I *2995:A I *D sky130_fd_sc_hd__clkbuf_4
*I *2862:A I *D sky130_fd_sc_hd__buf_2
*I *2886:A I *D sky130_fd_sc_hd__clkbuf_4
*I *2568:A1 I *D sky130_fd_sc_hd__mux2_1
*I *2588:A1 I *D sky130_fd_sc_hd__mux2_1
*I *2861:X O *D sky130_fd_sc_hd__clkbuf_4
*CAP
1 *2643:A2 0.00025663
2 *2979:A 0.00068242
3 *3113:A1 0
4 *3097:A1 0
5 *3102:A1 0.000282982
6 *2995:A 0.000100854
7 *2862:A 2.56208e-05
8 *2886:A 0.000102247
9 *2568:A1 0.000211482
10 *2588:A1 0.000228814
11 *2861:X 0
12 *350:152 0.000771858
13 *350:140 0.00233567
14 *350:120 0.00305346
15 *350:106 0.00306451
16 *350:50 0.00271663
17 *350:40 0.00492578
18 *350:12 0.00271351
19 *350:10 0.00197765
20 *350:4 0.000817306
21 *2568:A1 *2715:B2 6.7033e-05
22 *2568:A1 *3338:A 4.23802e-05
23 *2588:A1 *2588:A0 0.0001615
24 *2643:A2 *2641:A 0.000163199
25 *2643:A2 *2643:B1 0.000117814
26 *2862:A *351:6 1.83847e-05
27 *2886:A *374:63 0.000110323
28 *2886:A *396:12 0.000112105
29 *2979:A *2977:A0 0
30 *2979:A *2977:S 9.12227e-05
31 *2979:A *3200:CLK 9.12671e-06
32 *2979:A *3373:A 0.000119762
33 *2979:A *355:32 2.13396e-05
34 *2979:A *407:16 0.000148125
35 *2979:A *432:8 2.51357e-05
36 *2979:A *594:27 6.07575e-06
37 *2979:A *594:31 5.97697e-05
38 *2979:A *775:97 0.000674633
39 *2995:A *2999:A 0.000200099
40 *2995:A *358:107 3.6355e-05
41 *2995:A *500:8 0.000238129
42 *3102:A1 *3102:A0 4.82919e-05
43 *3102:A1 *358:107 0
44 *3102:A1 *476:46 0.00051271
45 *3102:A1 *476:52 1.19928e-05
46 *350:12 *351:164 0.000135539
47 *350:12 *511:22 9.30717e-05
48 *350:12 *592:18 8.77898e-05
49 *350:40 *2937:B 0.000234855
50 *350:40 *2952:A0 0.000311294
51 *350:40 *2952:S 0.000158692
52 *350:40 *2953:A 8.40269e-05
53 *350:40 *3312:A 0.000141606
54 *350:40 *374:16 0
55 *350:40 *404:10 4.82919e-05
56 *350:40 *592:18 5.51245e-05
57 *350:40 *605:16 0.000179186
58 *350:40 *605:18 0.000253909
59 *350:50 *2885:A 0.00024944
60 *350:50 *374:63 0.00010422
61 *350:50 *396:12 0.000244799
62 *350:106 *2624:A 0.000554541
63 *350:106 *2769:A 0.000443083
64 *350:106 *2780:A1 6.90254e-05
65 *350:106 *2867:B 0.000207523
66 *350:106 *2973:A 1.88602e-05
67 *350:106 *2977:S 6.36261e-05
68 *350:106 *351:164 3.84331e-05
69 *350:106 *355:32 1.38403e-05
70 *350:106 *355:34 5.49824e-05
71 *350:106 *356:14 0.000131246
72 *350:106 *511:22 7.5416e-05
73 *350:120 *2776:A 0.000165215
74 *350:140 *2776:A 0.000309672
75 *350:140 *371:47 0
76 *350:140 *430:24 4.43186e-05
77 *350:140 *832:8 8.49205e-05
78 *350:152 *3081:A1 0.000496011
79 *350:152 *3083:A1 6.21335e-05
80 *350:152 *3098:A 0
81 *350:152 *442:142 0.000802433
82 *350:152 *445:150 0.000766698
83 *350:152 *500:141 0.000470862
84 *350:152 *832:8 4.66108e-05
85 *2625:A0 *350:106 0.000243306
86 *2672:A *2979:A 6.52181e-05
87 *2672:A *350:106 9.54469e-05
88 *2672:A *350:120 2.49909e-05
89 *2723:A2 *350:50 4.89395e-05
90 *2728:A *2886:A 4.82919e-05
91 *2744:B *350:106 0.000119637
92 *2759:C *350:140 8.53113e-06
93 *2769:C *350:106 0.000368242
94 *2771:B *2979:A 5.67938e-05
95 *2773:B *350:120 4.42614e-05
96 *2773:C *350:120 9.70557e-05
97 *2781:A *350:120 0.000625419
98 *2781:C *350:120 2.74126e-06
99 *2790:C1 *350:120 0.000299125
100 *2790:C1 *350:140 0.000504134
101 *2804:A2 *350:40 5.80482e-06
102 *2804:B1 *350:40 0.00041851
103 *2804:C1 *350:50 0.000121039
104 *2807:A1 *350:40 1.97069e-05
105 *2807:A2 *350:40 3.79229e-05
106 *2807:B1 *350:40 0.00024033
107 *2808:A2 *350:106 0.000148216
108 *2809:A3 *350:40 9.09788e-06
109 *2826:A *350:106 0
110 *2861:A *350:10 7.35729e-05
111 *3151:D *350:40 0.000108403
112 *3163:D *350:12 0
113 *3200:D *2979:A 1.56428e-05
114 *3222:D *350:140 4.43871e-06
115 *3260:D *350:106 2.75229e-05
116 *3285:A *350:140 6.63219e-06
117 *174:18 *350:120 4.66108e-05
118 *176:51 *2979:A 0.00037386
119 *177:75 *350:140 0
120 *181:90 *350:50 0.000196084
121 *182:50 *350:140 0
122 *187:24 *350:140 7.58604e-05
123 *191:20 *2979:A 0.000267633
124 *191:20 *350:120 0
125 *191:30 *2979:A 2.12717e-05
126 *197:143 *350:140 7.98352e-05
127 *197:143 *350:152 0.000260928
128 *202:24 *350:140 0.00018097
129 *211:94 *350:106 0.000289811
130 *218:102 *350:140 0.000604065
131 *235:18 *2995:A 3.14155e-05
132 *235:18 *3102:A1 0.000338363
133 *291:40 *350:140 0
134 *322:8 *350:106 0.000184531
135 *325:16 *350:106 4.47209e-05
136 *345:53 *3102:A1 0.000138309
*RES
1 *2861:X *350:4 1.6 
2 *350:4 *350:10 8.33 
3 *350:10 *350:12 3.675 
4 *350:12 *350:40 43.67 
5 *350:40 *350:50 32.69 
6 *350:50 *2588:A1 4.465 
7 *350:50 *2568:A1 9.785 
8 *350:40 *2886:A 6.45 
9 *350:12 *2862:A 4.05 
10 *350:10 *350:106 36.43 
11 *350:106 *350:120 18.56 
12 *350:120 *350:140 19.75 
13 *350:140 *350:152 21.45 
14 *350:152 *2995:A 6.645 
15 *350:152 *3102:A1 11.64 
16 *350:140 *3097:A1 1.6 
17 *350:120 *3113:A1 1.6 
18 *350:106 *2979:A 24.895 
19 *350:4 *2643:A2 6.205 
*END

*D_NET *351 0.0227667
*CONN
*I *2974:A0 I *D sky130_fd_sc_hd__mux2_1
*I *2969:A0 I *D sky130_fd_sc_hd__mux2_1
*I *2944:A0 I *D sky130_fd_sc_hd__mux2_1
*I *2868:A0 I *D sky130_fd_sc_hd__mux2_1
*I *2956:A0 I *D sky130_fd_sc_hd__mux2_1
*I *2950:A0 I *D sky130_fd_sc_hd__mux2_1
*I *2932:A0 I *D sky130_fd_sc_hd__mux2_1
*I *2876:A0 I *D sky130_fd_sc_hd__mux2_1
*I *2882:A0 I *D sky130_fd_sc_hd__mux2_1
*I *2909:A0 I *D sky130_fd_sc_hd__mux2_1
*I *2862:X O *D sky130_fd_sc_hd__buf_2
*CAP
1 *2974:A0 0.000315715
2 *2969:A0 0
3 *2944:A0 0
4 *2868:A0 0.0003913
5 *2956:A0 0.000480903
6 *2950:A0 0
7 *2932:A0 0
8 *2876:A0 0.00039986
9 *2882:A0 0
10 *2909:A0 0.000380922
11 *2862:X 0.000169587
12 *351:164 0.000985514
13 *351:123 0.00102277
14 *351:109 0.00042687
15 *351:78 0.000444282
16 *351:52 0.00127192
17 *351:34 0.00207256
18 *351:12 0.00140679
19 *351:10 0.000714762
20 *351:6 0.00100819
21 *2868:A0 *2721:A1 5.85534e-05
22 *2868:A0 *2721:B2 4.20047e-05
23 *2868:A0 *2868:A1 2.11084e-05
24 *2868:A0 *2868:S 8.8266e-05
25 *2868:A0 *2873:A 6.36578e-05
26 *2868:A0 *3328:A 9.14049e-05
27 *2868:A0 *3349:A 2.26018e-05
28 *2868:A0 *359:77 0
29 *2876:A0 *2876:A1 8.41307e-05
30 *2876:A0 *2933:A 0.000110555
31 *2876:A0 *3327:A 1.61831e-05
32 *2876:A0 *528:47 2.16833e-05
33 *2876:A0 *606:8 0.000232111
34 *2876:A0 *715:41 0.000463931
35 *2909:A0 *2723:A1 0.000156572
36 *2909:A0 *2882:A1 4.77807e-05
37 *2909:A0 *2909:A1 1.16578e-05
38 *2909:A0 *2909:S 4.92062e-05
39 *2909:A0 *2911:A0 0.000163992
40 *2909:A0 *2926:A1 2.66906e-05
41 *2909:A0 *359:39 0.000635409
42 *2909:A0 *369:33 9.47962e-06
43 *2909:A0 *901:10 0.000293726
44 *2909:A0 *916:10 2.52029e-05
45 *2956:A0 *2721:A1 2.30776e-05
46 *2956:A0 *2799:A2 8.8266e-05
47 *2956:A0 *2799:B2 4.66108e-05
48 *2956:A0 *2956:A1 3.79351e-05
49 *2956:A0 *3450:A 0.000201508
50 *2956:A0 *359:62 4.77719e-05
51 *2956:A0 *889:10 4.38157e-05
52 *2956:A0 *913:10 0.000114326
53 *2974:A0 *2744:A 0.000182906
54 *2974:A0 *2745:A1 0.000114518
55 *2974:A0 *511:22 0.00034839
56 *351:12 *2727:A1 0.00026784
57 *351:12 *2950:A1 0.000157172
58 *351:12 *3336:A 0.00014294
59 *351:34 *2727:A1 0.000348207
60 *351:34 *2870:A 4.18834e-05
61 *351:34 *2892:A 1.34503e-05
62 *351:34 *2951:A 0.000120573
63 *351:34 *358:6 3.09179e-05
64 *351:34 *358:67 0.000292059
65 *351:34 *400:12 0.000128545
66 *351:34 *605:16 0
67 *351:34 *606:8 2.65086e-05
68 *351:34 *796:32 6.92569e-05
69 *351:52 *2802:B2 0
70 *351:52 *2882:A1 0.000110537
71 *351:52 *2883:A 0.00016082
72 *351:52 *2916:A0 9.62444e-05
73 *351:52 *2916:S 6.43122e-05
74 *351:52 *2917:A 0.000157551
75 *351:52 *359:10 0.000114492
76 *351:52 *359:35 0.000249921
77 *351:52 *388:12 0.00015639
78 *351:52 *608:46 5.73518e-05
79 *351:52 *904:10 0
80 *351:52 *916:10 3.00381e-05
81 *351:78 *3327:A 1.37328e-05
82 *351:109 *2952:A1 7.4027e-05
83 *351:109 *3136:CLK 9.12494e-06
84 *351:109 *3312:A 0
85 *351:109 *356:14 0.000302175
86 *351:109 *592:24 0.000338514
87 *351:123 *2721:B2 9.22481e-05
88 *351:123 *2944:A1 8.23457e-05
89 *351:123 *3136:CLK 0.000142344
90 *351:123 *356:14 5.13924e-05
91 *351:164 *3352:A 0
92 *351:164 *356:14 0
93 *351:164 *511:22 0.000673242
94 *2730:A3 *351:52 0.000160635
95 *2730:B1 *351:52 7.63204e-05
96 *2752:A *351:34 5.29813e-05
97 *2799:B1 *2956:A0 3.96653e-05
98 *2804:C1 *2909:A0 0.000286022
99 *2806:A *351:34 9.61321e-05
100 *2807:A2 *351:34 7.19229e-05
101 *2809:A3 *351:34 0
102 *2826:B *351:164 8.58145e-05
103 *2827:A *351:164 6.28843e-05
104 *2862:A *351:6 1.83847e-05
105 *3163:D *351:109 0.000143955
106 *3163:D *351:164 0
107 *187:53 *351:52 0.000101299
108 *202:24 *2876:A0 0.000263651
109 *231:59 *351:52 0.000337339
110 *316:14 *351:164 0.000257793
111 *323:55 *2974:A0 0.000128172
112 *323:55 *351:164 0.000282313
113 *325:56 *351:34 3.43427e-05
114 *350:12 *351:164 0.000135539
115 *350:106 *351:164 3.84331e-05
*RES
1 *2862:X *351:6 3.43 
2 *351:6 *351:10 2.61 
3 *351:10 *351:12 4.935 
4 *351:12 *351:34 25.985 
5 *351:34 *351:52 24.085 
6 *351:52 *2909:A0 17.45 
7 *351:52 *2882:A0 1.6 
8 *351:34 *351:78 0.87 
9 *351:78 *2876:A0 15.77 
10 *351:78 *2932:A0 1.6 
11 *351:12 *2950:A0 1.6 
12 *351:10 *351:109 10.01 
13 *351:109 *351:123 9.15 
14 *351:123 *2956:A0 14.42 
15 *351:123 *2868:A0 12.335 
16 *351:109 *2944:A0 3.6 
17 *351:6 *351:164 21.23 
18 *351:164 *2969:A0 3.6 
19 *351:164 *2974:A0 11.13 
*END

*D_NET *352 0.00690353
*CONN
*I *2942:C I *D sky130_fd_sc_hd__or3_4
*I *2866:A I *D sky130_fd_sc_hd__or2_1
*I *2895:C I *D sky130_fd_sc_hd__or4b_4
*I *2918:A I *D sky130_fd_sc_hd__or3b_2
*I *2863:X O *D sky130_fd_sc_hd__or2b_1
*CAP
1 *2942:C 0
2 *2866:A 8.12388e-06
3 *2895:C 2.61002e-05
4 *2918:A 0.000351598
5 *2863:X 0.00031925
6 *352:42 0.00142535
7 *352:26 0.00120707
8 *352:20 0.000470536
9 *2866:A *355:18 3.72418e-05
10 *2918:A *2895:B 2.0187e-05
11 *2918:A *365:26 0.0001059
12 *2918:A *376:6 8.64421e-05
13 *2918:A *380:10 1.02125e-05
14 *2918:A *474:55 0.000131627
15 *352:20 *3032:A 0.000136126
16 *352:26 *2880:C 0.00013385
17 *352:26 *415:31 4.09597e-05
18 *352:42 *2698:C 2.8323e-05
19 *352:42 *3048:B 0.000193136
20 *352:42 *3049:A 4.80058e-05
21 *352:42 *355:18 4.85763e-05
22 *352:42 *370:8 9.08362e-05
23 *352:42 *370:14 4.02502e-05
24 *352:42 *432:52 0.000155608
25 *352:42 *432:72 4.66108e-05
26 *2880:B *352:20 1.9767e-05
27 *2880:B *352:26 3.59499e-05
28 *2887:A *2866:A 4.77757e-05
29 *2887:A *352:42 0.0001949
30 *2895:A *2918:A 8.46818e-05
31 *2918:B *2918:A 8.09052e-05
32 *2942:A *352:20 5.88596e-05
33 *2942:B *352:20 0.000391191
34 *2954:D *352:20 1.84258e-05
35 *3463:A *352:42 0.000340277
36 *176:51 *352:42 1.87913e-05
37 *317:38 *352:20 4.19311e-05
38 *317:40 *352:20 6.72738e-05
39 *317:69 *352:42 0.000197294
40 *317:81 *352:42 8.46818e-05
41 *319:39 *352:20 5.05437e-05
42 *323:55 *352:20 5.83121e-06
43 *336:28 *352:26 0
44 *340:29 *352:20 2.53191e-06
45 *340:47 *2918:A 0
*RES
1 *2863:X *352:20 13.16 
2 *352:20 *352:26 6.655 
3 *352:26 *352:42 17.985 
4 *352:42 *2918:A 12.965 
5 *352:42 *2895:C 2.215 
6 *352:26 *2866:A 2.05 
7 *352:20 *2942:C 1.6 
*END

*D_NET *353 0.00167745
*CONN
*I *2865:B I *D sky130_fd_sc_hd__or2_1
*I *2864:Y O *D sky130_fd_sc_hd__nand2_1
*CAP
1 *2865:B 0.000278389
2 *2864:Y 0.000278389
3 *2865:B *2874:B 5.7603e-05
4 *2865:B *3290:A 3.59784e-05
5 *2865:B *361:12 8.34281e-06
6 *2865:B *595:10 3.64998e-06
7 *2823:A *2865:B 4.86483e-05
8 *2823:B *2865:B 0.000172839
9 *2844:A1_N *2865:B 8.49205e-05
10 *2845:A1 *2865:B 1.74678e-05
11 *2853:A2_N *2865:B 0.000134737
12 *2853:B2 *2865:B 4.66108e-05
13 *2874:A *2865:B 6.60853e-05
14 *317:12 *2865:B 0.00013499
15 *323:55 *2865:B 0.00026102
16 *336:28 *2865:B 4.77769e-05
*RES
1 *2864:Y *2865:B 14.865 
*END

*D_NET *354 0.00151829
*CONN
*I *2874:B I *D sky130_fd_sc_hd__or2_2
*I *2866:B I *D sky130_fd_sc_hd__or2_1
*I *2880:C I *D sky130_fd_sc_hd__or3_2
*I *2865:X O *D sky130_fd_sc_hd__or2_1
*CAP
1 *2874:B 6.39761e-05
2 *2866:B 1.17698e-05
3 *2880:C 0.000205487
4 *2865:X 0
5 *354:23 0.000106634
6 *354:4 0.000236375
7 *354:23 *415:31 6.8352e-05
8 *2853:A2_N *2874:B 0.000100676
9 *2853:A2_N *354:23 3.72952e-05
10 *2865:B *2874:B 5.7603e-05
11 *2887:A *2866:B 4.77807e-05
12 *2887:A *2874:B 7.20926e-05
13 *336:22 *2880:C 8.67465e-06
14 *336:28 *2866:B 4.66108e-05
15 *336:28 *2874:B 0.00013346
16 *336:28 *2880:C 0.000156214
17 *345:8 *354:23 3.14383e-05
18 *352:26 *2880:C 0.00013385
*RES
1 *2865:X *354:4 1.6 
2 *354:4 *2880:C 9.065 
3 *354:4 *354:23 4.87 
4 *354:23 *2866:B 2.05 
5 *354:23 *2874:B 3.895 
*END

*D_NET *355 0.0104779
*CONN
*I *3055:A I *D sky130_fd_sc_hd__or2_1
*I *2552:A I *D sky130_fd_sc_hd__or2_1
*I *2968:A I *D sky130_fd_sc_hd__or2_1
*I *2867:B I *D sky130_fd_sc_hd__or2_1
*I *2866:X O *D sky130_fd_sc_hd__or2_1
*CAP
1 *3055:A 0.000154551
2 *2552:A 0.000310713
3 *2968:A 0.000247387
4 *2867:B 0.000210471
5 *2866:X 0.000608347
6 *355:34 0.000552392
7 *355:32 0.00116373
8 *355:18 0.00152138
9 *2552:A *2780:A1 0.000120326
10 *2552:A *527:16 0.000121027
11 *2552:A *527:18 9.55476e-05
12 *2552:A *759:47 2.43962e-05
13 *2867:B *2740:A1 5.23532e-05
14 *2968:A *2620:A1 6.81888e-05
15 *2968:A *2769:A 1.32102e-05
16 *2968:A *2780:A1 7.26597e-05
17 *2968:A *3428:A 0.000269343
18 *2968:A *884:6 1.22325e-05
19 *3055:A *3055:B 4.82863e-05
20 *3055:A *3056:A1 5.88334e-05
21 *355:18 *3055:B 0.000439006
22 *355:18 *361:33 0.000112211
23 *355:18 *407:16 0
24 *355:18 *415:31 0.000154807
25 *355:18 *419:126 9.84609e-06
26 *355:18 *594:8 0.000119018
27 *355:32 *2544:A 0.000111448
28 *355:32 *2740:A1 5.62528e-05
29 *355:32 *2743:A 7.11738e-05
30 *355:32 *2769:A 0.00027487
31 *355:32 *3055:B 9.50342e-06
32 *355:32 *3058:S 2.34345e-05
33 *355:32 *3373:A 0.000101876
34 *355:32 *641:31 7.06865e-05
35 *355:34 *2740:A1 8.99823e-05
36 *355:34 *2769:A 0.000178444
37 *2625:A0 *2867:B 5.51419e-05
38 *2672:A *355:32 0.00015212
39 *2745:B1 *355:32 7.1624e-05
40 *2751:B *2552:A 0.000121031
41 *2769:C *355:32 0.000367561
42 *2771:B *355:32 8.24503e-05
43 *2773:C *355:32 0.000290096
44 *2773:D *355:32 2.94708e-05
45 *2780:A3 *2552:A 2.78196e-05
46 *2853:A2_N *355:18 8.33066e-06
47 *2866:A *355:18 3.72418e-05
48 *2887:A *355:18 9.83376e-05
49 *2979:A *355:32 2.13396e-05
50 *3229:D *355:32 5.57079e-05
51 *174:18 *355:32 0.000237852
52 *191:20 *355:32 0.000334596
53 *211:18 *355:32 1.8044e-05
54 *211:94 *2867:B 7.58976e-05
55 *215:72 *355:18 0.000285003
56 *215:72 *355:32 9.58552e-05
57 *231:36 *355:32 0.000102409
58 *322:31 *2867:B 1.16578e-05
59 *322:55 *2867:B 2.54522e-05
60 *350:106 *2867:B 0.000207523
61 *350:106 *355:32 1.38403e-05
62 *350:106 *355:34 5.49824e-05
63 *352:42 *355:18 4.85763e-05
*RES
1 *2866:X *355:18 20.755 
2 *355:18 *355:32 21.495 
3 *355:32 *355:34 2.91 
4 *355:34 *2867:B 8.73 
5 *355:34 *2968:A 8.895 
6 *355:32 *2552:A 13.615 
7 *355:18 *3055:A 5.805 
*END

*D_NET *356 0.00624438
*CONN
*I *2872:S I *D sky130_fd_sc_hd__mux2_1
*I *2868:S I *D sky130_fd_sc_hd__mux2_1
*I *2867:X O *D sky130_fd_sc_hd__or2_1
*CAP
1 *2872:S 0
2 *2868:S 0.000223472
3 *2867:X 0.0008978
4 *356:14 0.00112127
5 *2868:S *2799:A1 0.00036385
6 *2868:S *2799:B2 0.000157602
7 *2868:S *3349:A 6.69341e-05
8 *356:14 *2624:A 0.000115782
9 *356:14 *2721:A1 6.98629e-05
10 *356:14 *2799:A1 0.000177568
11 *356:14 *2799:A2 0
12 *356:14 *2799:B2 0.000187071
13 *356:14 *2808:A1 1.7635e-05
14 *356:14 *2953:A 0.000314452
15 *356:14 *3136:CLK 5.04591e-05
16 *356:14 *3352:A 9.3062e-06
17 *356:14 *408:12 0.000219447
18 *356:14 *416:12 4.49328e-05
19 *2799:B1 *356:14 7.21296e-06
20 *2800:C1 *356:14 0.000125908
21 *2808:A2 *356:14 8.754e-05
22 *2826:A *356:14 2.66935e-05
23 *2826:B *356:14 0
24 *2868:A0 *2868:S 8.8266e-05
25 *3163:D *356:14 0.00051612
26 *3260:D *356:14 0.000271341
27 *3270:D *356:14 9.37396e-05
28 *211:94 *356:14 0
29 *316:14 *356:14 0
30 *322:31 *356:14 1.56428e-05
31 *325:16 *356:14 0.000489658
32 *325:31 *356:14 0
33 *350:106 *356:14 0.000131246
34 *351:109 *356:14 0.000302175
35 *351:123 *356:14 5.13924e-05
36 *351:164 *356:14 0
*RES
1 *2867:X *356:14 30.81 
2 *356:14 *2868:S 9.315 
3 *356:14 *2872:S 3.6 
*END

*D_NET *357 0.000328964
*CONN
*I *2869:A I *D sky130_fd_sc_hd__clkbuf_1
*I *2868:X O *D sky130_fd_sc_hd__mux2_1
*CAP
1 *2869:A 0.000164482
2 *2868:X 0.000164482
*RES
1 *2868:X *2869:A 9.735 
*END

*D_NET *358 0.0292017
*CONN
*I *2892:A I *D sky130_fd_sc_hd__clkbuf_4
*I *3115:A1 I *D sky130_fd_sc_hd__mux2_1
*I *3099:A1 I *D sky130_fd_sc_hd__mux2_1
*I *3104:A1 I *D sky130_fd_sc_hd__mux2_1
*I *2976:A I *D sky130_fd_sc_hd__clkbuf_4
*I *3088:A I *D sky130_fd_sc_hd__buf_2
*I *2999:A I *D sky130_fd_sc_hd__clkbuf_4
*I *2871:A I *D sky130_fd_sc_hd__buf_2
*I *2570:A1 I *D sky130_fd_sc_hd__mux2_1
*I *2590:A1 I *D sky130_fd_sc_hd__mux2_1
*I *2870:X O *D sky130_fd_sc_hd__clkbuf_4
*CAP
1 *2892:A 0.000347753
2 *3115:A1 0
3 *3099:A1 0.000109053
4 *3104:A1 9.28449e-05
5 *2976:A 0
6 *3088:A 0
7 *2999:A 9.73269e-05
8 *2871:A 0
9 *2570:A1 3.37995e-05
10 *2590:A1 0.000280693
11 *2870:X 0
12 *358:107 0.000304631
13 *358:99 0.0003921
14 *358:93 0.00064502
15 *358:85 0.00219632
16 *358:67 0.00337326
17 *358:20 0.00422166
18 *358:8 0.00393599
19 *358:6 0.00171664
20 *358:4 0.000382202
21 *2570:A1 *2568:S 1.34017e-05
22 *2570:A1 *2570:A0 2.75229e-05
23 *2590:A1 *2568:S 0.000104118
24 *2590:A1 *2793:B2 0
25 *2590:A1 *926:10 0
26 *2892:A *2727:A1 0.00018912
27 *2892:A *374:16 5.16418e-05
28 *2999:A *442:16 0.000174458
29 *2999:A *442:142 0.00012349
30 *2999:A *500:8 0.000106716
31 *3099:A1 *3099:A0 6.95753e-05
32 *3099:A1 *419:88 0.00023636
33 *3104:A1 *3104:A0 0.000190228
34 *3104:A1 *3104:S 9.50342e-06
35 *358:20 *608:46 0.000146115
36 *358:67 *2622:B 0
37 *358:67 *2908:C 0.000179195
38 *358:67 *2986:S 6.54361e-06
39 *358:67 *3113:A0 7.23602e-05
40 *358:67 *3113:S 6.00734e-05
41 *358:67 *3115:A0 4.0843e-05
42 *358:67 *3228:CLK 0
43 *358:67 *3301:A 1.88602e-05
44 *358:67 *400:12 0.000135903
45 *358:67 *511:38 4.82919e-05
46 *358:67 *511:70 0.00011852
47 *358:67 *528:10 0
48 *358:67 *590:14 8.41015e-06
49 *358:67 *608:24 0.000656334
50 *358:67 *608:46 0.000593887
51 *358:67 *715:20 0.000328202
52 *358:85 *3081:A1 0.000211063
53 *358:85 *3083:A0 5.71298e-05
54 *358:85 *3083:S 0.00016063
55 *358:85 *3084:A 0.000177734
56 *358:85 *3115:A0 2.937e-05
57 *358:85 *3116:A 0.000222169
58 *358:85 *3223:CLK 8.40269e-05
59 *358:85 *419:88 0.000203769
60 *358:85 *476:46 0.000643488
61 *358:85 *500:141 0.00011822
62 *358:85 *511:70 0.000238321
63 *358:85 *824:8 4.65515e-05
64 *358:93 *3217:CLK 4.99619e-05
65 *358:93 *830:12 3.57786e-05
66 *358:99 *3104:A0 0.000179467
67 *358:99 *430:10 4.82863e-05
68 *358:99 *476:46 7.32667e-05
69 *358:99 *511:70 9.73758e-05
70 *358:107 *430:10 0
71 *358:107 *442:142 0.000198425
72 *358:107 *476:46 3.26084e-05
73 *358:107 *500:8 1.60203e-05
74 *358:107 *500:141 0.00012657
75 *2547:A *2570:A1 4.82919e-05
76 *2587:A *358:20 0
77 *2673:B *358:67 8.09021e-06
78 *2701:C *358:93 0.000122325
79 *2702:B1 *3104:A1 6.66995e-05
80 *2718:A *2570:A1 0
81 *2718:A *2590:A1 0
82 *2720:D1 *3104:A1 2.31397e-05
83 *2720:D1 *358:99 4.40899e-05
84 *2751:C *358:67 3.11035e-05
85 *2752:A *358:67 0.000529895
86 *2753:B1 *3099:A1 0.000325813
87 *2753:B1 *358:85 0.000202102
88 *2753:B2 *358:67 0.000370561
89 *2778:A *358:67 0
90 *2781:C *358:67 2.16389e-05
91 *2793:A2 *2590:A1 0.000103192
92 *2793:B1 *2590:A1 4.40812e-05
93 *2806:A *2892:A 4.92096e-05
94 *2806:A *358:6 4.21973e-05
95 *2806:A *358:8 6.26945e-05
96 *2806:A *358:20 0.000170895
97 *2806:C *2892:A 5.33085e-05
98 *2809:A3 *2892:A 0
99 *2809:A3 *358:67 0
100 *2913:B *358:20 0
101 *2995:A *2999:A 0.000200099
102 *2995:A *358:107 3.6355e-05
103 *3102:A1 *358:107 0
104 *3217:D *358:93 1.54049e-05
105 *3223:D *358:85 9.00919e-05
106 *187:43 *358:67 8.20942e-05
107 *187:53 *2892:A 0
108 *208:26 *358:20 2.38558e-05
109 *231:46 *358:67 0.000433442
110 *316:39 *358:67 6.57426e-05
111 *322:76 *358:67 2.68526e-05
112 *325:56 *2892:A 4.82863e-05
113 *325:56 *358:6 0.000160635
114 *325:56 *358:8 0.000122325
115 *325:56 *358:20 0.000300221
116 *325:58 *358:20 1.22676e-05
117 *325:100 *358:20 3.90866e-05
118 *351:34 *2892:A 1.34503e-05
119 *351:34 *358:6 3.09179e-05
120 *351:34 *358:67 0.000292059
*RES
1 *2870:X *358:4 1.6 
2 *358:4 *358:6 1.485 
3 *358:6 *358:8 1.14 
4 *358:8 *358:20 13.9583 
5 *358:20 *2590:A1 9.1875 
6 *358:20 *2570:A1 4.5375 
7 *358:8 *2871:A 1.6 
8 *358:6 *358:67 46.55 
9 *358:67 *358:85 30.905 
10 *358:85 *358:93 9.385 
11 *358:93 *358:99 6.245 
12 *358:99 *358:107 8.485 
13 *358:107 *2999:A 5.5 
14 *358:107 *3088:A 1.6 
15 *358:99 *2976:A 1.6 
16 *358:93 *3104:A1 6 
17 *358:85 *3099:A1 7.53 
18 *358:67 *3115:A1 1.6 
19 *358:4 *2892:A 11.15 
*END

*D_NET *359 0.0215837
*CONN
*I *2878:A0 I *D sky130_fd_sc_hd__mux2_1
*I *2884:A0 I *D sky130_fd_sc_hd__mux2_1
*I *2958:A0 I *D sky130_fd_sc_hd__mux2_1
*I *2971:A0 I *D sky130_fd_sc_hd__mux2_1
*I *2629:A I *D sky130_fd_sc_hd__xnor2_1
*I *2952:A0 I *D sky130_fd_sc_hd__mux2_1
*I *2946:A0 I *D sky130_fd_sc_hd__mux2_1
*I *2872:A0 I *D sky130_fd_sc_hd__mux2_1
*I *2911:A0 I *D sky130_fd_sc_hd__mux2_1
*I *2934:A0 I *D sky130_fd_sc_hd__mux2_1
*I *2871:X O *D sky130_fd_sc_hd__buf_2
*CAP
1 *2878:A0 0.000150816
2 *2884:A0 9.17657e-05
3 *2958:A0 0
4 *2971:A0 0.000787469
5 *2629:A 7.95201e-05
6 *2952:A0 0.000298534
7 *2946:A0 4.34131e-05
8 *2872:A0 0
9 *2911:A0 0.000249065
10 *2934:A0 3.69588e-05
11 *2871:X 0.000250495
12 *359:99 0.000981221
13 *359:88 0.000642763
14 *359:77 0.000992155
15 *359:66 0.00100797
16 *359:62 0.00184241
17 *359:39 0.0022726
18 *359:37 0.00114038
19 *359:35 0.00146344
20 *359:10 0.00102182
21 *2878:A0 *2562:A 0.000154954
22 *2878:A0 *366:10 0
23 *2878:A0 *918:10 6.61627e-05
24 *2884:A0 *2804:B2 0.00021242
25 *2911:A0 *2909:S 9.91703e-05
26 *2911:A0 *2915:A 0
27 *2946:A0 *2946:A1 8.52972e-05
28 *2946:A0 *2946:S 3.56402e-05
29 *2952:A0 *2952:S 8.49205e-05
30 *2971:A0 *3271:RESET_B 9.86707e-06
31 *2971:A0 *3411:A 0.000176637
32 *2971:A0 *511:22 0
33 *2971:A0 *592:18 0
34 *2971:A0 *593:69 0.000150931
35 *2971:A0 *593:106 6.87525e-05
36 *2971:A0 *593:123 4.49328e-05
37 *2971:A0 *796:32 4.13092e-05
38 *359:10 *608:46 0.000117832
39 *359:35 *2801:A1 0.000198945
40 *359:35 *2932:A1 4.05358e-05
41 *359:35 *3327:A 4.41506e-05
42 *359:35 *606:27 0.00012541
43 *359:35 *606:33 9.27326e-05
44 *359:35 *608:46 0.000505589
45 *359:35 *902:8 0.000119866
46 *359:35 *919:10 8.40213e-05
47 *359:37 *2562:A 4.9968e-05
48 *359:37 *2801:B2 9.29751e-06
49 *359:37 *2884:A1 2.67022e-05
50 *359:37 *2920:A0 2.67022e-05
51 *359:37 *2922:A0 2.87867e-05
52 *359:37 *3156:CLK 0
53 *359:37 *3439:A 6.18754e-05
54 *359:37 *366:10 0
55 *359:37 *916:10 1.71013e-05
56 *359:39 *2915:A 0
57 *359:39 *3140:CLK 0
58 *359:39 *916:10 5.83373e-05
59 *359:62 *2894:A 8.40213e-05
60 *359:62 *2940:S 4.43682e-05
61 *359:62 *2956:A1 4.35432e-05
62 *359:62 *2956:S 0.000238919
63 *359:62 *2957:A 7.07148e-05
64 *359:62 *2959:A 6.97202e-05
65 *359:62 *3142:CLK 0.000127476
66 *359:62 *3314:A 5.0751e-05
67 *359:62 *3436:A 0.000397431
68 *359:62 *605:52 2.11344e-05
69 *359:62 *913:10 0.000189357
70 *359:66 *2872:A1 4.66108e-05
71 *359:66 *2956:S 1.12578e-05
72 *359:66 *2958:A1 0.00014825
73 *359:77 *2872:A1 4.66108e-05
74 *359:77 *2873:A 0
75 *359:77 *2945:A 0.000320691
76 *359:77 *2958:A1 3.24882e-05
77 *359:77 *3328:A 0.000260389
78 *359:77 *3451:A 9.47962e-06
79 *359:88 *2946:A1 3.72081e-05
80 *359:88 *592:18 0
81 *359:88 *592:79 0
82 *359:99 *2631:A 0
83 *359:99 *592:18 0
84 *2642:A2 *2971:A0 0
85 *2801:A2 *359:35 1.03323e-05
86 *2804:A2 *359:37 6.23927e-05
87 *2804:B1 *2884:A0 0.000206717
88 *2804:C1 *359:37 1.26626e-05
89 *2804:C1 *359:39 8.95269e-05
90 *2806:A *359:10 0.000306259
91 *2809:A1 *2878:A0 0.000195586
92 *2868:A0 *359:77 0
93 *2909:A0 *2911:A0 0.000163992
94 *2909:A0 *359:39 0.000635409
95 *2956:A0 *359:62 4.77719e-05
96 *3142:D *359:62 1.74678e-05
97 *3156:D *359:37 0
98 *3271:D *2971:A0 1.94636e-05
99 *3272:D *359:99 0
100 *208:26 *359:37 7.90228e-05
101 *208:28 *359:37 3.77199e-05
102 *231:59 *359:35 7.63821e-05
103 *299:34 *359:35 0.000458588
104 *315:28 *2971:A0 0
105 *325:56 *2934:A0 4.66108e-05
106 *350:40 *2952:A0 0.000311294
107 *351:52 *359:10 0.000114492
108 *351:52 *359:35 0.000249921
*RES
1 *2871:X *359:10 7.845 
2 *359:10 *2934:A0 4.05 
3 *359:10 *359:35 20.665 
4 *359:35 *359:37 10.815 
5 *359:37 *359:39 9.795 
6 *359:39 *2911:A0 7.665 
7 *359:39 *359:62 26.66 
8 *359:62 *359:66 3.825 
9 *359:66 *2872:A0 1.6 
10 *359:66 *359:77 13.49 
11 *359:77 *2946:A0 4.74 
12 *359:77 *359:88 3.93 
13 *359:88 *2952:A0 9.225 
14 *359:88 *359:99 1.89 
15 *359:99 *2629:A 4.74 
16 *359:99 *2971:A0 19.515 
17 *359:62 *2958:A0 1.6 
18 *359:37 *2884:A0 6.585 
19 *359:35 *2878:A0 7.32 
*END

*D_NET *360 0.000465723
*CONN
*I *2873:A I *D sky130_fd_sc_hd__clkbuf_1
*I *2872:X O *D sky130_fd_sc_hd__mux2_1
*CAP
1 *2873:A 0.000114659
2 *2872:X 0.000114659
3 *2873:A *2721:B2 0.000140912
4 *2873:A *2958:A1 3.1835e-05
5 *2868:A0 *2873:A 6.36578e-05
6 *359:77 *2873:A 0
*RES
1 *2872:X *2873:A 9.63 
*END

*D_NET *361 0.0343706
*CONN
*I *2973:A I *D sky130_fd_sc_hd__or2_1
*I *2557:A I *D sky130_fd_sc_hd__or2_1
*I *2875:B I *D sky130_fd_sc_hd__or2_1
*I *3060:A I *D sky130_fd_sc_hd__or2_1
*I *2874:X O *D sky130_fd_sc_hd__or2_2
*CAP
1 *2973:A 0.000301616
2 *2557:A 0.00182817
3 *2875:B 2.51931e-05
4 *3060:A 0.00332951
5 *2874:X 9.23301e-05
6 *361:45 0.00383183
7 *361:33 0.00445995
8 *361:12 0.00560172
9 *2557:A *2791:B2 0
10 *2557:A *365:58 0.000156299
11 *2557:A *385:16 8.8391e-05
12 *2557:A *590:54 0.00156544
13 *2557:A *590:56 0.000296938
14 *2557:A *590:66 0.0010066
15 *2557:A *606:58 0.0001673
16 *2875:B *2567:A 4.66108e-05
17 *2973:A *2545:A 1.47256e-05
18 *2973:A *2977:S 0.000303575
19 *2973:A *419:43 0.000236114
20 *2973:A *428:6 3.74161e-05
21 *2973:A *641:31 4.14882e-05
22 *2973:A *774:83 0.000123225
23 *2973:A *775:97 4.00541e-06
24 *3060:A *3037:A 0.00010703
25 *3060:A *3070:A 0.00140203
26 *3060:A *3290:A 2.78131e-05
27 *3060:A *365:12 0.00176518
28 *3060:A *365:26 0.000149259
29 *3060:A *371:12 0.000303195
30 *3060:A *411:12 0.000106163
31 *3060:A *590:145 0
32 *361:12 *3032:A 4.01548e-05
33 *361:12 *407:16 0.000136231
34 *361:33 *2943:B 0.00122502
35 *361:33 *3290:A 2.31305e-06
36 *361:33 *3304:A 0.000527896
37 *361:45 *2567:A 0.0001947
38 *361:45 *2747:A1 0
39 *361:45 *2774:A 0.000372587
40 *361:45 *2988:A1 0.000770644
41 *361:45 *3396:A 0.00011107
42 *361:45 *403:22 0.000943792
43 *361:45 *419:43 0.000574017
44 *2603:A0 *2557:A 4.20645e-05
45 *2744:B *2973:A 1.88602e-05
46 *2753:B1 *2557:A 0.000619007
47 *2844:A1_N *361:12 0.000118081
48 *2853:B2 *361:12 2.49909e-05
49 *2865:B *361:12 8.34281e-06
50 *2874:A *361:12 4.77719e-05
51 *2948:A *3060:A 0.000117275
52 *2948:A *361:33 1.09082e-05
53 *187:43 *361:45 4.21127e-05
54 *202:24 *361:45 0.000188006
55 *211:150 *361:45 8.92074e-05
56 *212:38 *361:45 1.08555e-05
57 *215:72 *361:12 0.000168853
58 *218:144 *3060:A 0
59 *235:18 *3060:A 1.88602e-05
60 *345:29 *3060:A 0.000396733
61 *350:106 *2973:A 1.88602e-05
62 *355:18 *361:33 0.000112211
*RES
1 *2874:X *361:12 7.2575 
2 *361:12 *3060:A 12.353 
3 *361:12 *361:33 5.1534 
4 *361:33 *361:45 19.9654 
5 *361:45 *2875:B 2.05 
6 *361:45 *2557:A 14.5347 
7 *361:33 *2973:A 8.95097 
*END

*D_NET *362 0.00182389
*CONN
*I *2876:S I *D sky130_fd_sc_hd__mux2_1
*I *2878:S I *D sky130_fd_sc_hd__mux2_1
*I *2875:X O *D sky130_fd_sc_hd__or2_1
*CAP
1 *2876:S 0.000100518
2 *2878:S 7.75231e-05
3 *2875:X 0.000120167
4 *362:10 0.000298207
5 *2876:S *528:47 0.000458867
6 *2878:S *606:58 0.000105416
7 *362:10 *606:58 5.7164e-05
8 *2801:B1 *2878:S 0.00019943
9 *2801:B1 *362:10 4.14277e-05
10 *2875:A *362:10 2.97522e-05
11 *215:106 *2876:S 0.00026473
12 *215:147 *362:10 7.06865e-05
*RES
1 *2875:X *362:10 5.775 
2 *362:10 *2878:S 6 
3 *362:10 *2876:S 7.845 
*END

*D_NET *363 0.000434753
*CONN
*I *2877:A I *D sky130_fd_sc_hd__clkbuf_1
*I *2876:X O *D sky130_fd_sc_hd__mux2_1
*CAP
1 *2877:A 0.00011392
2 *2876:X 0.00011392
3 *2877:A *403:22 0.000116158
4 *2877:A *528:47 4.66742e-05
5 *202:24 *2877:A 4.40812e-05
*RES
1 *2876:X *2877:A 9.375 
*END

*D_NET *364 0.00110861
*CONN
*I *2879:A I *D sky130_fd_sc_hd__clkbuf_1
*I *2878:X O *D sky130_fd_sc_hd__mux2_1
*CAP
1 *2879:A 0.000222002
2 *2878:X 0.000222002
3 *2879:A *2562:A 0
4 *2879:A *366:10 0.00011381
5 *2879:A *528:47 0.000193801
6 *2809:A1 *2879:A 0.000163199
7 *2881:A *2879:A 0.000193801
*RES
1 *2878:X *2879:A 11.895 
*END

*D_NET *365 0.0270196
*CONN
*I *2881:B I *D sky130_fd_sc_hd__or2_1
*I *2562:A I *D sky130_fd_sc_hd__or2_1
*I *3065:A I *D sky130_fd_sc_hd__or2_1
*I *2980:A I *D sky130_fd_sc_hd__or2_1
*I *2880:X O *D sky130_fd_sc_hd__or3_2
*CAP
1 *2881:B 0
2 *2562:A 0.00100899
3 *3065:A 0.000629742
4 *2980:A 0
5 *2880:X 0.000743559
6 *365:58 0.00393501
7 *365:26 0.00134652
8 *365:12 0.00438636
9 *2562:A *2750:A1 0.000834039
10 *2562:A *2801:B2 9.07914e-05
11 *2562:A *3153:CLK 0.000405064
12 *2562:A *3403:A 9.018e-05
13 *2562:A *366:10 0
14 *2562:A *599:8 0.000875601
15 *2562:A *902:8 0.000307043
16 *3065:A *2993:A1 0
17 *3065:A *3065:B 6.26016e-05
18 *3065:A *3176:CLK 0.000134922
19 *3065:A *395:30 0.000174595
20 *3065:A *439:16 0.000116158
21 *3065:A *445:109 0.000194622
22 *365:12 *2851:B 0
23 *365:12 *370:20 0.00113405
24 *365:26 *2993:A1 0
25 *365:26 *370:28 0
26 *365:26 *376:6 0.000364513
27 *365:26 *376:18 0.000695006
28 *365:26 *380:10 9.17734e-05
29 *365:26 *419:88 0.000125211
30 *365:26 *445:109 8.89169e-05
31 *365:26 *474:55 0.0016552
32 *365:58 *3403:A 4.55864e-06
33 *365:58 *369:77 0
34 *365:58 *603:35 0.000129951
35 *365:58 *737:16 0
36 *365:58 *737:30 0
37 *2557:A *365:58 0.000156299
38 *2717:A2 *2562:A 0
39 *2719:A2 *2562:A 0.000140912
40 *2753:B1 *365:58 7.97152e-05
41 *2801:A2 *2562:A 0.000483725
42 *2878:A0 *2562:A 0.000154954
43 *2879:A *2562:A 0
44 *2895:A *365:26 0
45 *2918:A *365:26 0.0001059
46 *3007:A *365:26 3.33338e-05
47 *3050:A *365:26 0.000123058
48 *3060:A *365:12 0.00176518
49 *3060:A *365:26 0.000149259
50 *3153:D *2562:A 1.43717e-05
51 *190:28 *365:26 0
52 *208:26 *365:58 0.00327605
53 *299:34 *2562:A 0.0005129
54 *328:102 *2562:A 0.000107643
55 *336:28 *365:12 4.00257e-05
56 *345:29 *365:12 0.000149829
57 *345:29 *365:26 5.14468e-05
58 *359:37 *2562:A 4.9968e-05
*RES
1 *2880:X *365:12 7.3349 
2 *365:12 *365:26 25.2844 
3 *365:26 *2980:A 3.6 
4 *365:26 *3065:A 15.78 
5 *365:12 *365:58 9.1513 
6 *365:58 *2562:A 36.895 
7 *365:58 *2881:B 3.6 
*END

*D_NET *366 0.00345723
*CONN
*I *2884:S I *D sky130_fd_sc_hd__mux2_1
*I *2882:S I *D sky130_fd_sc_hd__mux2_1
*I *2881:X O *D sky130_fd_sc_hd__or2_1
*CAP
1 *2884:S 0
2 *2882:S 9.74172e-05
3 *2881:X 0.000656797
4 *366:10 0.000754214
5 *2882:S *369:12 0.000159262
6 *2882:S *916:10 4.80285e-05
7 *366:10 *2884:A1 7.23602e-05
8 *366:10 *2920:A0 7.23602e-05
9 *366:10 *2922:A0 7.4027e-05
10 *366:10 *369:12 0.000232353
11 *366:10 *369:64 0.000116158
12 *366:10 *369:77 0.000910613
13 *366:10 *528:47 4.82919e-05
14 *2562:A *366:10 0
15 *2804:C1 *2882:S 8.44437e-05
16 *2804:C1 *366:10 1.70935e-05
17 *2878:A0 *366:10 0
18 *2879:A *366:10 0.00011381
19 *359:37 *366:10 0
*RES
1 *2881:X *366:10 18.945 
2 *366:10 *2882:S 6.285 
3 *366:10 *2884:S 3.6 
*END

*D_NET *367 0.000824121
*CONN
*I *2883:A I *D sky130_fd_sc_hd__clkbuf_1
*I *2882:X O *D sky130_fd_sc_hd__mux2_1
*CAP
1 *2883:A 0.00030718
2 *2882:X 0.00030718
3 *2883:A *2882:A1 4.89395e-05
4 *351:52 *2883:A 0.00016082
*RES
1 *2882:X *2883:A 7.82 
*END

*D_NET *368 0.000808891
*CONN
*I *2885:A I *D sky130_fd_sc_hd__clkbuf_1
*I *2884:X O *D sky130_fd_sc_hd__mux2_1
*CAP
1 *2885:A 0.000155005
2 *2884:X 0.000155005
3 *2885:A *374:63 0.00024944
4 *350:50 *2885:A 0.00024944
*RES
1 *2884:X *2885:A 11.52 
*END

*D_NET *369 0.0256083
*CONN
*I *2964:A1 I *D sky130_fd_sc_hd__mux2_1
*I *2991:A1 I *D sky130_fd_sc_hd__mux2_1
*I *2986:A1 I *D sky130_fd_sc_hd__mux2_1
*I *2897:A1 I *D sky130_fd_sc_hd__mux2_1
*I *2903:A1 I *D sky130_fd_sc_hd__mux2_1
*I *2920:A1 I *D sky130_fd_sc_hd__mux2_1
*I *2914:A1 I *D sky130_fd_sc_hd__mux2_1
*I *2890:A1 I *D sky130_fd_sc_hd__mux2_1
*I *2938:A1 I *D sky130_fd_sc_hd__mux2_1
*I *2926:A1 I *D sky130_fd_sc_hd__mux2_1
*I *2886:X O *D sky130_fd_sc_hd__clkbuf_4
*CAP
1 *2964:A1 0.000190526
2 *2991:A1 0.000795925
3 *2986:A1 0.0010754
4 *2897:A1 2.72258e-05
5 *2903:A1 0.000380155
6 *2920:A1 0
7 *2914:A1 8.71022e-05
8 *2890:A1 0.000260615
9 *2938:A1 0.000159082
10 *2926:A1 0.000289387
11 *2886:X 3.38751e-05
12 *369:128 0.00197772
13 *369:107 0.00218266
14 *369:94 0.000367047
15 *369:77 0.00155665
16 *369:64 0.000993868
17 *369:35 0.00048513
18 *369:33 0.00045203
19 *369:12 0.000928314
20 *369:8 0.000414503
21 *2890:A1 *2890:S 8.65961e-05
22 *2890:A1 *2893:A0 0.000133592
23 *2890:A1 *2893:A1 0.000123225
24 *2890:A1 *2893:S 4.66108e-05
25 *2890:A1 *2894:A 7.8936e-05
26 *2890:A1 *905:10 6.97202e-05
27 *2897:A1 *2897:A0 0.000123225
28 *2897:A1 *3379:A 7.10578e-05
29 *2903:A1 *2737:A1 3.19993e-06
30 *2903:A1 *2903:A0 4.66108e-05
31 *2903:A1 *2903:S 7.51021e-05
32 *2903:A1 *3390:A 2.76356e-05
33 *2914:A1 *2914:A0 4.77807e-05
34 *2914:A1 *3399:A 1.43558e-05
35 *2914:A1 *715:41 4.77807e-05
36 *2926:A1 *2723:A1 0.000148735
37 *2926:A1 *2723:B2 0.000331801
38 *2926:A1 *2926:A0 0.000122325
39 *2926:A1 *2927:A 2.75229e-05
40 *2926:A1 *3314:A 4.66826e-05
41 *2926:A1 *900:10 3.00381e-05
42 *2926:A1 *901:10 0.000162332
43 *2938:A1 *2938:S 2.42236e-05
44 *2938:A1 *2941:A 7.4027e-05
45 *2938:A1 *385:16 0
46 *2938:A1 *404:10 0.000105776
47 *2938:A1 *605:52 3.68682e-05
48 *2964:A1 *2964:A0 0.000124895
49 *2964:A1 *2964:S 0.000243143
50 *2964:A1 *2967:A 6.51348e-05
51 *2964:A1 *3323:A 0
52 *2986:A1 *2986:A0 2.68464e-05
53 *2986:A1 *374:107 0.000123812
54 *2986:A1 *608:46 1.88602e-05
55 *2991:A1 *2966:S 6.97118e-05
56 *2991:A1 *2991:S 3.79437e-05
57 *2991:A1 *3012:A 4.79946e-05
58 *2991:A1 *3017:A 2.82846e-05
59 *2991:A1 *3176:CLK 5.30711e-05
60 *2991:A1 *3452:A 0.000257822
61 *2991:A1 *395:30 0.000194987
62 *369:8 *2607:A 4.82863e-05
63 *369:12 *396:12 0.000283817
64 *369:33 *2724:A1 1.83205e-05
65 *369:33 *3399:A 6.92161e-05
66 *369:33 *404:10 9.23517e-06
67 *369:33 *715:41 0.000305454
68 *369:33 *905:10 1.2667e-05
69 *369:35 *385:16 0
70 *369:35 *404:10 5.75152e-05
71 *369:35 *905:10 2.09514e-05
72 *369:64 *396:12 4.19797e-05
73 *369:77 *2584:A 0
74 *369:77 *3405:A 4.51806e-05
75 *369:77 *374:84 0.000429846
76 *369:77 *374:107 6.16203e-05
77 *369:77 *396:12 1.95374e-05
78 *369:94 *381:8 7.03276e-05
79 *369:107 *2897:A0 3.74161e-05
80 *369:107 *3379:A 0.000110923
81 *369:128 *2964:S 5.029e-05
82 *369:128 *2967:A 0.000126667
83 *369:128 *374:107 0.000136391
84 *369:128 *374:152 3.54874e-05
85 *369:128 *376:46 0.00186217
86 *369:128 *421:28 0.000135012
87 *2723:A2 *369:33 0.000156778
88 *2724:B1 *369:33 0.00060641
89 *2751:C *2986:A1 1.7635e-05
90 *2752:B *2903:A1 7.05599e-06
91 *2752:B *369:77 6.53867e-05
92 *2760:A2 *369:128 3.20436e-05
93 *2804:C1 *369:12 0.000113293
94 *2804:C1 *369:33 4.77807e-05
95 *2882:S *369:12 0.000159262
96 *2896:A *369:94 0.000174622
97 *2909:A0 *2926:A1 2.66906e-05
98 *2909:A0 *369:33 9.47962e-06
99 *2925:A *369:77 0.00015998
100 *2963:A *369:128 5.57963e-05
101 *3166:D *2991:A1 0
102 *3213:D *369:128 1.88639e-05
103 *176:79 *369:128 0.00125792
104 *177:102 *2986:A1 4.17185e-05
105 *177:102 *369:128 0.00013382
106 *183:59 *369:94 0.000127741
107 *197:20 *369:128 0
108 *211:150 *2986:A1 0.000750293
109 *212:63 *2986:A1 2.93197e-05
110 *231:101 *2986:A1 0.000177899
111 *316:51 *369:77 0
112 *321:16 *369:128 6.76303e-05
113 *321:61 *369:77 0
114 *321:61 *369:128 1.20478e-05
115 *322:115 *369:94 5.58985e-05
116 *365:58 *369:77 0
117 *366:10 *369:12 0.000232353
118 *366:10 *369:64 0.000116158
119 *366:10 *369:77 0.000910613
*RES
1 *2886:X *369:8 4.05 
2 *369:8 *369:12 9.4425 
3 *369:12 *2926:A1 11.1225 
4 *369:12 *369:33 13.3975 
5 *369:33 *369:35 1.38 
6 *369:35 *2938:A1 7.275 
7 *369:35 *2890:A1 9.57 
8 *369:33 *2914:A1 4.74 
9 *369:8 *369:64 1.38 
10 *369:64 *2920:A1 3.6 
11 *369:64 *369:77 22.055 
12 *369:77 *2903:A1 6.31 
13 *369:77 *369:94 9.46 
14 *369:94 *2897:A1 2.74 
15 *369:94 *369:107 4.19 
16 *369:107 *2986:A1 9.1004 
17 *369:107 *369:128 29.175 
18 *369:128 *2991:A1 18.955 
19 *369:128 *2964:A1 7.65 
*END

*D_NET *370 0.0178437
*CONN
*I *3048:A I *D sky130_fd_sc_hd__or2_1
*I *3002:A I *D sky130_fd_sc_hd__or3_1
*I *2888:C I *D sky130_fd_sc_hd__or4b_4
*I *2961:A I *D sky130_fd_sc_hd__or2_1
*I *2901:B I *D sky130_fd_sc_hd__or4b_2
*I *2895:B I *D sky130_fd_sc_hd__or4b_4
*I *3085:A I *D sky130_fd_sc_hd__or3_1
*I *2546:A I *D sky130_fd_sc_hd__or2_2
*I *2582:A I *D sky130_fd_sc_hd__or3_1
*I *2908:B I *D sky130_fd_sc_hd__or3_1
*I *2887:X O *D sky130_fd_sc_hd__buf_2
*CAP
1 *3048:A 0
2 *3002:A 0.000185418
3 *2888:C 0
4 *2961:A 1.65033e-05
5 *2901:B 6.68063e-05
6 *2895:B 4.74729e-05
7 *3085:A 0
8 *2546:A 0.000611271
9 *2582:A 0
10 *2908:B 0.00036842
11 *2887:X 0.000113571
12 *370:117 0.000256097
13 *370:106 0.000128576
14 *370:53 0.000846232
15 *370:32 0.00162617
16 *370:28 0.00115158
17 *370:26 0.000215058
18 *370:20 0.000613852
19 *370:14 0.000637215
20 *370:8 0.000201139
21 *2546:A *2748:A 6.466e-05
22 *2546:A *2908:C 4.77769e-05
23 *2546:A *527:24 0.000207128
24 *2546:A *527:44 9.55262e-06
25 *2908:B *2584:A 9.86546e-05
26 *2908:B *606:58 0.00014619
27 *3002:A *3002:C 0.000378826
28 *3002:A *3037:A 0.000112679
29 *3002:A *384:14 0.00030358
30 *3002:A *384:22 4.99619e-05
31 *3002:A *421:20 1.61831e-05
32 *370:8 *3049:A 4.79367e-05
33 *370:14 *3048:B 4.77769e-05
34 *370:14 *3180:CLK 0.000121712
35 *370:14 *419:126 0.000123068
36 *370:26 *371:47 4.52957e-05
37 *370:28 *3080:B 8.7152e-06
38 *370:28 *371:47 2.83587e-05
39 *370:28 *380:10 0
40 *370:28 *474:55 0.000120724
41 *370:32 *2586:A 0.00027982
42 *370:32 *2747:A1 0
43 *370:32 *2902:B 0
44 *370:32 *3080:B 0.000678103
45 *370:32 *3081:A0 0
46 *370:32 *3085:B 1.88656e-05
47 *370:32 *3213:CLK 0.000151474
48 *370:32 *3222:CLK 0.00032976
49 *370:32 *3244:CLK 0
50 *370:32 *3410:A 0.000259577
51 *370:32 *371:47 0.000151711
52 *370:32 *380:10 0
53 *370:32 *380:12 0
54 *370:32 *498:8 3.84193e-05
55 *370:32 *603:35 0.000712739
56 *370:32 *606:58 0.000321699
57 *370:53 *2583:S 0.00012398
58 *370:53 *2908:C 1.54665e-05
59 *370:53 *3396:A 0.000194287
60 *370:53 *527:44 0.000753655
61 *370:53 *550:8 9.20283e-05
62 *370:106 *2961:B 7.9642e-06
63 *370:106 *3180:CLK 1.88656e-05
64 *370:106 *399:16 2.32546e-05
65 *370:106 *419:126 6.90818e-05
66 *370:117 *2961:B 0.000111547
67 *370:117 *3002:C 0.000118534
68 *370:117 *3037:A 8.55738e-05
69 *370:117 *399:16 1.38481e-05
70 *370:117 *419:126 0.000103583
71 *2673:B *2546:A 0.00015639
72 *2747:B1 *370:32 6.60907e-06
73 *2751:B *2546:A 4.77769e-05
74 *2752:A *2546:A 0.000330034
75 *2752:D *2546:A 3.72081e-05
76 *2790:C1 *370:32 9.44681e-05
77 *2895:A *2895:B 4.77807e-05
78 *2895:A *370:26 8.53722e-05
79 *2895:A *370:28 2.85364e-05
80 *2918:A *2895:B 2.0187e-05
81 *174:55 *2546:A 8.40213e-05
82 *176:51 *370:8 0.00034551
83 *176:51 *370:14 3.71957e-05
84 *215:102 *2546:A 0.000511634
85 *231:36 *2546:A 4.36573e-06
86 *231:46 *2546:A 3.82176e-05
87 *317:50 *2961:A 2.49909e-05
88 *317:81 *2901:B 4.60061e-05
89 *322:89 *2908:B 0.000265765
90 *336:58 *2961:A 4.66108e-05
91 *345:29 *370:20 0.000581912
92 *352:42 *370:8 9.08362e-05
93 *352:42 *370:14 4.02502e-05
94 *365:12 *370:20 0.00113405
95 *365:26 *370:28 0
*RES
1 *2887:X *370:8 5.425 
2 *370:8 *370:14 4.6475 
3 *370:14 *370:20 2.786 
4 *370:20 *370:26 1.125 
5 *370:26 *370:28 2.4 
6 *370:28 *370:32 27.33 
7 *370:32 *2908:B 10.095 
8 *370:32 *370:53 9.365 
9 *370:53 *2582:A 1.6 
10 *370:53 *2546:A 19.16 
11 *370:28 *3085:A 3.6 
12 *370:26 *2895:B 4.395 
13 *370:20 *2901:B 4.395 
14 *370:14 *370:106 0.9975 
15 *370:106 *2961:A 4.05 
16 *370:106 *370:117 2.655 
17 *370:117 *2888:C 3.6 
18 *370:117 *3002:A 8.91 
19 *370:8 *3048:A 1.6 
*END

*D_NET *371 0.0264043
*CONN
*I *2985:A I *D sky130_fd_sc_hd__nor2_1
*I *2567:A I *D sky130_fd_sc_hd__nor2_1
*I *2889:B I *D sky130_fd_sc_hd__nor2_1
*I *3070:A I *D sky130_fd_sc_hd__nor2_1
*I *2888:X O *D sky130_fd_sc_hd__or4b_4
*CAP
1 *2985:A 1.01446e-05
2 *2567:A 0.00231324
3 *2889:B 0.000348098
4 *3070:A 0.001989
5 *2888:X 0.000475197
6 *371:51 0.0031433
7 *371:47 0.0014528
8 *371:12 0.0034249
9 *2567:A *2562:B 8.53113e-06
10 *2567:A *2598:A1 8.88715e-05
11 *2567:A *2792:A1 2.20732e-05
12 *2567:A *3146:CLK 6.86857e-05
13 *2567:A *3440:A 5.21706e-05
14 *2567:A *527:50 0.000205074
15 *2567:A *527:67 0.000160635
16 *2567:A *909:10 4.99619e-05
17 *2889:B *528:47 0.000270585
18 *2889:B *715:41 0.000200612
19 *2889:B *748:28 1.31821e-05
20 *2889:B *748:38 0.000135973
21 *2985:A *2985:B 3.74161e-05
22 *3070:A *483:10 2.05641e-05
23 *3070:A *590:145 0.000254489
24 *3070:A *590:159 0.00130688
25 *371:12 *590:145 0.000225675
26 *371:12 *677:12 1.88602e-05
27 *371:47 *2747:A1 7.92152e-05
28 *371:47 *2985:B 8.49205e-05
29 *371:47 *3027:A 5.33065e-05
30 *371:47 *3080:B 0.000676815
31 *371:47 *3081:A0 1.19928e-05
32 *371:47 *3410:A 0.00057051
33 *371:47 *3421:A 0.000258751
34 *371:47 *419:67 0.000380189
35 *371:47 *474:55 0.000128214
36 *371:51 *2746:A 0.000357679
37 *371:51 *2987:A 3.19282e-05
38 *371:51 *3114:A 5.93824e-05
39 *371:51 *384:30 3.06279e-05
40 *371:51 *403:22 7.02428e-05
41 *371:51 *419:43 7.96104e-06
42 *371:51 *715:41 0.000277231
43 *2719:A2 *2567:A 0.000110893
44 *2750:C1 *2889:B 8.58063e-05
45 *2752:A *2889:B 0.000196991
46 *2792:B1 *2567:A 3.09179e-05
47 *2798:A1 *2567:A 2.49909e-05
48 *2798:A3 *2567:A 1.37328e-05
49 *2809:A1 *2889:B 4.66108e-05
50 *2809:A2 *2889:B 2.75145e-05
51 *2875:A *2567:A 0.000684266
52 *2875:B *2567:A 4.66108e-05
53 *2889:A *2889:B 0
54 *2895:A *371:47 1.80211e-05
55 *3060:A *3070:A 0.00140203
56 *3060:A *371:12 0.000303195
57 *3146:D *2567:A 3.93162e-05
58 *3167:D *3070:A 0.000180461
59 *3222:D *371:47 6.74403e-05
60 *3464:A *371:12 1.88602e-05
61 *174:32 *371:51 0.000332148
62 *174:40 *2567:A 3.18367e-05
63 *174:40 *2889:B 9.50342e-06
64 *174:40 *371:51 0.000574442
65 *176:71 *371:47 0.000134595
66 *187:24 *371:47 0.00112612
67 *193:108 *2985:A 2.75229e-05
68 *193:108 *371:47 6.52265e-05
69 *202:24 *371:51 0
70 *212:38 *371:51 1.32824e-05
71 *215:106 *2889:B 0.00023468
72 *231:59 *2889:B 4.40899e-05
73 *235:18 *3070:A 6.16226e-06
74 *291:40 *2567:A 0.000448435
75 *299:34 *2567:A 2.21654e-05
76 *316:51 *2567:A 6.59025e-05
77 *322:55 *2889:B 0.000160739
78 *340:47 *371:47 1.38321e-05
79 *350:140 *371:47 0
80 *361:45 *2567:A 0.0001947
81 *370:26 *371:47 4.52957e-05
82 *370:28 *371:47 2.83587e-05
83 *370:32 *371:47 0.000151711
*RES
1 *2888:X *371:12 5.5941 
2 *371:12 *3070:A 9.5309 
3 *371:12 *371:47 32.2075 
4 *371:47 *371:51 15.62 
5 *371:51 *2889:B 17.095 
6 *371:51 *2567:A 42.01 
7 *371:47 *2985:A 2.05 
*END

*D_NET *372 0.00402557
*CONN
*I *2890:S I *D sky130_fd_sc_hd__mux2_1
*I *2893:S I *D sky130_fd_sc_hd__mux2_1
*I *2889:Y O *D sky130_fd_sc_hd__nor2_1
*CAP
1 *2890:S 3.08966e-05
2 *2893:S 2.42333e-05
3 *2889:Y 0.000794867
4 *372:12 0.000849997
5 *372:12 *2800:A2 0.000170543
6 *372:12 *2805:B2 0.000177023
7 *372:12 *2893:A0 3.78687e-05
8 *372:12 *2934:A1 3.67779e-05
9 *372:12 *2934:S 0.000355875
10 *372:12 *605:24 0
11 *372:12 *912:8 0.000198815
12 *2730:A1 *372:12 8.97727e-05
13 *2730:A2 *372:12 0.00011272
14 *2730:B1 *372:12 0.000107396
15 *2752:A *372:12 0.000367098
16 *2805:A2 *372:12 0
17 *2809:A2 *372:12 8.49205e-05
18 *2890:A1 *2890:S 8.65961e-05
19 *2890:A1 *2893:S 4.66108e-05
20 *187:53 *372:12 0.000114959
21 *231:59 *372:12 0.0003386
*RES
1 *2889:Y *372:12 26.39 
2 *372:12 *2893:S 2.05 
3 *372:12 *2890:S 2.395 
*END

*D_NET *373 0.000688417
*CONN
*I *2891:A I *D sky130_fd_sc_hd__clkbuf_1
*I *2890:X O *D sky130_fd_sc_hd__mux2_1
*CAP
1 *2891:A 0.000226141
2 *2890:X 0.000226141
3 *2891:A *2727:B2 8.53177e-05
4 *2891:A *605:86 5.53774e-05
5 *3142:D *2891:A 9.54399e-05
*RES
1 *2890:X *2891:A 11.175 
*END

*D_NET *374 0.0293485
*CONN
*I *2916:A1 I *D sky130_fd_sc_hd__mux2_1
*I *2988:A1 I *D sky130_fd_sc_hd__mux2_1
*I *2966:A1 I *D sky130_fd_sc_hd__mux2_1
*I *2993:A1 I *D sky130_fd_sc_hd__mux2_1
*I *2899:A1 I *D sky130_fd_sc_hd__mux2_1
*I *2905:A1 I *D sky130_fd_sc_hd__mux2_1
*I *2922:A1 I *D sky130_fd_sc_hd__mux2_1
*I *2928:A1 I *D sky130_fd_sc_hd__mux2_1
*I *2893:A1 I *D sky130_fd_sc_hd__mux2_1
*I *2940:A1 I *D sky130_fd_sc_hd__mux2_1
*I *2892:X O *D sky130_fd_sc_hd__clkbuf_4
*CAP
1 *2916:A1 0
2 *2988:A1 0.000876609
3 *2966:A1 0
4 *2993:A1 0.000843741
5 *2899:A1 0.000240274
6 *2905:A1 0.000204983
7 *2922:A1 0
8 *2928:A1 0.000173059
9 *2893:A1 5.43759e-05
10 *2940:A1 0.000152435
11 *2892:X 0.000878824
12 *374:152 0.00215674
13 *374:109 0.00163936
14 *374:107 0.00134777
15 *374:84 0.00110332
16 *374:63 0.00114721
17 *374:48 0.0023617
18 *374:22 0.000288413
19 *374:20 0.00192461
20 *374:16 0.00116712
21 *2899:A1 *2572:A 4.89295e-05
22 *2899:A1 *2734:A 4.77719e-05
23 *2899:A1 *380:45 0.000246069
24 *2899:A1 *391:64 5.68523e-06
25 *2905:A1 *2905:A0 5.35064e-05
26 *2928:A1 *2803:A1 5.89925e-05
27 *2928:A1 *2928:A0 9.91257e-05
28 *2928:A1 *396:12 1.61831e-05
29 *2940:A1 *2805:A1 7.97165e-05
30 *2940:A1 *2940:S 4.82863e-05
31 *2940:A1 *3436:A 2.75707e-05
32 *2940:A1 *404:10 0
33 *2988:A1 *380:45 0.000329952
34 *2988:A1 *608:24 1.88656e-05
35 *2993:A1 *2993:S 0.000129477
36 *2993:A1 *3007:B 0.000417892
37 *2993:A1 *421:28 0.000159156
38 *2993:A1 *439:16 4.61658e-05
39 *374:16 *2727:A1 2.7677e-05
40 *374:16 *2727:A2 0
41 *374:16 *2800:A2 6.86133e-05
42 *374:16 *2916:S 1.79174e-05
43 *374:20 *2805:A1 9.04184e-05
44 *374:20 *404:10 0
45 *374:22 *2805:A1 4.64135e-05
46 *374:22 *404:10 0
47 *374:63 *2803:A1 1.88656e-05
48 *374:63 *2920:S 0.000115464
49 *374:63 *2921:A 5.75134e-05
50 *374:63 *2922:S 0.000169503
51 *374:63 *396:12 0
52 *374:84 *2922:A0 0.000167946
53 *374:84 *2922:S 5.4155e-06
54 *374:84 *2925:B 0.000365368
55 *374:107 *3244:CLK 0
56 *374:109 *380:45 0.000212898
57 *374:152 *2697:A1 3.23391e-05
58 *374:152 *2760:A1 0
59 *374:152 *2785:A 1.48873e-05
60 *374:152 *2897:S 1.7635e-05
61 *374:152 *2966:S 9.73074e-05
62 *374:152 *2967:A 0.000230435
63 *374:152 *3081:A1 0.000133183
64 *374:152 *3366:A 8.34726e-05
65 *374:152 *376:46 0.00074479
66 *374:152 *421:49 0
67 *2694:A3 *374:152 0.000447092
68 *2725:A2 *374:63 0.000547382
69 *2730:A3 *374:16 4.19249e-05
70 *2730:B1 *374:16 2.88357e-05
71 *2734:B *374:152 0.000318664
72 *2752:A *374:16 1.79098e-05
73 *2767:A2 *374:152 0
74 *2786:A3 *2899:A1 0
75 *2786:B1 *374:152 1.91597e-05
76 *2804:B1 *374:63 6.4422e-05
77 *2806:B *374:16 3.26889e-05
78 *2806:C *374:16 0.000183414
79 *2807:A2 *374:16 0.000122699
80 *2809:A3 *374:16 4.32126e-05
81 *2885:A *374:63 0.00024944
82 *2886:A *374:63 0.000110323
83 *2890:A1 *2893:A1 0.000123225
84 *2892:A *374:16 5.16418e-05
85 *2925:A *374:84 3.26889e-05
86 *2986:A1 *374:107 0.000123812
87 *3065:A *2993:A1 0
88 *3141:D *374:63 3.32056e-05
89 *3210:D *374:152 0.000159353
90 *177:102 *374:107 8.32311e-06
91 *181:90 *374:63 0
92 *183:59 *374:152 9.50959e-05
93 *190:28 *2993:A1 0.000227286
94 *211:150 *2899:A1 6.92418e-05
95 *211:150 *2988:A1 0.000292573
96 *211:150 *374:109 5.26345e-05
97 *212:38 *2988:A1 0.000356076
98 *212:63 *374:107 0
99 *321:61 *374:63 2.84137e-05
100 *321:61 *374:84 0.000441632
101 *321:61 *374:107 0.000760663
102 *321:61 *374:152 0.00148368
103 *322:89 *2905:A1 0.000131665
104 *350:40 *374:16 0
105 *350:50 *374:63 0.00010422
106 *361:45 *2988:A1 0.000770644
107 *365:26 *2993:A1 0
108 *369:77 *374:84 0.000429846
109 *369:77 *374:107 6.16203e-05
110 *369:128 *374:107 0.000136391
111 *369:128 *374:152 3.54874e-05
*RES
1 *2892:X *374:16 18.62 
2 *374:16 *374:20 6.3125 
3 *374:20 *374:22 1.5075 
4 *374:22 *2940:A1 6.45 
5 *374:22 *2893:A1 4.74 
6 *374:20 *374:48 3.3104 
7 *374:48 *2928:A1 6.1725 
8 *374:48 *374:63 17.2775 
9 *374:63 *2922:A1 1.6 
10 *374:63 *374:84 16.025 
11 *374:84 *2905:A1 6.6 
12 *374:84 *374:107 10.4675 
13 *374:107 *374:109 0.329333 
14 *374:109 *2899:A1 5.6201 
15 *374:109 *374:152 42.1275 
16 *374:152 *2993:A1 18.83 
17 *374:152 *2966:A1 1.6 
18 *374:107 *2988:A1 6.93423 
19 *374:16 *2916:A1 1.6 
*END

*D_NET *375 0.00140637
*CONN
*I *2894:A I *D sky130_fd_sc_hd__clkbuf_1
*I *2893:X O *D sky130_fd_sc_hd__mux2_1
*CAP
1 *2894:A 0.000486192
2 *2893:X 0.000486192
3 *2894:A *3314:A 0
4 *2894:A *3436:A 0
5 *2894:A *385:16 0.000114492
6 *2894:A *605:52 0.000142015
7 *2894:A *905:10 1.45231e-05
8 *2890:A1 *2894:A 7.8936e-05
9 *359:62 *2894:A 8.40213e-05
*RES
1 *2893:X *2894:A 14.325 
*END

*D_NET *376 0.0164233
*CONN
*I *2896:B I *D sky130_fd_sc_hd__nor2_1
*I *2572:A I *D sky130_fd_sc_hd__or2_1
*I *2990:A I *D sky130_fd_sc_hd__nor2_1
*I *3075:A I *D sky130_fd_sc_hd__nor2_1
*I *2895:X O *D sky130_fd_sc_hd__or4b_4
*CAP
1 *2896:B 5.91985e-05
2 *2572:A 0.00135569
3 *2990:A 2.77195e-05
4 *3075:A 0.00138339
5 *2895:X 0.000173788
6 *376:46 0.00209945
7 *376:18 0.00172749
8 *376:6 0.00117474
9 *2572:A *2572:B 0.000176026
10 *2572:A *2734:A 0.000412653
11 *2572:A *2899:S 0.000192489
12 *2572:A *377:6 0.000111461
13 *2572:A *875:8 0.000413981
14 *2896:B *2734:A 3.09774e-05
15 *2896:B *377:6 2.75229e-05
16 *2990:A *3452:A 5.27589e-05
17 *3075:A *2990:B 0.000108761
18 *3075:A *3075:B 6.21477e-05
19 *3075:A *419:88 8.88715e-05
20 *3075:A *439:16 1.19928e-05
21 *3075:A *442:42 0
22 *3075:A *474:65 0.000222123
23 *3075:A *489:14 8.3303e-06
24 *376:6 *474:55 6.60431e-05
25 *376:18 *2760:A1 0.000262301
26 *376:18 *391:42 0.000261242
27 *376:46 *3081:A1 0.000133183
28 *2694:A3 *376:46 0.000447092
29 *2734:B *2572:A 0.000120655
30 *2734:C *2896:B 0.00015896
31 *2735:B1 *2572:A 0.000307429
32 *2899:A1 *2572:A 4.89295e-05
33 *2918:A *376:6 8.64421e-05
34 *3050:A *376:18 0.000595438
35 *3210:D *376:46 9.34773e-06
36 *218:144 *3075:A 4.9968e-05
37 *321:20 *376:6 8.83758e-05
38 *321:20 *376:18 6.04372e-05
39 *321:61 *376:46 0.000139386
40 *365:26 *376:6 0.000364513
41 *365:26 *376:18 0.000695006
42 *369:128 *376:46 0.00186217
43 *374:152 *376:46 0.00074479
*RES
1 *2895:X *376:6 6.19 
2 *376:6 *376:18 15.67 
3 *376:18 *3075:A 21.65 
4 *376:18 *2990:A 2.215 
5 *376:6 *376:46 26.545 
6 *376:46 *2572:A 24.01 
7 *376:46 *2896:B 3.805 
*END

*D_NET *377 0.00109825
*CONN
*I *2897:S I *D sky130_fd_sc_hd__mux2_1
*I *2899:S I *D sky130_fd_sc_hd__mux2_1
*I *2896:Y O *D sky130_fd_sc_hd__nor2_1
*CAP
1 *2897:S 8.95711e-05
2 *2899:S 4.70139e-05
3 *2896:Y 3.05465e-05
4 *377:6 0.000167131
5 *2899:S *2734:A 0.000192489
6 *377:6 *2734:A 4.66108e-05
7 *2572:A *2899:S 0.000192489
8 *2572:A *377:6 0.000111461
9 *2734:B *2897:S 1.45508e-05
10 *2734:C *377:6 8.34281e-06
11 *2896:A *2897:S 0
12 *2896:B *377:6 2.75229e-05
13 *183:59 *2897:S 0.000152885
14 *374:152 *2897:S 1.7635e-05
*RES
1 *2896:Y *377:6 2.74 
2 *377:6 *2899:S 3.43 
3 *377:6 *2897:S 7.49 
*END

*D_NET *378 0.000620691
*CONN
*I *2898:A I *D sky130_fd_sc_hd__clkbuf_1
*I *2897:X O *D sky130_fd_sc_hd__mux2_1
*CAP
1 *2898:A 0.000239017
2 *2897:X 0.000239017
3 *2898:A *3379:A 2.34721e-05
4 *2898:A *391:64 6.88421e-05
5 *207:43 *2898:A 5.03424e-05
*RES
1 *2897:X *2898:A 10.62 
*END

*D_NET *379 0.000211442
*CONN
*I *2900:A I *D sky130_fd_sc_hd__clkbuf_1
*I *2899:X O *D sky130_fd_sc_hd__mux2_1
*CAP
1 *2900:A 6.21561e-05
2 *2899:X 6.21561e-05
3 *2900:A *380:45 4.77757e-05
4 *2786:A3 *2900:A 1.6783e-05
5 *2789:C1 *2900:A 1.73877e-05
6 *3145:D *2900:A 5.18317e-06
*RES
1 *2899:X *2900:A 8.265 
*END

*D_NET *380 0.0120703
*CONN
*I *3080:A I *D sky130_fd_sc_hd__nor2_1
*I *2996:A I *D sky130_fd_sc_hd__nor2_1
*I *2577:A I *D sky130_fd_sc_hd__or2_1
*I *2902:B I *D sky130_fd_sc_hd__nor2_1
*I *2901:X O *D sky130_fd_sc_hd__or4b_2
*CAP
1 *3080:A 1.36534e-05
2 *2996:A 0
3 *2577:A 0.000283781
4 *2902:B 0.000478078
5 *2901:X 0.000689689
6 *380:45 0.00108489
7 *380:12 0.00183576
8 *380:10 0.00125991
9 *2577:A *395:40 0
10 *2902:B *3244:CLK 0.000185532
11 *2902:B *527:44 0
12 *2902:B *606:64 7.56583e-05
13 *3080:A *500:155 4.66108e-05
14 *3080:A *726:32 4.66108e-05
15 *380:10 *2693:C 2.19153e-05
16 *380:10 *2762:A1 6.29313e-05
17 *380:10 *3086:A1 3.98198e-05
18 *380:10 *3089:A0 0.00033879
19 *380:10 *498:8 0
20 *380:10 *603:35 0
21 *380:12 *3081:A0 0.000140071
22 *380:12 *3081:S 0.000153004
23 *380:12 *3082:A 5.21046e-05
24 *380:12 *3089:A0 5.16348e-05
25 *380:12 *419:67 9.58678e-06
26 *380:12 *495:8 0.000305527
27 *380:12 *500:141 0.000314459
28 *380:12 *603:35 0
29 *380:45 *2734:A 0.000404706
30 *380:45 *2899:A0 8.52845e-05
31 *380:45 *2996:B 4.82863e-05
32 *380:45 *2997:A0 0.000119762
33 *380:45 *391:64 7.96104e-06
34 *380:45 *419:67 0.000510995
35 *380:45 *443:10 4.82863e-05
36 *380:45 *875:8 8.1871e-05
37 *2720:D1 *2577:A 9.52646e-05
38 *2738:A2 *2577:A 0.000417216
39 *2768:B *380:10 0.00014285
40 *2785:C *380:12 2.3599e-05
41 *2899:A1 *380:45 0.000246069
42 *2900:A *380:45 4.77757e-05
43 *2902:A *2902:B 8.41384e-05
44 *2918:A *380:10 1.02125e-05
45 *2918:B *380:10 5.07362e-05
46 *2988:A1 *380:45 0.000329952
47 *3211:D *380:12 0
48 *176:79 *380:12 0
49 *177:102 *380:12 0
50 *181:61 *2577:A 0.000202794
51 *182:38 *380:10 0.000298415
52 *197:20 *380:10 3.3914e-05
53 *211:150 *380:45 5.9286e-06
54 *212:63 *2902:B 0.000143873
55 *212:117 *2902:B 7.03996e-05
56 *212:117 *380:12 3.63701e-06
57 *231:101 *2902:B 0.000496091
58 *317:81 *380:10 3.03684e-05
59 *328:84 *2902:B 0.000235256
60 *365:26 *380:10 9.17734e-05
61 *370:28 *380:10 0
62 *370:32 *2902:B 0
63 *370:32 *380:10 0
64 *370:32 *380:12 0
65 *374:109 *380:45 0.000212898
*RES
1 *2901:X *380:10 17.595 
2 *380:10 *380:12 12.2175 
3 *380:12 *2902:B 16.0725 
4 *380:12 *380:45 13.1808 
5 *380:45 *2577:A 12.245 
6 *380:45 *2996:A 1.6 
7 *380:10 *3080:A 4.05 
*END

*D_NET *381 0.00140505
*CONN
*I *2903:S I *D sky130_fd_sc_hd__mux2_1
*I *2905:S I *D sky130_fd_sc_hd__mux2_1
*I *2902:Y O *D sky130_fd_sc_hd__nor2_1
*CAP
1 *2903:S 0.000116982
2 *2905:S 0.000109771
3 *2902:Y 6.42923e-05
4 *381:8 0.000291045
5 *2903:S *3390:A 8.23457e-05
6 *2752:B *2903:S 0.000340777
7 *2903:A1 *2903:S 7.51021e-05
8 *183:59 *2905:S 9.19562e-05
9 *183:59 *381:8 7.83434e-05
10 *322:91 *2905:S 5.31158e-06
11 *322:115 *2905:S 4.85865e-05
12 *322:115 *381:8 3.02125e-05
13 *369:94 *381:8 7.03276e-05
*RES
1 *2902:Y *381:8 5.49 
2 *381:8 *2905:S 5.79 
3 *381:8 *2903:S 7.17 
*END

*D_NET *382 0.00168044
*CONN
*I *2904:A I *D sky130_fd_sc_hd__clkbuf_1
*I *2903:X O *D sky130_fd_sc_hd__mux2_1
*CAP
1 *2904:A 0.00031628
2 *2903:X 0.00031628
3 *2904:A *600:21 0.000218124
4 *2904:A *600:38 0.000136877
5 *2904:A *600:49 0.000133177
6 *2737:B1 *2904:A 0.000415451
7 *174:122 *2904:A 6.1907e-05
8 *174:134 *2904:A 8.23457e-05
*RES
1 *2903:X *2904:A 14.745 
*END

*D_NET *383 0.00201138
*CONN
*I *2906:A I *D sky130_fd_sc_hd__clkbuf_1
*I *2905:X O *D sky130_fd_sc_hd__mux2_1
*CAP
1 *2906:A 0.000780751
2 *2905:X 0.000780751
3 *3147:D *2906:A 0.000231074
4 *215:147 *2906:A 0.000121118
5 *328:84 *2906:A 9.76821e-05
*RES
1 *2905:X *2906:A 13.61 
*END

*D_NET *384 0.0123288
*CONN
*I *3002:B I *D sky130_fd_sc_hd__or3_1
*I *3085:B I *D sky130_fd_sc_hd__or3_1
*I *2908:C I *D sky130_fd_sc_hd__or3_1
*I *2582:B I *D sky130_fd_sc_hd__or3_1
*I *2907:X O *D sky130_fd_sc_hd__or4b_2
*CAP
1 *3002:B 0
2 *3085:B 0.000499232
3 *2908:C 0.000433394
4 *2582:B 0
5 *2907:X 0.000532593
6 *384:30 0.00147745
7 *384:22 0.00206966
8 *384:14 0.00105896
9 *2908:C *608:46 3.05733e-05
10 *3085:B *399:49 0
11 *3085:B *498:8 1.12156e-05
12 *384:14 *2907:D_N 1.19928e-05
13 *384:14 *399:16 0.00018237
14 *384:22 *2698:A 0
15 *384:22 *3004:A 0.00040477
16 *384:22 *395:24 5.01893e-05
17 *384:22 *421:20 7.68414e-06
18 *384:22 *432:52 0.000167732
19 *384:30 *2779:A 0.000497688
20 *384:30 *2986:S 0.000311755
21 *384:30 *3086:A0 0.000331031
22 *384:30 *3114:A 0.00023614
23 *384:30 *3371:A 0.000218317
24 *384:30 *432:52 0.000124202
25 *384:30 *436:10 6.7296e-05
26 *384:30 *715:10 3.6195e-06
27 *384:30 *748:28 0.000100812
28 *384:30 *825:14 0.000116853
29 *2546:A *2908:C 4.77769e-05
30 *2699:B1 *384:22 0.000107504
31 *2850:A *384:14 2.65814e-06
32 *2851:A *384:14 5.07376e-05
33 *2888:D_N *384:14 0.000120655
34 *2924:C_N *384:22 0.000102848
35 *3002:A *384:14 0.00030358
36 *3002:A *384:22 4.99619e-05
37 *174:32 *384:30 0.000174794
38 *174:40 *2908:C 0
39 *174:40 *384:30 3.72007e-05
40 *176:59 *384:22 4.56009e-05
41 *192:66 *384:30 0.00015481
42 *193:18 *384:22 1.7882e-05
43 *193:18 *384:30 0.000487858
44 *193:89 *384:30 6.44741e-05
45 *218:14 *384:22 4.77541e-05
46 *218:14 *384:30 0
47 *218:24 *384:30 0
48 *316:39 *2908:C 0.000421948
49 *321:16 *3085:B 0.000341975
50 *322:76 *2908:C 0.000420272
51 *343:8 *384:14 0.000126816
52 *343:31 *384:14 1.19928e-05
53 *358:67 *2908:C 0.000179195
54 *370:32 *3085:B 1.88656e-05
55 *370:53 *2908:C 1.54665e-05
56 *371:51 *384:30 3.06279e-05
*RES
1 *2907:X *384:14 13.475 
2 *384:14 *384:22 12.3275 
3 *384:22 *384:30 27.7775 
4 *384:30 *2582:B 1.6 
5 *384:30 *2908:C 15.245 
6 *384:22 *3085:B 5.9193 
7 *384:14 *3002:B 1.6 
*END

*D_NET *385 0.00678392
*CONN
*I *2911:S I *D sky130_fd_sc_hd__mux2_1
*I *2909:S I *D sky130_fd_sc_hd__mux2_1
*I *2908:X O *D sky130_fd_sc_hd__or3_1
*CAP
1 *2911:S 0
2 *2909:S 0.000210313
3 *2908:X 0.00144404
4 *385:16 0.00165435
5 *2909:S *2909:A1 1.61831e-05
6 *2909:S *2912:A 0.000279559
7 *385:16 *2726:A1 0.000288023
8 *385:16 *2726:B2 0.000508641
9 *385:16 *2878:A1 3.86607e-05
10 *385:16 *2937:B 0.000226453
11 *385:16 *2941:A 2.49909e-05
12 *385:16 *3140:CLK 0
13 *385:16 *3156:CLK 0
14 *385:16 *403:22 0.00106678
15 *385:16 *605:52 2.42236e-05
16 *385:16 *606:58 3.13916e-05
17 *385:16 *905:10 0
18 *385:16 *917:10 0.00011272
19 *2557:A *385:16 8.8391e-05
20 *2724:A2 *385:16 0
21 *2802:C1 *385:16 0.000102184
22 *2894:A *385:16 0.000114492
23 *2909:A0 *2909:S 4.92062e-05
24 *2911:A0 *2909:S 9.91703e-05
25 *2938:A1 *385:16 0
26 *3140:D *385:16 7.03219e-05
27 *3143:D *385:16 0.000139252
28 *3150:D *385:16 0
29 *208:28 *385:16 0
30 *299:34 *385:16 9.04308e-05
31 *328:58 *385:16 0.00010415
32 *369:35 *385:16 0
*RES
1 *2908:X *385:16 38.18 
2 *385:16 *2909:S 7.015 
3 *385:16 *2911:S 1.6 
*END

*D_NET *386 0.000358158
*CONN
*I *2910:A I *D sky130_fd_sc_hd__clkbuf_1
*I *2909:X O *D sky130_fd_sc_hd__mux2_1
*CAP
1 *2910:A 0.000153041
2 *2909:X 0.000153041
3 *2910:A *2911:A1 0
4 *2910:A *3351:A 4.91067e-05
5 *2910:A *901:10 2.97004e-06
6 *2910:A *907:8 0
*RES
1 *2909:X *2910:A 9.84 
*END

*D_NET *387 0.00209296
*CONN
*I *2912:A I *D sky130_fd_sc_hd__clkbuf_1
*I *2911:X O *D sky130_fd_sc_hd__mux2_1
*CAP
1 *2912:A 0.000487289
2 *2911:X 0.000487289
3 *2912:A *2803:B2 4.94326e-05
4 *2912:A *3148:CLK 0.000123955
5 *2912:A *3351:A 1.85674e-05
6 *2912:A *901:10 0.000271314
7 *2909:S *2912:A 0.000279559
8 *3148:D *2912:A 0.000321838
9 *3149:D *2912:A 4.78847e-05
10 *3154:D *2912:A 5.83121e-06
*RES
1 *2911:X *2912:A 18.39 
*END

*D_NET *388 0.00202697
*CONN
*I *2916:S I *D sky130_fd_sc_hd__mux2_1
*I *2914:S I *D sky130_fd_sc_hd__mux2_1
*I *2913:Y O *D sky130_fd_sc_hd__nor2_1
*CAP
1 *2916:S 6.75401e-05
2 *2914:S 0.000189597
3 *2913:Y 0.000181347
4 *388:12 0.000438484
5 *2914:S *2916:A0 1.00212e-05
6 *2914:S *3399:A 4.89395e-05
7 *2914:S *404:10 0.000351813
8 *388:12 *2917:A 0.000136884
9 *388:12 *715:41 0.000153619
10 *2724:A2 *388:12 8.6099e-05
11 *2730:A3 *2916:S 0.000124007
12 *351:52 *2916:S 6.43122e-05
13 *351:52 *388:12 0.00015639
14 *374:16 *2916:S 1.79174e-05
*RES
1 *2913:Y *388:12 10.505 
2 *388:12 *2914:S 10.235 
3 *388:12 *2916:S 3.43 
*END

*D_NET *389 0.00156124
*CONN
*I *2915:A I *D sky130_fd_sc_hd__clkbuf_1
*I *2914:X O *D sky130_fd_sc_hd__mux2_1
*CAP
1 *2915:A 0.000471234
2 *2914:X 0.000471234
3 *2915:A *3140:CLK 0.000139251
4 *2915:A *605:52 0
5 *2915:A *715:41 0.000417642
6 *2911:A0 *2915:A 0
7 *3150:D *2915:A 6.18754e-05
8 *359:39 *2915:A 0
*RES
1 *2914:X *2915:A 14.775 
*END

*D_NET *390 0.000746259
*CONN
*I *2917:A I *D sky130_fd_sc_hd__clkbuf_1
*I *2916:X O *D sky130_fd_sc_hd__mux2_1
*CAP
1 *2917:A 0.000156637
2 *2916:X 0.000156637
3 *2724:A2 *2917:A 0.000138551
4 *351:52 *2917:A 0.000157551
5 *388:12 *2917:A 0.000136884
*RES
1 *2916:X *2917:A 10.32 
*END

*D_NET *391 0.019656
*CONN
*I *3012:A I *D sky130_fd_sc_hd__nor2_1
*I *3096:A I *D sky130_fd_sc_hd__nor2_1
*I *2919:B I *D sky130_fd_sc_hd__nor2_1
*I *2592:A I *D sky130_fd_sc_hd__or2_1
*I *2918:X O *D sky130_fd_sc_hd__or3b_2
*CAP
1 *3012:A 0.000681378
2 *3096:A 2.56988e-05
3 *2919:B 0.000247989
4 *2592:A 3.24381e-05
5 *2918:X 0.00104515
6 *391:64 0.00220056
7 *391:42 0.00297632
8 *391:12 0.00275701
9 *2592:A *2592:B 8.696e-05
10 *3012:A *2965:A 2.34345e-05
11 *3012:A *2991:A0 0.000247567
12 *3012:A *3012:B 0
13 *3012:A *3017:A 0.000378607
14 *3012:A *3026:A 4.82863e-05
15 *3012:A *421:49 0
16 *3012:A *430:92 6.90876e-05
17 *3012:A *445:109 0
18 *3012:A *880:8 3.64622e-05
19 *3096:A *3372:A 0.000122797
20 *3096:A *430:24 4.88478e-05
21 *391:12 *2760:A1 9.50342e-06
22 *391:12 *2966:S 2.17931e-05
23 *391:12 *3006:A 7.16074e-05
24 *391:12 *3452:A 0.000540867
25 *391:12 *421:20 0.000232116
26 *391:12 *421:49 0
27 *391:42 *2694:A1 3.77879e-05
28 *391:42 *2760:A1 8.22101e-05
29 *391:42 *3099:S 1.02024e-05
30 *391:42 *399:49 4.2145e-05
31 *391:42 *430:24 8.41015e-06
32 *391:42 *726:32 0.000100141
33 *391:42 *833:8 0.000304659
34 *391:64 *2600:S 7.68851e-05
35 *391:64 *2750:A1 6.03272e-05
36 *391:64 *2786:A1 0.000112409
37 *391:64 *2788:A1 0
38 *391:64 *2899:A0 7.01359e-05
39 *391:64 *2903:A0 0.000109845
40 *391:64 *500:141 0.000168425
41 *391:64 *527:44 0
42 *391:64 *600:87 2.34005e-05
43 *391:64 *908:12 0
44 *2547:A *2592:A 4.43625e-05
45 *2547:A *2919:B 0.000217949
46 *2703:A *391:42 1.75833e-05
47 *2760:C1 *391:42 0.000256802
48 *2768:C *391:42 4.51265e-05
49 *2786:A3 *391:64 0
50 *2788:B1 *391:64 0.000865001
51 *2790:A2 *391:64 2.71027e-05
52 *2790:B1 *391:42 0.000153139
53 *2790:B1 *391:64 0.00027076
54 *2790:D1 *391:64 0
55 *2828:A *2919:B 1.39421e-05
56 *2828:B *2919:B 0.000109377
57 *2898:A *391:64 6.88421e-05
58 *2899:A1 *391:64 5.68523e-06
59 *2991:A1 *3012:A 4.79946e-05
60 *3144:D *391:64 0
61 *3153:D *391:64 0
62 *3167:D *391:12 8.96785e-05
63 *174:110 *391:64 7.85898e-05
64 *177:75 *391:42 8.23457e-05
65 *181:38 *391:42 4.12831e-05
66 *181:90 *391:64 0
67 *183:59 *3096:A 1.05984e-05
68 *183:59 *391:64 9.75493e-05
69 *190:28 *3012:A 0.00100364
70 *190:28 *391:42 0.000953134
71 *192:91 *3096:A 6.69608e-06
72 *192:91 *391:42 3.33115e-05
73 *192:109 *391:42 5.12512e-05
74 *197:100 *391:42 0.00019532
75 *197:143 *391:42 9.50163e-05
76 *197:143 *391:64 0
77 *197:149 *391:64 0
78 *207:43 *391:64 0.000502879
79 *211:150 *391:64 0
80 *212:63 *391:64 0.000218613
81 *231:133 *391:64 3.99246e-05
82 *321:65 *2919:B 2.56558e-05
83 *325:104 *2919:B 1.67131e-05
84 *326:10 *2919:B 0.000177029
85 *328:84 *391:64 0.000412465
86 *328:102 *391:64 0
87 *376:18 *391:42 0.000261242
88 *380:45 *391:64 7.96104e-06
*RES
1 *2918:X *391:12 17.0625 
2 *391:12 *391:42 27.8109 
3 *391:42 *391:64 37.8293 
4 *391:64 *2592:A 2.755 
5 *391:64 *2919:B 7.615 
6 *391:42 *3096:A 4.74 
7 *391:12 *3012:A 25.7575 
*END

*D_NET *392 0.00131013
*CONN
*I *2922:S I *D sky130_fd_sc_hd__mux2_1
*I *2920:S I *D sky130_fd_sc_hd__mux2_1
*I *2919:Y O *D sky130_fd_sc_hd__nor2_1
*CAP
1 *2922:S 0.000115284
2 *2920:S 0.000135348
3 *2919:Y 0
4 *392:6 0.000250632
5 *2920:S *2794:A2 0.000271308
6 *2920:S *396:12 4.11281e-05
7 *2922:S *2923:A 0
8 *2922:S *396:12 3.1067e-05
9 *2925:A *2922:S 0
10 *208:61 *2920:S 0.000122879
11 *321:61 *2922:S 5.21046e-05
12 *374:63 *2920:S 0.000115464
13 *374:63 *2922:S 0.000169503
14 *374:84 *2922:S 5.4155e-06
*RES
1 *2919:Y *392:6 3.6 
2 *392:6 *2920:S 7.86 
3 *392:6 *2922:S 6.36 
*END

*D_NET *393 0.00104738
*CONN
*I *2921:A I *D sky130_fd_sc_hd__clkbuf_1
*I *2920:X O *D sky130_fd_sc_hd__mux2_1
*CAP
1 *2921:A 0.000193166
2 *2920:X 0.000193166
3 *2921:A *2607:A 0.000381452
4 *2921:A *396:12 5.93963e-05
5 *2728:A *2921:A 4.99619e-05
6 *197:149 *2921:A 0.000112728
7 *374:63 *2921:A 5.75134e-05
*RES
1 *2920:X *2921:A 12.495 
*END

*D_NET *394 0.00016186
*CONN
*I *2923:A I *D sky130_fd_sc_hd__clkbuf_1
*I *2922:X O *D sky130_fd_sc_hd__mux2_1
*CAP
1 *2923:A 5.67871e-05
2 *2922:X 5.67871e-05
3 *2923:A *3355:A 4.82863e-05
4 *2922:S *2923:A 0
*RES
1 *2922:X *2923:A 4.265 
*END

*D_NET *395 0.0225245
*CONN
*I *3017:A I *D sky130_fd_sc_hd__nor2_1
*I *3101:A I *D sky130_fd_sc_hd__nor2_1
*I *2597:A I *D sky130_fd_sc_hd__or2_1
*I *2925:B I *D sky130_fd_sc_hd__nor2_1
*I *2924:X O *D sky130_fd_sc_hd__or3b_4
*CAP
1 *3017:A 0.000782456
2 *3101:A 0.000246456
3 *2597:A 4.92697e-05
4 *2925:B 0.000909601
5 *2924:X 0.0014381
6 *395:40 0.00250177
7 *395:30 0.00295876
8 *395:24 0.00338997
9 *2597:A *559:10 4.66108e-05
10 *2925:B *2600:S 0.000750435
11 *2925:B *2601:A 0.000210599
12 *2925:B *2750:A1 0.000124099
13 *2925:B *559:10 7.36562e-05
14 *2925:B *590:54 0.000198061
15 *3017:A *2765:B2 0
16 *3017:A *2965:A 0.000116158
17 *3017:A *2991:A0 0.000128904
18 *3017:A *2993:A0 4.05358e-05
19 *3017:A *3017:B 5.12969e-06
20 *3017:A *3023:S 3.09233e-05
21 *3017:A *3025:A1 8.51862e-05
22 *3017:A *3025:S 0.000136036
23 *3017:A *3026:A 4.00541e-06
24 *3017:A *3346:A 0
25 *3017:A *421:49 0
26 *3017:A *421:83 5.39837e-05
27 *3017:A *430:92 0.000161984
28 *3017:A *459:10 0.000114492
29 *3101:A *2763:A 4.77769e-05
30 *395:24 *3004:A 0
31 *395:24 *3005:A1 0.00015639
32 *395:24 *3176:CLK 9.43764e-06
33 *395:24 *3181:CLK 0.000538452
34 *395:24 *3383:A 4.05358e-05
35 *395:24 *3386:A 0.000129427
36 *395:24 *421:20 0.00071103
37 *395:24 *447:10 3.87203e-05
38 *395:24 *603:92 9.01463e-05
39 *395:30 *2991:S 5.78276e-05
40 *395:30 *3008:A0 3.06667e-05
41 *395:30 *3176:CLK 1.48096e-05
42 *395:30 *3216:CLK 0.000239772
43 *395:30 *3419:A 0
44 *395:40 *2572:B 0
45 *395:40 *2758:A 0.000255213
46 *395:40 *2997:A1 0.000112971
47 *395:40 *3100:A 2.84332e-05
48 *395:40 *3216:CLK 0.000379027
49 *395:40 *3378:A 0.000244438
50 *395:40 *443:10 5.21545e-05
51 *395:40 *445:150 0.000195241
52 *395:40 *527:83 0
53 *395:40 *831:20 5.69248e-06
54 *2577:A *395:40 0
55 *2708:B1 *395:30 0.000113761
56 *2720:D1 *395:40 0
57 *2736:B1 *2925:B 0.000881007
58 *2763:C *3101:A 2.3311e-05
59 *2763:C *395:40 0
60 *2764:A2 *395:40 1.0397e-05
61 *2764:B1 *3101:A 6.98881e-05
62 *2767:B1 *3101:A 2.10905e-05
63 *2795:B1 *395:40 0
64 *2924:C_N *395:24 0.000156614
65 *2991:A1 *3017:A 2.82846e-05
66 *2991:A1 *395:30 0.000194987
67 *3012:A *3017:A 0.000378607
68 *3065:A *395:30 0.000174595
69 *3166:D *395:24 7.31286e-05
70 *3181:D *395:24 2.96897e-05
71 *3216:D *395:40 0
72 *3464:A *395:24 8.41709e-05
73 *174:134 *395:40 0.000137452
74 *181:24 *395:24 4.60123e-05
75 *181:61 *2925:B 0.000464001
76 *181:61 *395:40 0.000216337
77 *183:38 *3017:A 0
78 *183:134 *3017:A 0
79 *190:28 *3017:A 0.000106665
80 *197:40 *395:30 0
81 *202:77 *3101:A 5.76085e-05
82 *202:102 *3101:A 0.000135189
83 *202:102 *395:40 5.05981e-05
84 *212:77 *395:40 0.00023422
85 *215:147 *2597:A 0.000122331
86 *321:61 *2925:B 0.000363701
87 *374:84 *2925:B 0.000365368
88 *384:22 *395:24 5.01893e-05
*RES
1 *2924:X *395:24 30.95 
2 *395:24 *395:30 19.73 
3 *395:30 *395:40 33.925 
4 *395:40 *2925:B 16.5773 
5 *395:40 *2597:A 4.74 
6 *395:30 *3101:A 8.43 
7 *395:24 *3017:A 23.195 
*END

*D_NET *396 0.00329479
*CONN
*I *2926:S I *D sky130_fd_sc_hd__mux2_1
*I *2928:S I *D sky130_fd_sc_hd__mux2_1
*I *2925:Y O *D sky130_fd_sc_hd__nor2_1
*CAP
1 *2926:S 0.000101541
2 *2928:S 2.22788e-05
3 *2925:Y 0.000685222
4 *396:12 0.000809042
5 *2926:S *900:10 4.49498e-05
6 *2928:S *2928:A0 4.82863e-05
7 *396:12 *2803:A1 4.12923e-05
8 *396:12 *2803:B2 0.000178733
9 *396:12 *2928:A0 4.82919e-05
10 *396:12 *3384:A 0.000123225
11 *396:12 *3405:A 0.000113373
12 *396:12 *900:10 1.0183e-05
13 *2886:A *396:12 0.000112105
14 *2920:S *396:12 4.11281e-05
15 *2921:A *396:12 5.93963e-05
16 *2922:S *396:12 3.1067e-05
17 *2925:A *396:12 7.46228e-05
18 *2928:A1 *396:12 1.61831e-05
19 *3154:D *2926:S 0
20 *3154:D *396:12 4.82919e-05
21 *321:61 *396:12 9.54469e-05
22 *350:50 *396:12 0.000244799
23 *369:12 *396:12 0.000283817
24 *369:64 *396:12 4.19797e-05
25 *369:77 *396:12 1.95374e-05
26 *374:63 *396:12 0
*RES
1 *2925:Y *396:12 23.69 
2 *396:12 *2928:S 2.05 
3 *396:12 *2926:S 7.49 
*END

*D_NET *397 0.00110236
*CONN
*I *2927:A I *D sky130_fd_sc_hd__clkbuf_1
*I *2926:X O *D sky130_fd_sc_hd__mux2_1
*CAP
1 *2927:A 0.000310757
2 *2926:X 0.000310757
3 *2927:A *2723:B2 7.17811e-05
4 *2927:A *2803:B2 0.00013521
5 *2927:A *3430:A 0.000119762
6 *2926:A1 *2927:A 2.75229e-05
7 *3154:D *2927:A 0.000126575
*RES
1 *2926:X *2927:A 13.185 
*END

*D_NET *398 0.000179562
*CONN
*I *2929:A I *D sky130_fd_sc_hd__clkbuf_1
*I *2928:X O *D sky130_fd_sc_hd__mux2_1
*CAP
1 *2929:A 8.9781e-05
2 *2928:X 8.9781e-05
*RES
1 *2928:X *2929:A 4.61 
*END

*D_NET *399 0.0344084
*CONN
*I *3022:A I *D sky130_fd_sc_hd__or2_1
*I *3107:A I *D sky130_fd_sc_hd__or2_1
*I *2602:A I *D sky130_fd_sc_hd__or2_1
*I *2931:B I *D sky130_fd_sc_hd__or2_1
*I *2930:X O *D sky130_fd_sc_hd__or4b_4
*CAP
1 *3022:A 0.00223979
2 *3107:A 8.96272e-05
3 *2602:A 0.00288125
4 *2931:B 0.00139251
5 *2930:X 3.12327e-05
6 *399:49 0.00559445
7 *399:16 0.00486487
8 *399:6 0.0031198
9 *2602:A *2763:A 0.000106655
10 *2602:A *2791:B2 9.58678e-06
11 *2602:A *407:22 1.15439e-05
12 *2602:A *445:12 0.000196458
13 *2602:A *590:66 6.31967e-05
14 *2602:A *828:12 8.75474e-05
15 *2931:B *2546:B 0
16 *2931:B *2617:B 0.000398242
17 *2931:B *2622:B 0.000362972
18 *2931:B *2808:B1 0
19 *2931:B *2949:B 0
20 *2931:B *411:47 0.00111567
21 *2931:B *528:10 0.000132842
22 *2931:B *608:16 0.000245943
23 *3022:A *2765:A1 4.84393e-05
24 *3022:A *2964:S 5.83121e-06
25 *3022:A *3012:B 1.33285e-05
26 *3022:A *3323:A 5.69013e-05
27 *3022:A *3346:A 4.77719e-05
28 *3022:A *421:53 4.66108e-05
29 *3022:A *677:12 5.36384e-06
30 *3022:A *678:16 0.000186092
31 *3107:A *3117:B 5.31857e-05
32 *399:16 *2961:B 0.000111011
33 *399:16 *3037:A 0.000255121
34 *399:16 *3180:CLK 0.00029829
35 *399:16 *411:33 0.000316603
36 *399:16 *411:47 0.000169577
37 *399:16 *608:16 0.000234354
38 *399:16 *678:16 4.21103e-05
39 *399:49 *2763:A 7.87189e-05
40 *399:49 *3458:A 9.22816e-06
41 *399:49 *407:22 0.00463747
42 *399:49 *445:12 7.43879e-05
43 *2680:D_N *3022:A 6.65066e-05
44 *2703:A *399:49 2.20023e-05
45 *2739:C *2931:B 2.81945e-05
46 *2742:A3 *2931:B 0.000205853
47 *2743:C *2931:B 5.16348e-05
48 *2751:A *2931:B 0.000169495
49 *2752:C *2931:B 4.41857e-05
50 *2778:C *2931:B 7.70938e-05
51 *2778:D *2931:B 0.000305885
52 *2780:A2 *2931:B 0.000222804
53 *2780:B1 *2931:B 0.000182697
54 *2781:D *2931:B 1.0748e-05
55 *2809:A3 *2931:B 0
56 *2850:A *399:6 3.83041e-05
57 *2850:A *399:16 0.000124007
58 *2851:A *399:16 5.54826e-05
59 *3085:B *399:49 0
60 *3180:D *3022:A 2.51576e-05
61 *3462:A *3022:A 9.51192e-05
62 *171:88 *3022:A 1.61461e-05
63 *178:37 *3022:A 8.44281e-05
64 *181:24 *3022:A 0
65 *181:38 *399:49 0.00022334
66 *182:12 *3022:A 0
67 *183:18 *3022:A 0.000686061
68 *192:44 *2931:B 0.000191964
69 *197:20 *3022:A 0.000684957
70 *202:62 *399:49 0.00035058
71 *207:10 *3022:A 0
72 *207:16 *3022:A 0
73 *208:120 *3022:A 6.28008e-05
74 *215:28 *3022:A 0
75 *218:24 *2931:B 7.75905e-05
76 *316:33 *2931:B 0.000101949
77 *345:53 *2602:A 0.000287332
78 *345:53 *399:49 1.99293e-05
79 *370:106 *399:16 2.32546e-05
80 *370:117 *399:16 1.38481e-05
81 *384:14 *399:16 0.00018237
82 *391:42 *399:49 4.2145e-05
*RES
1 *2930:X *399:6 2.05 
2 *399:6 *399:16 20.1875 
3 *399:16 *2931:B 39.6375 
4 *399:16 *399:49 9.2023 
5 *399:49 *2602:A 12.7866 
6 *399:49 *3107:A 4.755 
7 *399:6 *3022:A 43.35 
*END

*D_NET *400 0.00161401
*CONN
*I *2932:S I *D sky130_fd_sc_hd__mux2_1
*I *2934:S I *D sky130_fd_sc_hd__mux2_1
*I *2931:X O *D sky130_fd_sc_hd__or2_1
*CAP
1 *2932:S 0
2 *2934:S 9.72522e-05
3 *2931:X 0.000156547
4 *400:12 0.000253799
5 *400:12 *606:8 0.000128545
6 *2809:A3 *400:12 0
7 *231:59 *2934:S 0.000357541
8 *351:34 *400:12 0.000128545
9 *358:67 *400:12 0.000135903
10 *372:12 *2934:S 0.000355875
*RES
1 *2931:X *400:12 9.41 
2 *400:12 *2934:S 9.785 
3 *400:12 *2932:S 1.6 
*END

*D_NET *401 0.00135943
*CONN
*I *2933:A I *D sky130_fd_sc_hd__clkbuf_1
*I *2932:X O *D sky130_fd_sc_hd__mux2_1
*CAP
1 *2933:A 0.000325803
2 *2932:X 0.000325803
3 *2933:A *2726:A1 4.66108e-05
4 *2933:A *3157:CLK 5.58436e-05
5 *2933:A *3327:A 0.000232111
6 *2933:A *403:22 0
7 *2876:A0 *2933:A 0.000110555
8 *202:24 *2933:A 9.30717e-05
9 *325:100 *2933:A 0.000169636
*RES
1 *2932:X *2933:A 14.34 
*END

*D_NET *402 0.000961054
*CONN
*I *2935:A I *D sky130_fd_sc_hd__clkbuf_1
*I *2934:X O *D sky130_fd_sc_hd__mux2_1
*CAP
1 *2935:A 0.000323894
2 *2934:X 0.000323894
3 *2935:A *2802:A2 1.54111e-05
4 *2935:A *2802:B2 8.13316e-05
5 *2935:A *403:22 6.10082e-05
6 *2935:A *748:44 1.7386e-05
7 *2802:C1 *2935:A 1.16578e-05
8 *202:24 *2935:A 3.98757e-05
9 *325:56 *2935:A 8.65961e-05
*RES
1 *2934:X *2935:A 11.79 
*END

*D_NET *403 0.0208261
*CONN
*I *3027:A I *D sky130_fd_sc_hd__nor2_1
*I *3112:A I *D sky130_fd_sc_hd__nor2_1
*I *2607:A I *D sky130_fd_sc_hd__or2_1
*I *2937:B I *D sky130_fd_sc_hd__nor2_1
*I *2936:X O *D sky130_fd_sc_hd__or3_2
*CAP
1 *3027:A 0.00145277
2 *3112:A 0
3 *2607:A 0.0016535
4 *2937:B 0.000265336
5 *2936:X 0.000232317
6 *403:22 0.00354398
7 *403:12 0.00221073
8 *403:10 0.00227067
9 *2607:A *2607:B 2.76356e-05
10 *3027:A *737:16 0
11 *403:10 *3003:A1 0.000117297
12 *403:10 *3383:A 0.000120655
13 *403:10 *432:72 6.21553e-05
14 *403:12 *3003:A1 0.000169564
15 *403:12 *3458:A 1.92979e-05
16 *403:12 *432:72 0.00027213
17 *403:12 *726:32 0.000127452
18 *403:22 *2583:A1 0.000112087
19 *403:22 *2583:S 0
20 *403:22 *2747:A1 5.13545e-05
21 *403:22 *2774:A 6.33103e-05
22 *403:22 *3114:A 1.19928e-05
23 *403:22 *419:43 1.88904e-05
24 *403:22 *606:58 0
25 *2680:B *3027:A 0.000111324
26 *2685:B_N *3027:A 2.75145e-05
27 *2724:A2 *2937:B 6.4368e-05
28 *2724:A2 *403:22 0
29 *2728:A *2607:A 0.000354266
30 *2728:B *2937:B 8.53113e-06
31 *2728:B *403:22 7.23602e-05
32 *2747:B1 *403:22 0
33 *2806:B *2607:A 0.000347911
34 *2829:A1 *2607:A 0.000373741
35 *2829:S *2607:A 4.66108e-05
36 *2877:A *403:22 0.000116158
37 *2901:C *3027:A 0.000451664
38 *2918:B *3027:A 0
39 *2921:A *2607:A 0.000381452
40 *2933:A *403:22 0
41 *2935:A *403:22 6.10082e-05
42 *2937:A *2937:B 4.82919e-05
43 *3138:D *403:22 5.63949e-05
44 *3151:D *2937:B 4.47125e-05
45 *3152:D *2607:A 4.89295e-05
46 *3181:D *3027:A 0
47 *3248:D *2607:A 4.82319e-06
48 *3459:A *3027:A 4.82919e-05
49 *3463:A *403:12 7.87466e-05
50 *171:8 *3027:A 4.80285e-05
51 *171:23 *3027:A 2.86623e-05
52 *178:12 *3027:A 5.45814e-05
53 *178:14 *3027:A 0.000107872
54 *181:24 *3027:A 0
55 *181:130 *3027:A 0
56 *182:12 *3027:A 8.47629e-05
57 *182:38 *3027:A 0
58 *183:18 *3027:A 9.27326e-05
59 *185:12 *3027:A 0
60 *187:10 *3027:A 8.49205e-05
61 *187:24 *3027:A 0
62 *193:108 *403:22 0.000259916
63 *197:149 *2607:A 8.08412e-05
64 *202:10 *403:12 0.000144249
65 *202:24 *403:12 0.000113033
66 *202:24 *403:22 0.000317439
67 *208:8 *3027:A 0
68 *208:26 *3027:A 0
69 *208:61 *2607:A 8.94347e-05
70 *218:14 *403:12 0.000513814
71 *218:14 *403:22 0.000171732
72 *218:24 *403:22 0.000193235
73 *328:58 *403:22 8.16396e-05
74 *340:43 *403:10 2.81489e-05
75 *340:47 *3027:A 0.000137082
76 *350:40 *2937:B 0.000234855
77 *361:45 *403:22 0.000943792
78 *369:8 *2607:A 4.82863e-05
79 *371:47 *3027:A 5.33065e-05
80 *371:51 *403:22 7.02428e-05
81 *385:16 *2937:B 0.000226453
82 *385:16 *403:22 0.00106678
*RES
1 *2936:X *403:10 6.99 
2 *403:10 *403:12 15.15 
3 *403:12 *403:22 41.995 
4 *403:22 *2937:B 10.185 
5 *403:22 *2607:A 29.655 
6 *403:12 *3112:A 3.6 
7 *403:10 *3027:A 36.455 
*END

*D_NET *404 0.00269587
*CONN
*I *2940:S I *D sky130_fd_sc_hd__mux2_1
*I *2938:S I *D sky130_fd_sc_hd__mux2_1
*I *2937:Y O *D sky130_fd_sc_hd__nor2_1
*CAP
1 *2940:S 7.54952e-05
2 *2938:S 9.7018e-05
3 *2937:Y 0.000400238
4 *404:10 0.000572752
5 *2938:S *2938:A0 0
6 *2938:S *2941:A 7.4027e-05
7 *2938:S *3436:A 6.28765e-05
8 *2938:S *605:52 0
9 *2938:S *912:8 0
10 *2940:S *2940:A0 0.000122337
11 *2940:S *3436:A 4.80285e-05
12 *404:10 *3436:A 2.86623e-05
13 *404:10 *715:41 0.000494605
14 *2730:A3 *404:10 3.03199e-05
15 *2914:S *404:10 0.000351813
16 *2938:A1 *2938:S 2.42236e-05
17 *2938:A1 *404:10 0.000105776
18 *2940:A1 *2940:S 4.82863e-05
19 *2940:A1 *404:10 0
20 *350:40 *404:10 4.82919e-05
21 *359:62 *2940:S 4.43682e-05
22 *369:33 *404:10 9.23517e-06
23 *369:35 *404:10 5.75152e-05
24 *374:20 *404:10 0
25 *374:22 *404:10 0
*RES
1 *2937:Y *404:10 13.845 
2 *404:10 *2938:S 5.745 
3 *404:10 *2940:S 5.79 
*END

*D_NET *405 0.000323467
*CONN
*I *2939:A I *D sky130_fd_sc_hd__clkbuf_1
*I *2938:X O *D sky130_fd_sc_hd__mux2_1
*CAP
1 *2939:A 0.000100089
2 *2938:X 0.000100089
3 *2939:A *605:52 4.05358e-05
4 *3143:D *2939:A 8.2754e-05
*RES
1 *2938:X *2939:A 9.39 
*END

*D_NET *406 0.00084802
*CONN
*I *2941:A I *D sky130_fd_sc_hd__clkbuf_1
*I *2940:X O *D sky130_fd_sc_hd__mux2_1
*CAP
1 *2941:A 0.000254987
2 *2940:X 0.000254987
3 *2941:A *2938:A0 8.8266e-05
4 *2938:A1 *2941:A 7.4027e-05
5 *2938:S *2941:A 7.4027e-05
6 *3159:D *2941:A 7.67345e-05
7 *385:16 *2941:A 2.49909e-05
*RES
1 *2940:X *2941:A 12 
*END

*D_NET *407 0.0370808
*CONN
*I *3032:A I *D sky130_fd_sc_hd__or2_1
*I *2943:B I *D sky130_fd_sc_hd__or2_1
*I *3117:A I *D sky130_fd_sc_hd__or2_1
*I *2612:A I *D sky130_fd_sc_hd__or2_1
*I *2942:X O *D sky130_fd_sc_hd__or3_4
*CAP
1 *3032:A 0.00137116
2 *2943:B 0.00416893
3 *3117:A 2.4637e-05
4 *2612:A 0.00107217
5 *2942:X 1.51124e-05
6 *407:22 0.00476639
7 *407:16 0.00827695
8 *407:8 0.00182471
9 *2612:A *2604:A 2.30292e-05
10 *2612:A *2616:A 0.000139245
11 *2612:A *2792:A2 5.42425e-05
12 *2612:A *528:87 3.74161e-05
13 *2612:A *528:93 7.75271e-05
14 *2612:A *591:12 0.0006566
15 *2612:A *726:38 0.000450604
16 *2612:A *849:10 8.99337e-05
17 *2943:B *775:97 0.000106321
18 *3032:A *2684:B 6.21553e-05
19 *3032:A *2684:D_N 0.000109771
20 *3032:A *2713:B 0.000335163
21 *3032:A *2713:C 0.000113964
22 *3032:A *3037:B 8.65905e-05
23 *3032:A *3042:A 0.000476029
24 *3032:A *3042:B 0.00041533
25 *3032:A *3266:RESET_B 4.38278e-05
26 *3032:A *415:31 0
27 *3032:A *595:10 0
28 *3032:A *595:24 0
29 *3032:A *798:69 6.55631e-05
30 *3032:A *799:10 2.19562e-06
31 *3032:A *800:89 0.000144428
32 *3032:A *801:56 4.44927e-05
33 *3117:A *2766:A1 4.66108e-05
34 *407:16 *775:97 0.000201369
35 *407:22 *430:24 0
36 *407:22 *590:124 6.83077e-06
37 *2602:A *407:22 1.15439e-05
38 *2703:A *407:22 1.6271e-05
39 *2760:B1 *407:22 0.000686044
40 *2853:A2_N *407:16 0
41 *2942:B *3032:A 1.15436e-05
42 *2942:B *407:16 1.0183e-05
43 *2954:D *3032:A 1.44493e-05
44 *2979:A *407:16 0.000148125
45 *3200:D *407:16 0.000111293
46 *3252:D *2612:A 6.97118e-05
47 *176:51 *407:16 0.000241875
48 *182:50 *407:22 0.000432823
49 *183:38 *407:22 3.92756e-05
50 *197:54 *2612:A 0.000912558
51 *197:54 *407:22 1.08523e-05
52 *202:120 *2612:A 0.00128221
53 *202:120 *407:22 5.05716e-06
54 *211:35 *2943:B 2.07848e-06
55 *211:35 *407:22 4.18606e-05
56 *211:94 *2943:B 0.00046334
57 *215:72 *3032:A 0.000282484
58 *215:72 *407:16 0.000179516
59 *218:55 *2943:B 0.00047386
60 *285:18 *2612:A 5.83121e-06
61 *317:38 *407:8 1.83756e-05
62 *321:16 *407:16 1.88602e-05
63 *323:55 *407:8 2.75145e-05
64 *323:55 *407:16 7.89471e-05
65 *345:8 *407:16 0
66 *352:20 *3032:A 0.000136126
67 *355:18 *407:16 0
68 *361:12 *3032:A 4.01548e-05
69 *361:12 *407:16 0.000136231
70 *361:33 *2943:B 0.00122502
71 *399:49 *407:22 0.00463747
*RES
1 *2942:X *407:8 4.05 
2 *407:8 *407:16 11.4875 
3 *407:16 *407:22 9.8601 
4 *407:22 *2612:A 41.14 
5 *407:22 *3117:A 4.05 
6 *407:16 *2943:B 15.1007 
7 *407:8 *3032:A 36.19 
*END

*D_NET *408 0.00335686
*CONN
*I *2946:S I *D sky130_fd_sc_hd__mux2_1
*I *2944:S I *D sky130_fd_sc_hd__mux2_1
*I *2943:X O *D sky130_fd_sc_hd__or2_1
*CAP
1 *2946:S 0.000395447
2 *2944:S 7.29343e-05
3 *2943:X 0.00024982
4 *408:12 0.000718201
5 *2944:S *2721:B2 4.77769e-05
6 *2944:S *2799:A2 3.12855e-05
7 *2944:S *416:12 4.4022e-05
8 *2946:S *2800:B2 0.000414687
9 *408:12 *2953:A 0.000270647
10 *408:12 *416:12 0.000581045
11 *408:12 *890:12 9.10613e-05
12 *2800:C1 *2944:S 0.000114524
13 *2800:C1 *408:12 7.03219e-05
14 *2946:A0 *2946:S 3.56402e-05
15 *356:14 *408:12 0.000219447
*RES
1 *2943:X *408:12 12.675 
2 *408:12 *2944:S 5.43 
3 *408:12 *2946:S 10.29 
*END

*D_NET *409 0.0015949
*CONN
*I *2945:A I *D sky130_fd_sc_hd__clkbuf_1
*I *2944:X O *D sky130_fd_sc_hd__mux2_1
*CAP
1 *2945:A 0.000427399
2 *2944:X 0.000427399
3 *2945:A *2944:A1 0.000419417
4 *2945:A *3160:CLK 0
5 *3160:D *2945:A 0
6 *359:77 *2945:A 0.000320691
*RES
1 *2944:X *2945:A 14.775 
*END

*D_NET *410 0.000397722
*CONN
*I *2947:A I *D sky130_fd_sc_hd__clkbuf_1
*I *2946:X O *D sky130_fd_sc_hd__mux2_1
*CAP
1 *2947:A 7.54621e-05
2 *2946:X 7.54621e-05
3 *2947:A *2800:B2 0.000160338
4 *2947:A *3312:A 8.64599e-05
*RES
1 *2946:X *2947:A 5.3 
*END

*D_NET *411 0.0161545
*CONN
*I *3122:A I *D sky130_fd_sc_hd__or2_1
*I *2617:A I *D sky130_fd_sc_hd__or2_1
*I *2949:B I *D sky130_fd_sc_hd__or2_1
*I *3037:A I *D sky130_fd_sc_hd__or2_1
*I *2948:X O *D sky130_fd_sc_hd__or3_2
*CAP
1 *3122:A 0.000150871
2 *2617:A 0
3 *2949:B 0.000642256
4 *3037:A 0.00109623
5 *2948:X 0.000373367
6 *411:47 0.00184828
7 *411:33 0.00173367
8 *411:12 0.00184637
9 *2949:B *2546:B 0.000193138
10 *2949:B *2619:A 7.14241e-05
11 *2949:B *2621:A 1.27504e-05
12 *2949:B *2626:A 0.000166346
13 *2949:B *2808:B1 0.000142516
14 *2949:B *3259:CLK 0
15 *2949:B *574:14 9.02719e-05
16 *2949:B *759:47 0.000169342
17 *3037:A *2710:B_N 0.000360618
18 *3037:A *3037:B 4.82919e-05
19 *3037:A *421:114 0
20 *3037:A *590:145 6.82276e-05
21 *3037:A *678:16 0
22 *3122:A *3123:S 5.19006e-06
23 *3122:A *594:31 0.000129653
24 *411:12 *2930:D_N 1.7635e-05
25 *411:33 *2851:B 0.000203835
26 *411:33 *476:10 0.000407801
27 *411:33 *678:16 0.000167638
28 *411:47 *2542:A 0
29 *411:47 *2543:A1 0
30 *411:47 *2546:B 0.000163823
31 *411:47 *532:16 1.88656e-05
32 *411:47 *759:47 5.13924e-05
33 *2687:C1 *3037:A 1.61831e-05
34 *2739:C *411:47 0.000175666
35 *2742:C1 *411:47 0
36 *2745:A2 *411:47 0.000186405
37 *2753:B2 *2949:B 7.96104e-06
38 *2757:C1 *3037:A 0.000277223
39 *2778:C *411:47 0.000129376
40 *2780:A3 *411:47 8.97e-05
41 *2888:D_N *411:33 0.000120187
42 *2931:A *2949:B 0.000427372
43 *2931:B *2949:B 0
44 *2931:B *411:47 0.00111567
45 *2948:A *411:12 2.0851e-06
46 *3002:A *3037:A 0.000112679
47 *3060:A *3037:A 0.00010703
48 *3060:A *411:12 0.000106163
49 *3258:D *2949:B 9.47454e-05
50 *176:51 *411:33 0
51 *177:117 *411:47 4.77757e-05
52 *186:26 *3037:A 0.000349493
53 *192:44 *411:47 0.000289705
54 *212:18 *3037:A 0.000224013
55 *231:36 *411:47 0.000234103
56 *316:33 *2949:B 0
57 *325:35 *2949:B 0.000162775
58 *328:18 *2949:B 0.000850094
59 *328:58 *2949:B 1.05827e-05
60 *336:22 *411:12 1.08732e-05
61 *336:28 *411:33 0
62 *370:117 *3037:A 8.55738e-05
63 *399:16 *3037:A 0.000255121
64 *399:16 *411:33 0.000316603
65 *399:16 *411:47 0.000169577
*RES
1 *2948:X *411:12 5.1499 
2 *411:12 *3037:A 25.0134 
3 *411:12 *411:33 10.4225 
4 *411:33 *411:47 31.42 
5 *411:47 *2949:B 21.255 
6 *411:47 *2617:A 3.6 
7 *411:33 *3122:A 6.495 
*END

*D_NET *412 0.00176948
*CONN
*I *2950:S I *D sky130_fd_sc_hd__mux2_1
*I *2952:S I *D sky130_fd_sc_hd__mux2_1
*I *2949:X O *D sky130_fd_sc_hd__or2_1
*CAP
1 *2950:S 0
2 *2952:S 0.000277702
3 *2949:X 0.000120633
4 *412:10 0.000398335
5 *2952:S *759:93 0.00020306
6 *412:10 *759:93 0.000109009
7 *412:10 *796:32 6.97034e-05
8 *2807:A1 *2952:S 2.75145e-05
9 *2952:A0 *2952:S 8.49205e-05
10 *218:55 *2952:S 0.0002014
11 *218:55 *412:10 0.000118513
12 *350:40 *2952:S 0.000158692
*RES
1 *2949:X *412:10 6.12 
2 *412:10 *2952:S 9.9 
3 *412:10 *2950:S 3.6 
*END

*D_NET *413 0.00105676
*CONN
*I *2951:A I *D sky130_fd_sc_hd__clkbuf_1
*I *2950:X O *D sky130_fd_sc_hd__mux2_1
*CAP
1 *2951:A 0.00031096
2 *2950:X 0.00031096
3 *2951:A *2800:A2 7.58543e-05
4 *2951:A *605:16 0.000107396
5 *2951:A *737:30 3.97748e-05
6 *2951:A *759:93 9.12463e-05
7 *351:34 *2951:A 0.000120573
*RES
1 *2950:X *2951:A 12.81 
*END

*D_NET *414 0.000990163
*CONN
*I *2953:A I *D sky130_fd_sc_hd__clkbuf_1
*I *2952:X O *D sky130_fd_sc_hd__mux2_1
*CAP
1 *2953:A 0.000148407
2 *2952:X 0.000148407
3 *2953:A *416:12 2.42236e-05
4 *350:40 *2953:A 8.40269e-05
5 *356:14 *2953:A 0.000314452
6 *408:12 *2953:A 0.000270647
*RES
1 *2952:X *2953:A 11.67 
*END

*D_NET *415 0.0149853
*CONN
*I *2540:A I *D sky130_fd_sc_hd__or2_1
*I *2622:A I *D sky130_fd_sc_hd__or2_1
*I *2955:B I *D sky130_fd_sc_hd__or2_1
*I *3042:A I *D sky130_fd_sc_hd__or2_1
*I *2954:X O *D sky130_fd_sc_hd__or4_2
*CAP
1 *2540:A 5.63299e-05
2 *2622:A 0.000311547
3 *2955:B 0.000195277
4 *3042:A 0.000831632
5 *2954:X 8.81557e-05
6 *415:41 0.00193331
7 *415:31 0.00221885
8 *415:8 0.00165582
9 *2540:A *432:8 3.64998e-06
10 *2540:A *524:10 1.77595e-05
11 *2540:A *594:31 0.00016031
12 *2622:A *593:73 9.86151e-05
13 *2955:B *3259:CLK 0.000116158
14 *2955:B *3300:A 4.66108e-05
15 *2955:B *759:93 0.000340573
16 *3042:A *2684:C 1.77595e-05
17 *3042:A *2713:D 0.000213799
18 *3042:A *3266:RESET_B 1.18308e-05
19 *3042:A *471:10 8.64421e-05
20 *3042:A *595:24 0
21 *3042:A *798:69 0.000266964
22 *3042:A *800:89 3.61491e-05
23 *3042:A *801:54 3.59499e-05
24 *415:31 *2930:D_N 0
25 *415:31 *3057:A 0.000156474
26 *415:31 *590:124 0
27 *415:31 *590:135 0
28 *415:31 *773:60 3.78941e-05
29 *415:31 *773:79 0
30 *415:41 *2620:A1 0.000262023
31 *415:41 *2620:S 7.19937e-05
32 *415:41 *2770:A 0.00011549
33 *415:41 *3056:A0 5.22923e-05
34 *415:41 *3057:A 0.000134373
35 *415:41 *3259:CLK 0.000359686
36 *415:41 *3304:A 0.000366835
37 *415:41 *3382:A 0.000115715
38 *415:41 *524:10 0.000112364
39 *415:41 *527:16 0.000451453
40 *415:41 *571:10 0.000130887
41 *415:41 *641:12 1.80732e-05
42 *415:41 *759:12 9.1566e-05
43 *415:41 *759:47 0.000168231
44 *415:41 *759:93 0.000514385
45 *2753:B1 *415:41 0.000161757
46 *2772:C *415:41 6.21553e-05
47 *2773:A *415:41 2.10135e-05
48 *2773:B *415:41 0.00030726
49 *2852:A *415:31 0.000110862
50 *2853:A2_N *415:31 1.42845e-05
51 *2880:B *415:31 0.000162402
52 *2931:A *2622:A 8.52845e-05
53 *2942:B *415:31 4.37983e-06
54 *2954:D *415:31 0.000112189
55 *3032:A *3042:A 0.000476029
56 *3032:A *415:31 0
57 *3260:D *2622:A 0.000125481
58 *3261:D *2622:A 8.58181e-05
59 *176:24 *415:41 5.7344e-05
60 *176:51 *415:41 0.000200642
61 *211:66 *415:41 0
62 *218:55 *415:41 0.000453878
63 *318:66 *415:8 2.68464e-05
64 *318:68 *415:8 5.06989e-05
65 *328:18 *2955:B 0
66 *340:29 *415:31 1.83975e-05
67 *345:8 *415:31 0.000281189
68 *352:26 *415:31 4.09597e-05
69 *354:23 *415:31 6.8352e-05
70 *355:18 *415:31 0.000154807
*RES
1 *2954:X *415:8 4.74 
2 *415:8 *3042:A 19.59 
3 *415:8 *415:31 14.415 
4 *415:31 *415:41 37.005 
5 *415:41 *2955:B 8.325 
6 *415:41 *2622:A 8.655 
7 *415:31 *2540:A 5.085 
*END

*D_NET *416 0.00335221
*CONN
*I *2958:S I *D sky130_fd_sc_hd__mux2_1
*I *2956:S I *D sky130_fd_sc_hd__mux2_1
*I *2955:X O *D sky130_fd_sc_hd__or2_1
*CAP
1 *2958:S 1.77555e-05
2 *2956:S 0.000107268
3 *2955:X 0.000579655
4 *416:12 0.000704679
5 *2956:S *2956:A1 1.16578e-05
6 *2956:S *2958:A1 1.16578e-05
7 *2958:S *2958:A1 3.83041e-05
8 *416:12 *2722:A1 0
9 *416:12 *2799:A1 0
10 *416:12 *2799:A2 0.000203776
11 *416:12 *2956:A1 0
12 *416:12 *889:10 0
13 *416:12 *890:12 9.10613e-05
14 *416:12 *891:10 0.000116158
15 *2722:B1 *416:12 9.12857e-06
16 *2944:S *416:12 4.4022e-05
17 *2953:A *416:12 2.42236e-05
18 *211:94 *416:12 0.000442679
19 *325:31 *416:12 7.4027e-05
20 *356:14 *416:12 4.49328e-05
21 *359:62 *2956:S 0.000238919
22 *359:66 *2956:S 1.12578e-05
23 *408:12 *416:12 0.000581045
*RES
1 *2955:X *416:12 21.365 
2 *416:12 *2956:S 4.12 
3 *416:12 *2958:S 2.05 
*END

*D_NET *417 0.00105339
*CONN
*I *2957:A I *D sky130_fd_sc_hd__clkbuf_1
*I *2956:X O *D sky130_fd_sc_hd__mux2_1
*CAP
1 *2957:A 0.000416721
2 *2956:X 0.000416721
3 *2957:A *2959:A 0.000137226
4 *2957:A *3137:CLK 1.20052e-05
5 *3164:D *2957:A 0
6 *359:62 *2957:A 7.07148e-05
*RES
1 *2956:X *2957:A 13.815 
*END

*D_NET *418 0.000989078
*CONN
*I *2959:A I *D sky130_fd_sc_hd__clkbuf_1
*I *2958:X O *D sky130_fd_sc_hd__mux2_1
*CAP
1 *2959:A 0.00030856
2 *2958:X 0.00030856
3 *2959:A *3137:CLK 9.30717e-05
4 *2959:A *889:10 3.86529e-05
5 *2957:A *2959:A 0.000137226
6 *3165:D *2959:A 3.32883e-05
7 *359:62 *2959:A 6.97202e-05
*RES
1 *2958:X *2959:A 12.81 
*END

*D_NET *419 0.0275239
*CONN
*I *3002:C I *D sky130_fd_sc_hd__or3_1
*I *2961:B I *D sky130_fd_sc_hd__or2_1
*I *2973:B I *D sky130_fd_sc_hd__or2_1
*I *2985:B I *D sky130_fd_sc_hd__nor2_1
*I *2990:B I *D sky130_fd_sc_hd__nor2_1
*I *2980:B I *D sky130_fd_sc_hd__or2_1
*I *2996:B I *D sky130_fd_sc_hd__nor2_1
*I *2968:B I *D sky130_fd_sc_hd__or2_1
*I *2960:Y O *D sky130_fd_sc_hd__nand3b_4
*CAP
1 *3002:C 0.000180633
2 *2961:B 0.000124022
3 *2973:B 0
4 *2985:B 0.000108621
5 *2990:B 4.27961e-05
6 *2980:B 0
7 *2996:B 7.77117e-06
8 *2968:B 0.000342094
9 *2960:Y 3.72039e-05
10 *419:126 0.00201499
11 *419:88 0.00117745
12 *419:67 0.00288311
13 *419:43 0.0033856
14 *419:27 0.00153629
15 *419:16 0.00130643
16 *419:10 0.00271187
17 *2968:B *2974:S 0.000185398
18 *2968:B *511:22 0.000370626
19 *2968:B *883:10 0
20 *2985:B *436:10 4.66108e-05
21 *2990:B *439:16 0.000166554
22 *2996:B *875:8 4.99619e-05
23 *3002:C *421:20 4.92062e-05
24 *3002:C *421:114 4.01778e-05
25 *419:10 *2960:B 5.19006e-06
26 *419:10 *2960:C 2.21074e-05
27 *419:10 *3047:B 8.42627e-05
28 *419:10 *775:80 0.000122821
29 *419:16 *2689:A_N 0
30 *419:16 *2689:B 0
31 *419:16 *2771:A 0.000149749
32 *419:16 *2974:S 4.9968e-05
33 *419:16 *2978:A 0.000141599
34 *419:16 *3056:A1 0.000118991
35 *419:16 *3367:A 0
36 *419:16 *3380:A 0.00011741
37 *419:16 *511:22 0.000297855
38 *419:16 *802:8 0
39 *419:43 *3304:A 0
40 *419:43 *511:22 0.000143909
41 *419:43 *590:112 0
42 *419:43 *590:222 0
43 *419:43 *641:31 4.65607e-05
44 *419:67 *2997:A0 3.86607e-05
45 *419:67 *3081:A0 0.000108806
46 *419:67 *600:64 0.000148477
47 *419:67 *875:8 0.000186388
48 *419:88 *2702:A1 7.77156e-05
49 *419:88 *3099:A0 6.95753e-05
50 *419:88 *439:16 3.00381e-05
51 *419:88 *445:109 8.89169e-05
52 *419:88 *474:55 9.12857e-06
53 *419:126 *2699:A2 0.000195457
54 *419:126 *3180:CLK 5.26905e-05
55 *419:126 *594:8 0.000451582
56 *419:126 *652:63 1.28996e-05
57 *419:126 *678:16 8.52972e-05
58 *2702:B1 *419:88 0
59 *2708:A2 *419:88 0.000158466
60 *2708:B1 *419:88 0.000657532
61 *2753:B1 *419:67 2.9067e-05
62 *2753:B1 *419:88 0.000136399
63 *2779:C *2985:B 1.67131e-05
64 *2785:C *419:67 1.7635e-05
65 *2789:A1 *419:88 0.000355882
66 *2790:A2 *419:67 0
67 *2936:C *2961:B 1.54111e-05
68 *2973:A *419:43 0.000236114
69 *2985:A *2985:B 3.74161e-05
70 *3002:A *3002:C 0.000378826
71 *3075:A *2990:B 0.000108761
72 *3075:A *419:88 8.88715e-05
73 *3099:A1 *419:88 0.00023636
74 *3171:D *419:16 0
75 *3201:D *419:16 0
76 *3210:D *419:67 0.00011568
77 *3285:A *419:67 0
78 *181:61 *419:88 0.000758023
79 *187:43 *419:43 2.20023e-05
80 *193:108 *2985:B 2.54431e-05
81 *211:150 *419:67 0
82 *212:18 *3002:C 0.000212635
83 *212:18 *419:126 0.000400369
84 *218:24 *419:43 0.000839601
85 *218:102 *419:43 0
86 *321:61 *419:67 0.000122379
87 *323:55 *419:16 0
88 *323:55 *419:43 0.000145576
89 *338:12 *419:126 0.000138106
90 *343:31 *2961:B 2.87395e-05
91 *355:18 *419:126 9.84609e-06
92 *358:85 *419:88 0.000203769
93 *361:45 *419:43 0.000574017
94 *365:26 *419:88 0.000125211
95 *370:14 *419:126 0.000123068
96 *370:106 *2961:B 7.9642e-06
97 *370:106 *419:126 6.90818e-05
98 *370:117 *2961:B 0.000111547
99 *370:117 *3002:C 0.000118534
100 *370:117 *419:126 0.000103583
101 *371:47 *2985:B 8.49205e-05
102 *371:47 *419:67 0.000380189
103 *371:51 *419:43 7.96104e-06
104 *380:12 *419:67 9.58678e-06
105 *380:45 *2996:B 4.82863e-05
106 *380:45 *419:67 0.000510995
107 *399:16 *2961:B 0.000111011
108 *403:22 *419:43 1.88904e-05
*RES
1 *2960:Y *419:10 5.1 
2 *419:10 *419:16 18.765 
3 *419:16 *2968:B 11.61 
4 *419:16 *419:27 2 
5 *419:27 *419:43 11.5525 
6 *419:43 *419:67 19.4062 
7 *419:67 *2996:B 2.05 
8 *419:67 *419:88 32.515 
9 *419:88 *2980:B 1.6 
10 *419:88 *2990:B 3.43 
11 *419:43 *2985:B 3.79 
12 *419:27 *2973:B 1.6 
13 *419:10 *419:126 27.94 
14 *419:126 *2961:B 9.775 
15 *419:126 *3002:C 9.135 
*END

*D_NET *420 0.000869053
*CONN
*I *2962:A I *D sky130_fd_sc_hd__buf_2
*I *2961:X O *D sky130_fd_sc_hd__or2_1
*CAP
1 *2962:A 0.000154245
2 *2961:X 0.000154245
3 *2962:A *677:12 0.000302943
4 *2924:B *2962:A 2.75145e-05
5 *2936:A *2962:A 0.000137571
6 *212:18 *2962:A 8.67021e-05
7 *317:50 *2962:A 5.83121e-06
*RES
1 *2961:X *2962:A 11.325 
*END

*D_NET *421 0.0157064
*CONN
*I *3032:B I *D sky130_fd_sc_hd__or2_1
*I *3042:B I *D sky130_fd_sc_hd__or2_1
*I *3037:B I *D sky130_fd_sc_hd__or2_1
*I *2963:B I *D sky130_fd_sc_hd__nor2_1
*I *3017:B I *D sky130_fd_sc_hd__nor2_1
*I *3027:B I *D sky130_fd_sc_hd__nor2_1
*I *3012:B I *D sky130_fd_sc_hd__nor2_1
*I *3022:B I *D sky130_fd_sc_hd__or2_1
*I *3007:B I *D sky130_fd_sc_hd__nor2_1
*I *2962:X O *D sky130_fd_sc_hd__buf_2
*CAP
1 *3032:B 0
2 *3042:B 0.000203418
3 *3037:B 0.000161361
4 *2963:B 0
5 *3017:B 1.39847e-05
6 *3027:B 0.000401142
7 *3012:B 0.00041395
8 *3022:B 0
9 *3007:B 0.000297709
10 *2962:X 0
11 *421:114 0.000930867
12 *421:83 0.000620461
13 *421:53 0.000435654
14 *421:49 0.000984169
15 *421:28 0.00143379
16 *421:20 0.00123983
17 *421:4 0.00142697
18 *3007:B *474:55 5.85003e-05
19 *3012:B *2983:A1 7.60965e-05
20 *3012:B *3346:A 0.00016031
21 *3012:B *430:92 4.66108e-05
22 *3012:B *445:109 0.000187759
23 *3012:B *459:10 7.05373e-05
24 *3027:B *456:16 1.16854e-05
25 *3037:B *465:12 9.93945e-05
26 *421:20 *2966:S 2.75229e-05
27 *421:20 *3006:A 4.41506e-05
28 *421:20 *3181:CLK 2.75229e-05
29 *421:20 *3452:A 1.67131e-05
30 *421:28 *2966:A0 0.000230002
31 *421:28 *2966:S 0.000290699
32 *421:28 *2967:A 1.61831e-05
33 *421:49 *2760:A1 0
34 *421:49 *2765:B2 8.43848e-05
35 *421:49 *3299:A 0.000140151
36 *421:49 *590:181 0.000146768
37 *421:83 *456:16 1.9872e-05
38 *421:114 *2678:A 0
39 *421:114 *2710:B_N 1.73877e-05
40 *421:114 *677:12 3.67779e-05
41 *421:114 *799:34 0.000422773
42 *2679:B_N *3027:B 0
43 *2767:A2 *421:49 0
44 *2918:B *421:20 9.25026e-05
45 *2963:A *421:28 6.84808e-05
46 *2993:A1 *3007:B 0.000417892
47 *2993:A1 *421:28 0.000159156
48 *3002:A *421:20 1.61831e-05
49 *3002:C *421:20 4.92062e-05
50 *3002:C *421:114 4.01778e-05
51 *3012:A *3012:B 0
52 *3012:A *421:49 0
53 *3017:A *3017:B 5.12969e-06
54 *3017:A *421:49 0
55 *3017:A *421:83 5.39837e-05
56 *3022:A *3012:B 1.33285e-05
57 *3022:A *421:53 4.66108e-05
58 *3032:A *3037:B 8.65905e-05
59 *3032:A *3042:B 0.00041533
60 *3037:A *3037:B 4.82919e-05
61 *3037:A *421:114 0
62 *3167:D *421:49 0
63 *3181:D *421:20 0.00014305
64 *3464:A *421:114 0
65 *172:47 *3037:B 6.47516e-05
66 *172:47 *421:114 0
67 *180:71 *3027:B 0
68 *181:10 *3027:B 0.000159852
69 *182:38 *421:20 0.000221161
70 *183:38 *421:49 0.000626926
71 *183:134 *421:49 4.9968e-05
72 *183:134 *421:83 0.000197599
73 *186:26 *3037:B 4.82919e-05
74 *190:28 *3012:B 0
75 *212:18 *421:114 0.000800975
76 *369:128 *421:28 0.000135012
77 *374:152 *421:49 0
78 *384:22 *421:20 7.68414e-06
79 *391:12 *421:20 0.000232116
80 *391:12 *421:49 0
81 *395:24 *421:20 0.00071103
*RES
1 *2962:X *421:4 1.6 
2 *421:4 *421:20 21.055 
3 *421:20 *421:28 12.295 
4 *421:28 *3007:B 7.24 
5 *421:28 *421:49 16.985 
6 *421:49 *421:53 2.45 
7 *421:53 *3022:B 1.6 
8 *421:53 *3012:B 13.835 
9 *421:49 *421:83 6.245 
10 *421:83 *3027:B 8.2 
11 *421:83 *3017:B 1.96 
12 *421:20 *2963:B 1.6 
13 *421:4 *421:114 17.23 
14 *421:114 *3037:B 9.26 
15 *421:114 *3042:B 5.5 
16 *421:114 *3032:B 1.6 
*END

*D_NET *422 0.00267462
*CONN
*I *2964:S I *D sky130_fd_sc_hd__mux2_1
*I *2966:S I *D sky130_fd_sc_hd__mux2_1
*I *2963:Y O *D sky130_fd_sc_hd__nor2_1
*CAP
1 *2964:S 0.000280918
2 *2966:S 0.000333757
3 *2963:Y 0
4 *422:4 0.000614675
5 *2964:S *3323:A 8.65905e-05
6 *2966:S *2697:A1 8.97043e-05
7 *2966:S *2967:A 0.000406665
8 *2966:S *3452:A 5.15573e-05
9 *2964:A1 *2964:S 0.000243143
10 *2991:A1 *2966:S 6.97118e-05
11 *3022:A *2964:S 5.83121e-06
12 *197:20 *2964:S 4.45507e-06
13 *207:16 *2964:S 0
14 *369:128 *2964:S 5.029e-05
15 *374:152 *2966:S 9.73074e-05
16 *391:12 *2966:S 2.17931e-05
17 *421:20 *2966:S 2.75229e-05
18 *421:28 *2966:S 0.000290699
*RES
1 *2963:Y *422:4 1.6 
2 *422:4 *2966:S 15.005 
3 *422:4 *2964:S 11.135 
*END

*D_NET *423 0.00149295
*CONN
*I *2965:A I *D sky130_fd_sc_hd__clkbuf_1
*I *2964:X O *D sky130_fd_sc_hd__mux2_1
*CAP
1 *2965:A 0.0004533
2 *2964:X 0.0004533
3 *2965:A *2991:A0 7.23602e-05
4 *2965:A *3298:A 0.000121019
5 *3012:A *2965:A 2.34345e-05
6 *3017:A *2965:A 0.000116158
7 *207:94 *2965:A 0.000253376
*RES
1 *2964:X *2965:A 13.86 
*END

*D_NET *424 0.00146983
*CONN
*I *2967:A I *D sky130_fd_sc_hd__clkbuf_1
*I *2966:X O *D sky130_fd_sc_hd__mux2_1
*CAP
1 *2967:A 0.000273562
2 *2966:X 0.000273562
3 *2967:A *2697:A1 2.65013e-05
4 *2967:A *3323:A 2.03087e-05
5 *2964:A1 *2967:A 6.51348e-05
6 *2966:S *2967:A 0.000406665
7 *3167:D *2967:A 3.08148e-05
8 *369:128 *2967:A 0.000126667
9 *374:152 *2967:A 0.000230435
10 *421:28 *2967:A 1.61831e-05
*RES
1 *2966:X *2967:A 14.52 
*END

*D_NET *425 0.00131178
*CONN
*I *2969:S I *D sky130_fd_sc_hd__mux2_1
*I *2971:S I *D sky130_fd_sc_hd__mux2_1
*I *2968:X O *D sky130_fd_sc_hd__or2_1
*CAP
1 *2969:S 0.000334154
2 *2971:S 7.3755e-05
3 *2968:X 0
4 *425:6 0.000407909
5 *2969:S *2745:A1 0.0002312
6 *2969:S *2969:A1 0.00016254
7 *2969:S *3309:A 7.38779e-05
8 *2969:S *593:123 3.75882e-06
9 *2971:S *593:123 2.45861e-05
*RES
1 *2968:X *425:6 3.6 
2 *425:6 *2971:S 4.98 
3 *425:6 *2969:S 9.72 
*END

*D_NET *426 0.00178337
*CONN
*I *2970:A I *D sky130_fd_sc_hd__clkbuf_1
*I *2969:X O *D sky130_fd_sc_hd__mux2_1
*CAP
1 *2970:A 0.000529985
2 *2969:X 0.000529985
3 *2970:A *2745:A1 4.89395e-05
4 *2970:A *2975:A 8.53011e-05
5 *2970:A *3170:CLK 6.08432e-05
6 *2970:A *3309:A 0.0001615
7 *3170:D *2970:A 0.000366814
*RES
1 *2969:X *2970:A 17.19 
*END

*D_NET *427 0.000996187
*CONN
*I *2972:A I *D sky130_fd_sc_hd__clkbuf_1
*I *2971:X O *D sky130_fd_sc_hd__mux2_1
*CAP
1 *2972:A 0.0004894
2 *2971:X 0.0004894
3 *2972:A *2971:A1 1.7386e-05
*RES
1 *2971:X *2972:A 13.08 
*END

*D_NET *428 0.00239659
*CONN
*I *2974:S I *D sky130_fd_sc_hd__mux2_1
*I *2977:S I *D sky130_fd_sc_hd__mux2_1
*I *2973:X O *D sky130_fd_sc_hd__or2_1
*CAP
1 *2974:S 0.000115832
2 *2977:S 0.000428553
3 *2973:X 9.03565e-05
4 *428:6 0.000634741
5 *2977:S *2977:A0 3.12319e-05
6 *2977:S *2977:A1 7.4027e-05
7 *2977:S *774:83 0.000206491
8 *428:6 *641:31 1.0124e-05
9 *2744:B *2977:S 7.4027e-05
10 *2968:B *2974:S 0.000185398
11 *2973:A *2977:S 0.000303575
12 *2973:A *428:6 3.74161e-05
13 *2979:A *2977:S 9.12227e-05
14 *350:106 *2977:S 6.36261e-05
15 *419:16 *2974:S 4.9968e-05
*RES
1 *2973:X *428:6 2.74 
2 *428:6 *2977:S 14.18 
3 *428:6 *2974:S 8.255 
*END

*D_NET *429 0.0005613
*CONN
*I *2975:A I *D sky130_fd_sc_hd__clkbuf_1
*I *2974:X O *D sky130_fd_sc_hd__mux2_1
*CAP
1 *2975:A 0.000157123
2 *2974:X 0.000157123
3 *2975:A *883:10 3.89366e-05
4 *2970:A *2975:A 8.53011e-05
5 *3170:D *2975:A 0.000122817
*RES
1 *2974:X *2975:A 10.41 
*END

*D_NET *430 0.0321947
*CONN
*I *3063:A0 I *D sky130_fd_sc_hd__mux2_1
*I *3025:A0 I *D sky130_fd_sc_hd__mux2_1
*I *3035:A0 I *D sky130_fd_sc_hd__mux2_1
*I *3045:A0 I *D sky130_fd_sc_hd__mux2_1
*I *3040:A0 I *D sky130_fd_sc_hd__mux2_1
*I *3005:A0 I *D sky130_fd_sc_hd__mux2_1
*I *3068:A0 I *D sky130_fd_sc_hd__mux2_1
*I *2983:A0 I *D sky130_fd_sc_hd__mux2_1
*I *3058:A0 I *D sky130_fd_sc_hd__mux2_1
*I *2977:A0 I *D sky130_fd_sc_hd__mux2_1
*I *2976:X O *D sky130_fd_sc_hd__clkbuf_4
*CAP
1 *3063:A0 0.000209674
2 *3025:A0 0
3 *3035:A0 0
4 *3045:A0 0.000512586
5 *3040:A0 0
6 *3005:A0 0.000629278
7 *3068:A0 0.000203191
8 *2983:A0 0.000122821
9 *3058:A0 4.04094e-05
10 *2977:A0 0.000152511
11 *2976:X 0.000121838
12 *430:144 0.000720345
13 *430:129 0.000530771
14 *430:110 0.0021094
15 *430:92 0.00196036
16 *430:82 0.00117642
17 *430:65 0.000699733
18 *430:46 0.00160684
19 *430:24 0.00328017
20 *430:10 0.00436007
21 *2977:A0 *2775:A 4.82863e-05
22 *2977:A0 *774:83 0.000401288
23 *2983:A0 *2984:A 0.000122331
24 *2983:A0 *604:20 3.26889e-05
25 *3005:A0 *2761:A 0.000156364
26 *3005:A0 *3005:A1 9.387e-06
27 *3005:A0 *3005:S 4.66108e-05
28 *3005:A0 *432:72 0
29 *3045:A0 *2687:B2 0
30 *3045:A0 *3033:S 0.000349592
31 *3045:A0 *3035:A1 1.19928e-05
32 *3045:A0 *3043:A0 8.95933e-05
33 *3045:A0 *3043:S 0
34 *3045:A0 *3044:A 0.000196699
35 *3058:A0 *774:83 0.000164686
36 *3063:A0 *2782:B2 0
37 *3063:A0 *3069:A 0.000161623
38 *3063:A0 *483:10 0
39 *3068:A0 *483:10 7.4027e-05
40 *430:10 *3104:A0 3.75738e-05
41 *430:10 *3217:CLK 0
42 *430:10 *476:46 3.00381e-05
43 *430:10 *511:70 0.000112123
44 *430:24 *2541:S 4.66108e-05
45 *430:24 *2544:A 4.85359e-05
46 *430:24 *2777:B 8.23457e-05
47 *430:24 *3059:A 5.83121e-06
48 *430:24 *3372:A 2.39856e-05
49 *430:24 *476:26 0.00067646
50 *430:24 *476:36 0.000526928
51 *430:24 *511:22 0.00023622
52 *430:24 *511:38 0.00015603
53 *430:46 *3065:B 0
54 *430:46 *3067:A 0
55 *430:46 *3104:A0 1.49438e-05
56 *430:46 *3217:CLK 0
57 *430:46 *445:88 0
58 *430:46 *476:46 0
59 *430:46 *508:12 5.65189e-05
60 *430:46 *590:159 0
61 *430:65 *3429:A 3.23663e-05
62 *430:65 *845:10 0
63 *430:82 *3068:A1 4.05358e-05
64 *430:82 *3069:A 0.000252289
65 *430:82 *483:10 0
66 *430:92 *3025:S 1.19928e-05
67 *430:92 *3026:A 7.41242e-05
68 *430:92 *3418:A 3.45679e-05
69 *430:92 *442:99 0.000691766
70 *430:92 *844:6 2.76356e-05
71 *430:110 *2757:A1 5.6456e-05
72 *430:110 *3023:S 0
73 *430:110 *862:10 9.92917e-05
74 *430:129 *2686:A1 0.000199698
75 *430:129 *3038:S 0.000193129
76 *430:129 *3041:A 4.77807e-05
77 *430:129 *432:72 0
78 *430:129 *857:8 0.000154863
79 *430:144 *3038:S 4.66108e-05
80 *430:144 *3040:A1 0.000192186
81 *430:144 *3432:A 0.000158072
82 *2680:C *3005:A0 9.54399e-05
83 *2701:B *430:46 0.000151966
84 *2731:A2 *430:65 5.03202e-05
85 *2733:A2 *3068:A0 0.000141323
86 *2733:A2 *430:65 4.60584e-05
87 *2733:A2 *430:82 3.23391e-05
88 *2755:A2 *430:144 0.000201798
89 *2755:B1 *430:129 0.000132138
90 *2756:C1 *430:144 1.56428e-05
91 *2757:A2 *430:110 0.000429658
92 *2757:C1 *430:110 0.000210352
93 *2763:B *430:46 0.000262166
94 *2763:C *430:46 4.47202e-05
95 *2767:B1 *430:46 7.03276e-05
96 *2771:B *2977:A0 0.000273709
97 *2771:B *3058:A0 7.35481e-05
98 *2782:B1 *430:65 3.77199e-05
99 *2784:B1 *3068:A0 0
100 *2784:B1 *430:46 0
101 *2784:B1 *430:65 0
102 *2784:B1 *430:82 7.23602e-05
103 *2977:S *2977:A0 3.12319e-05
104 *2979:A *2977:A0 0
105 *3012:A *430:92 6.90876e-05
106 *3012:B *430:92 4.66108e-05
107 *3017:A *430:92 0.000161984
108 *3050:A *430:46 5.83373e-05
109 *3096:A *430:24 4.88478e-05
110 *3172:D *430:46 0.000137571
111 *3173:D *2983:A0 2.30292e-05
112 *3180:D *3005:A0 0.000303664
113 *3189:D *430:92 4.99619e-05
114 *3196:D *3045:A0 0.00012281
115 *3197:D *3045:A0 8.33066e-06
116 *3205:D *3063:A0 9.30787e-05
117 *3229:D *430:24 4.82863e-05
118 *3464:A *430:24 0.000204366
119 *179:56 *3005:A0 0.000202095
120 *180:10 *3005:A0 2.23485e-05
121 *182:50 *430:24 0.000376043
122 *183:59 *430:24 0.000191335
123 *183:134 *430:110 3.45117e-05
124 *187:24 *3005:A0 0.000192506
125 *187:120 *3005:A0 0.000125079
126 *187:120 *430:110 0.000123225
127 *192:44 *430:24 8.23457e-05
128 *192:91 *430:24 7.9642e-06
129 *197:20 *3005:A0 0.000484936
130 *197:40 *2983:A0 2.49909e-05
131 *197:40 *430:46 0.0012175
132 *197:40 *430:65 3.09164e-05
133 *202:10 *3005:A0 0.00023523
134 *202:10 *430:129 0
135 *211:18 *3058:A0 8.75474e-05
136 *215:28 *2983:A0 0.000163199
137 *215:32 *430:65 3.18137e-05
138 *218:102 *430:24 0
139 *340:43 *3005:A0 4.21973e-05
140 *350:140 *430:24 4.43186e-05
141 *358:99 *430:10 4.82863e-05
142 *358:107 *430:10 0
143 *391:42 *430:24 8.41015e-06
144 *407:22 *430:24 0
*RES
1 *2976:X *430:10 6.3225 
2 *430:10 *430:24 40.7096 
3 *430:24 *2977:A0 8.745 
4 *430:24 *3058:A0 5.49 
5 *430:10 *430:46 24.7125 
6 *430:46 *2983:A0 6.84 
7 *430:46 *430:65 7.265 
8 *430:65 *3068:A0 8.645 
9 *430:65 *430:82 5.675 
10 *430:82 *430:92 16.73 
11 *430:92 *430:110 22.05 
12 *430:110 *3005:A0 20.655 
13 *430:110 *430:129 9.32 
14 *430:129 *3040:A0 1.6 
15 *430:129 *430:144 9.37 
16 *430:144 *3045:A0 15.035 
17 *430:144 *3035:A0 1.6 
18 *430:92 *3025:A0 1.6 
19 *430:82 *3063:A0 7.785 
*END

*D_NET *431 0.000388269
*CONN
*I *2978:A I *D sky130_fd_sc_hd__clkbuf_1
*I *2977:X O *D sky130_fd_sc_hd__mux2_1
*CAP
1 *2978:A 7.57181e-05
2 *2977:X 7.57181e-05
3 *2978:A *2775:A 1.4389e-05
4 *2978:A *511:22 8.08439e-05
5 *419:16 *2978:A 0.000141599
*RES
1 *2977:X *2978:A 9.285 
*END

*D_NET *432 0.0262145
*CONN
*I *3003:A0 I *D sky130_fd_sc_hd__mux2_1
*I *3043:A0 I *D sky130_fd_sc_hd__mux2_1
*I *3033:A0 I *D sky130_fd_sc_hd__mux2_1
*I *3038:A0 I *D sky130_fd_sc_hd__mux2_1
*I *3061:A0 I *D sky130_fd_sc_hd__mux2_1
*I *3023:A0 I *D sky130_fd_sc_hd__mux2_1
*I *2981:A0 I *D sky130_fd_sc_hd__mux2_1
*I *3066:A0 I *D sky130_fd_sc_hd__mux2_1
*I *3086:A0 I *D sky130_fd_sc_hd__mux2_1
*I *3056:A0 I *D sky130_fd_sc_hd__mux2_1
*I *2979:X O *D sky130_fd_sc_hd__buf_2
*CAP
1 *3003:A0 0
2 *3043:A0 0.000164767
3 *3033:A0 0
4 *3038:A0 0
5 *3061:A0 0.000842591
6 *3023:A0 0
7 *2981:A0 9.06334e-05
8 *3066:A0 0.000793432
9 *3086:A0 0.00063664
10 *3056:A0 0.000166704
11 *2979:X 9.93162e-05
12 *432:171 0.000567633
13 *432:102 0.001348
14 *432:96 0.000643335
15 *432:94 0.00232651
16 *432:76 0.00150863
17 *432:72 0.00182636
18 *432:52 0.0014485
19 *432:33 0.00171432
20 *432:8 0.00111459
21 *2981:A0 *2983:A1 8.40269e-05
22 *2981:A0 *604:20 2.05056e-05
23 *3043:A0 *3033:S 7.57202e-05
24 *3043:A0 *3035:A1 0.000201508
25 *3043:A0 *3044:A 1.42674e-05
26 *3056:A0 *3057:A 3.97828e-05
27 *3061:A0 *3013:A0 2.69153e-05
28 *3061:A0 *3014:A 8.64599e-05
29 *3061:A0 *3061:S 4.77769e-05
30 *3061:A0 *442:99 4.41432e-05
31 *3066:A0 *2707:B2 6.42473e-05
32 *3066:A0 *2732:B2 1.56428e-05
33 *3066:A0 *2982:A 0
34 *3066:A0 *2992:A 7.46377e-05
35 *3066:A0 *3066:A1 7.35813e-05
36 *3066:A0 *3067:A 9.91257e-05
37 *3066:A0 *3172:CLK 0.000137269
38 *3066:A0 *3334:A 7.45097e-05
39 *3066:A0 *433:10 1.44177e-05
40 *3086:A0 *2539:A 8.7152e-06
41 *432:8 *594:31 1.59218e-05
42 *432:33 *3057:A 0.000120584
43 *432:33 *3226:CLK 4.77769e-05
44 *432:33 *474:10 0.000353992
45 *432:52 *821:10 0.000109025
46 *432:72 *3003:A1 9.34171e-06
47 *432:72 *3003:S 0.000327455
48 *432:72 *447:10 0.000114492
49 *432:72 *737:16 0.000119961
50 *432:72 *800:40 0
51 *432:76 *3038:S 0.000194914
52 *432:76 *3041:A 3.94628e-05
53 *432:94 *2682:A1 2.20014e-05
54 *432:94 *2682:B2 8.35783e-05
55 *432:94 *2686:B2 4.47275e-05
56 *432:94 *3023:A1 2.75411e-05
57 *432:94 *3038:A1 7.1624e-05
58 *432:94 *863:8 3.0933e-05
59 *432:96 *3023:A1 7.1624e-05
60 *432:96 *442:99 0
61 *432:96 *445:109 0
62 *432:102 *3172:CLK 0
63 *432:102 *3334:A 0.000404402
64 *432:102 *442:99 0
65 *432:102 *445:109 0
66 *432:102 *604:37 0
67 *432:102 *604:56 0
68 *432:171 *2687:B2 0
69 *432:171 *2756:B2 1.34361e-05
70 *432:171 *3033:S 0.000238137
71 *432:171 *3035:A1 0.000238137
72 *432:171 *3038:S 0.000107205
73 *432:171 *465:12 0.000112191
74 *432:171 *468:16 9.56017e-06
75 *2540:A *432:8 3.64998e-06
76 *2682:A2 *432:94 0.000589698
77 *2682:B1 *432:94 0.000158536
78 *2688:C1 *432:94 0.000347939
79 *2692:B *432:72 5.16348e-05
80 *2754:B1 *432:94 0.000234191
81 *2755:A2 *432:72 0.000385456
82 *2755:B1 *432:72 0.000408038
83 *2756:A2 *432:171 0.000178484
84 *2756:C1 *432:171 6.04372e-05
85 *2979:A *432:8 2.51357e-05
86 *3005:A0 *432:72 0
87 *3045:A0 *3043:A0 8.95933e-05
88 *3172:D *3066:A0 4.82319e-06
89 *3173:D *432:102 0
90 *3184:D *3061:A0 2.88357e-05
91 *3200:D *432:33 3.64998e-06
92 *3226:D *432:33 8.64594e-05
93 *3227:D *3086:A0 9.03508e-06
94 *3462:A *432:72 0
95 *172:47 *432:72 0
96 *176:51 *3056:A0 0.00013578
97 *176:51 *432:33 0.000638031
98 *179:24 *432:72 0.000192601
99 *179:98 *432:72 0.000134516
100 *179:113 *432:72 9.9535e-05
101 *185:29 *432:94 0.000499183
102 *192:66 *3086:A0 0.000260935
103 *202:10 *432:72 0.000235395
104 *208:120 *3066:A0 0.000122337
105 *218:14 *3086:A0 0.000190366
106 *218:14 *432:52 0.000139918
107 *218:14 *432:72 0.00026527
108 *352:42 *432:52 0.000155608
109 *352:42 *432:72 4.66108e-05
110 *384:22 *432:52 0.000167732
111 *384:30 *3086:A0 0.000331031
112 *384:30 *432:52 0.000124202
113 *403:10 *432:72 6.21553e-05
114 *403:12 *432:72 0.00027213
115 *415:41 *3056:A0 5.22923e-05
116 *430:129 *432:72 0
*RES
1 *2979:X *432:8 4.74 
2 *432:8 *3056:A0 6.72 
3 *432:8 *432:33 21.04 
4 *432:33 *3086:A0 15.84 
5 *432:33 *432:52 7.16 
6 *432:52 *432:72 32.065 
7 *432:72 *432:76 3.48 
8 *432:76 *432:94 28.59 
9 *432:94 *432:96 3.165 
10 *432:96 *432:102 9.075 
11 *432:102 *3066:A0 15.9 
12 *432:102 *2981:A0 4.74 
13 *432:96 *3023:A0 3.6 
14 *432:94 *3061:A0 17.295 
15 *432:76 *3038:A0 1.6 
16 *432:72 *432:171 12.52 
17 *432:171 *3033:A0 1.6 
18 *432:171 *3043:A0 5.5 
19 *432:52 *3003:A0 1.6 
*END

*D_NET *433 0.00224775
*CONN
*I *2981:S I *D sky130_fd_sc_hd__mux2_1
*I *2983:S I *D sky130_fd_sc_hd__mux2_1
*I *2980:X O *D sky130_fd_sc_hd__or2_1
*CAP
1 *2981:S 4.60481e-05
2 *2983:S 5.87095e-05
3 *2980:X 0.000296017
4 *433:10 0.000400775
5 *2981:S *604:20 4.21973e-05
6 *2983:S *604:20 0.000232099
7 *433:10 *2981:A1 8.53113e-06
8 *433:10 *2983:A1 4.9968e-05
9 *433:10 *2992:A 0.00016422
10 *433:10 *3176:CLK 0
11 *433:10 *3334:A 4.31189e-05
12 *433:10 *445:109 0.000568754
13 *2708:B1 *433:10 1.42551e-05
14 *3066:A0 *433:10 1.44177e-05
15 *3177:D *433:10 9.47454e-05
16 *215:28 *2981:S 8.40213e-05
17 *215:28 *2983:S 0.00012987
*RES
1 *2980:X *433:10 13.865 
2 *433:10 *2983:S 3.775 
3 *433:10 *2981:S 3.115 
*END

*D_NET *434 0.00141433
*CONN
*I *2982:A I *D sky130_fd_sc_hd__clkbuf_1
*I *2981:X O *D sky130_fd_sc_hd__mux2_1
*CAP
1 *2982:A 0.000384412
2 *2981:X 0.000384412
3 *2982:A *2707:B2 0.000284175
4 *2982:A *2983:A1 0.0001249
5 *2982:A *3172:CLK 0.000117832
6 *2707:B1 *2982:A 4.75576e-05
7 *3066:A0 *2982:A 0
8 *207:104 *2982:A 2.66586e-05
9 *208:120 *2982:A 1.93834e-05
10 *208:139 *2982:A 2.50049e-05
*RES
1 *2981:X *2982:A 14.295 
*END

*D_NET *435 0.000306286
*CONN
*I *2984:A I *D sky130_fd_sc_hd__clkbuf_1
*I *2983:X O *D sky130_fd_sc_hd__mux2_1
*CAP
1 *2984:A 9.19774e-05
2 *2983:X 9.19774e-05
3 *2983:A0 *2984:A 0.000122331
*RES
1 *2983:X *2984:A 4.955 
*END

*D_NET *436 0.0024734
*CONN
*I *2988:S I *D sky130_fd_sc_hd__mux2_1
*I *2986:S I *D sky130_fd_sc_hd__mux2_1
*I *2985:Y O *D sky130_fd_sc_hd__nor2_1
*CAP
1 *2988:S 9.11617e-05
2 *2986:S 0.000297243
3 *2985:Y 0.00015504
4 *436:10 0.000543444
5 *2986:S *2986:A0 8.35068e-05
6 *2986:S *715:20 0.000245517
7 *2988:S *2774:C 2.09321e-05
8 *436:10 *715:10 6.28498e-05
9 *436:10 *715:20 7.22242e-05
10 *2779:C *436:10 1.08758e-05
11 *2985:B *436:10 4.66108e-05
12 *174:26 *2988:S 0.000234768
13 *177:102 *2986:S 0.00020422
14 *193:108 *436:10 1.9415e-05
15 *358:67 *2986:S 6.54361e-06
16 *384:30 *2986:S 0.000311755
17 *384:30 *436:10 6.7296e-05
*RES
1 *2985:Y *436:10 6.375 
2 *436:10 *2986:S 11.07 
3 *436:10 *2988:S 5.775 
*END

*D_NET *437 0.0011914
*CONN
*I *2987:A I *D sky130_fd_sc_hd__clkbuf_1
*I *2986:X O *D sky130_fd_sc_hd__mux2_1
*CAP
1 *2987:A 0.000347722
2 *2986:X 0.000347722
3 *2987:A *2746:C 5.83121e-06
4 *2987:A *606:92 8.40213e-05
5 *2987:A *715:20 0.000182272
6 *202:24 *2987:A 0.000109561
7 *212:38 *2987:A 8.23457e-05
8 *371:51 *2987:A 3.19282e-05
*RES
1 *2986:X *2987:A 12.345 
*END

*D_NET *438 0.000319983
*CONN
*I *2989:A I *D sky130_fd_sc_hd__clkbuf_1
*I *2988:X O *D sky130_fd_sc_hd__mux2_1
*CAP
1 *2989:A 9.7198e-05
2 *2988:X 9.7198e-05
3 *2989:A *2988:A0 0.000119756
4 *218:41 *2989:A 5.83121e-06
*RES
1 *2988:X *2989:A 4.955 
*END

*D_NET *439 0.0022792
*CONN
*I *2993:S I *D sky130_fd_sc_hd__mux2_1
*I *2991:S I *D sky130_fd_sc_hd__mux2_1
*I *2990:Y O *D sky130_fd_sc_hd__nor2_1
*CAP
1 *2993:S 0.000288468
2 *2991:S 7.78284e-05
3 *2990:Y 0.000226577
4 *439:16 0.000592873
5 *2991:S *3166:CLK 0
6 *2991:S *3176:CLK 0.000198945
7 *2993:S *2993:A0 5.05521e-05
8 *2993:S *445:109 8.44632e-05
9 *2990:B *439:16 0.000166554
10 *2991:A1 *2991:S 3.79437e-05
11 *2993:A1 *2993:S 0.000129477
12 *2993:A1 *439:16 4.61658e-05
13 *3065:A *439:16 0.000116158
14 *3075:A *439:16 1.19928e-05
15 *3176:D *2993:S 0.000163335
16 *395:30 *2991:S 5.78276e-05
17 *419:88 *439:16 3.00381e-05
*RES
1 *2990:Y *439:16 8.325 
2 *439:16 *2991:S 6.15 
3 *439:16 *2993:S 9.72 
*END

*D_NET *440 0.00116868
*CONN
*I *2992:A I *D sky130_fd_sc_hd__clkbuf_1
*I *2991:X O *D sky130_fd_sc_hd__mux2_1
*CAP
1 *2992:A 0.00027772
2 *2991:X 0.00027772
3 *2992:A *2707:B2 2.37234e-05
4 *2992:A *3176:CLK 0.000207407
5 *2992:A *3334:A 4.66742e-05
6 *2707:B1 *2992:A 0
7 *3066:A0 *2992:A 7.46377e-05
8 *3176:D *2992:A 4.66108e-05
9 *207:94 *2992:A 4.9968e-05
10 *433:10 *2992:A 0.00016422
*RES
1 *2991:X *2992:A 13.155 
*END

*D_NET *441 0.00032043
*CONN
*I *2994:A I *D sky130_fd_sc_hd__clkbuf_1
*I *2993:X O *D sky130_fd_sc_hd__mux2_1
*CAP
1 *2994:A 0.000100337
2 *2993:X 0.000100337
3 *2994:A *604:14 0
4 *3176:D *2994:A 0.000119756
*RES
1 *2993:X *2994:A 4.955 
*END

*D_NET *442 0.0282722
*CONN
*I *3081:A1 I *D sky130_fd_sc_hd__mux2_1
*I *2997:A1 I *D sky130_fd_sc_hd__mux2_1
*I *3018:A1 I *D sky130_fd_sc_hd__mux2_1
*I *3028:A1 I *D sky130_fd_sc_hd__mux2_1
*I *3013:A1 I *D sky130_fd_sc_hd__mux2_1
*I *3051:A1 I *D sky130_fd_sc_hd__mux2_1
*I *3076:A1 I *D sky130_fd_sc_hd__mux2_1
*I *3071:A1 I *D sky130_fd_sc_hd__mux2_1
*I *3008:A1 I *D sky130_fd_sc_hd__mux2_1
*I *3092:A1 I *D sky130_fd_sc_hd__mux2_1
*I *2995:X O *D sky130_fd_sc_hd__clkbuf_4
*CAP
1 *3081:A1 0.00111275
2 *2997:A1 0.000307495
3 *3018:A1 0.000237978
4 *3028:A1 0.000132085
5 *3013:A1 0
6 *3051:A1 3.22298e-05
7 *3076:A1 0
8 *3071:A1 0.000494001
9 *3008:A1 0.000523101
10 *3092:A1 0.000331985
11 *2995:X 0
12 *442:142 0.00162105
13 *442:114 0.00119417
14 *442:99 0.00248308
15 *442:74 0.00233127
16 *442:61 0.000709882
17 *442:42 0.000797139
18 *442:27 0.000885834
19 *442:16 0.00116428
20 *442:4 0.000903694
21 *2997:A1 *2997:S 0.000306155
22 *2997:A1 *2998:A 0.000159747
23 *2997:A1 *3000:S 0.000156842
24 *2997:A1 *443:10 9.50342e-06
25 *2997:A1 *445:150 0.000153908
26 *3008:A1 *3008:S 3.0787e-05
27 *3008:A1 *3009:A 4.76437e-05
28 *3008:A1 *3183:CLK 7.76162e-05
29 *3008:A1 *3296:A 9.2986e-05
30 *3008:A1 *601:121 5.35788e-05
31 *3018:A1 *3018:A0 8.65961e-05
32 *3018:A1 *3018:S 1.41095e-05
33 *3018:A1 *3030:A1 3.68769e-05
34 *3028:A1 *3019:A 4.82919e-05
35 *3028:A1 *3028:A0 4.99619e-05
36 *3028:A1 *3029:A 0.000124007
37 *3028:A1 *3030:A1 1.12578e-05
38 *3028:A1 *3030:S 0.0001249
39 *3051:A1 *3051:A0 0.00012657
40 *3051:A1 *3051:S 4.99619e-05
41 *3071:A1 *3071:S 8.70083e-05
42 *3071:A1 *3078:S 0.000233004
43 *3071:A1 *489:14 9.70792e-05
44 *3081:A1 *3081:S 8.77498e-05
45 *3081:A1 *3083:A1 4.11718e-05
46 *3081:A1 *445:150 3.96661e-05
47 *3081:A1 *476:46 2.34891e-05
48 *3081:A1 *500:141 0.000541988
49 *3081:A1 *511:70 0.000402447
50 *3092:A1 *3092:A0 0.000152668
51 *3092:A1 *3092:S 6.18661e-05
52 *3092:A1 *3415:A 3.64998e-06
53 *442:16 *2766:A1 8.68332e-06
54 *442:16 *2766:A2 9.2005e-05
55 *442:16 *3108:A1 7.23602e-05
56 *442:16 *3110:S 7.70284e-05
57 *442:16 *3415:A 0.000342603
58 *442:16 *445:12 0.00104716
59 *442:16 *445:150 0.000188683
60 *442:16 *511:86 3.47668e-05
61 *442:16 *512:8 0.000162419
62 *442:27 *3296:A 0
63 *442:42 *3076:S 2.92496e-05
64 *442:42 *3296:A 0
65 *442:42 *602:8 7.88393e-05
66 *442:61 *3076:A0 9.50342e-06
67 *442:61 *3076:S 0.00011852
68 *442:61 *483:10 0
69 *442:61 *486:10 0
70 *442:61 *602:8 4.40643e-05
71 *442:61 *602:94 2.75538e-05
72 *442:74 *2731:A1 0.000164679
73 *442:74 *3051:A0 3.66286e-05
74 *442:74 *3068:S 0
75 *442:74 *3076:A0 6.28498e-05
76 *442:74 *3408:A 0.000237249
77 *442:74 *486:10 0
78 *442:74 *602:94 0.000109412
79 *442:99 *2731:B2 9.50342e-06
80 *442:99 *3013:A0 4.77769e-05
81 *442:99 *3395:A 0
82 *442:99 *602:107 0
83 *442:99 *602:116 0
84 *442:99 *604:56 7.11806e-05
85 *442:99 *604:71 5.9803e-05
86 *442:99 *844:6 7.67415e-06
87 *442:99 *853:10 0.000113126
88 *442:114 *2754:A1 0.000197832
89 *442:114 *2754:B2 2.49909e-05
90 *442:114 *3013:A0 0.000159179
91 *442:114 *3013:S 1.19928e-05
92 *442:114 *3030:A1 1.94805e-05
93 *442:142 *445:150 7.88754e-05
94 *442:142 *500:141 0.000377373
95 *2688:C1 *442:114 2.10905e-05
96 *2731:B1 *442:74 7.34364e-05
97 *2733:C1 *442:74 0
98 *2754:A2 *442:114 1.43558e-05
99 *2783:A2 *442:74 0
100 *2784:C1 *442:74 0.000116165
101 *2790:C1 *3081:A1 0.000316177
102 *2999:A *442:16 0.000174458
103 *2999:A *442:142 0.00012349
104 *3061:A0 *442:99 4.41432e-05
105 *3075:A *442:42 0
106 *3186:D *3018:A1 7.4027e-05
107 *3190:D *3028:A1 0.000162311
108 *3205:D *442:99 0.000547424
109 *177:75 *3081:A1 4.25242e-05
110 *181:61 *2997:A1 6.51056e-05
111 *181:61 *3081:A1 1.37448e-05
112 *181:130 *442:114 0.000382486
113 *190:28 *442:114 0.000272875
114 *197:48 *442:74 3.57846e-05
115 *218:144 *442:42 0
116 *218:144 *442:61 0
117 *285:18 *442:27 0
118 *285:18 *442:42 0
119 *291:40 *3081:A1 9.5372e-05
120 *350:152 *3081:A1 0.000496011
121 *350:152 *442:142 0.000802433
122 *358:85 *3081:A1 0.000211063
123 *358:107 *442:142 0.000198425
124 *374:152 *3081:A1 0.000133183
125 *376:46 *3081:A1 0.000133183
126 *395:40 *2997:A1 0.000112971
127 *430:92 *442:99 0.000691766
128 *432:96 *442:99 0
129 *432:102 *442:99 0
*RES
1 *2995:X *442:4 1.6 
2 *442:4 *442:16 20.51 
3 *442:16 *3092:A1 7.845 
4 *442:16 *442:27 2.145 
5 *442:27 *3008:A1 10.635 
6 *442:27 *442:42 4.185 
7 *442:42 *3071:A1 10.5 
8 *442:42 *442:61 2.145 
9 *442:61 *3076:A1 3.6 
10 *442:61 *442:74 14.75 
11 *442:74 *3051:A1 2.74 
12 *442:74 *442:99 32.045 
13 *442:99 *3013:A1 1.6 
14 *442:99 *442:114 16.52 
15 *442:114 *3028:A1 7.155 
16 *442:114 *3018:A1 7.605 
17 *442:4 *442:142 11.09 
18 *442:142 *2997:A1 11.355 
19 *442:142 *3081:A1 33.485 
*END

*D_NET *443 0.00146821
*CONN
*I *3000:S I *D sky130_fd_sc_hd__mux2_1
*I *2997:S I *D sky130_fd_sc_hd__mux2_1
*I *2996:Y O *D sky130_fd_sc_hd__nor2_1
*CAP
1 *3000:S 4.13889e-05
2 *2997:S 0.000110711
3 *2996:Y 0.000129028
4 *443:10 0.000281128
5 *2997:S *874:8 0.000154098
6 *443:10 *875:8 1.47256e-05
7 *2997:A1 *2997:S 0.000306155
8 *2997:A1 *3000:S 0.000156842
9 *2997:A1 *443:10 9.50342e-06
10 *181:61 *3000:S 9.24127e-05
11 *181:61 *443:10 7.17811e-05
12 *380:45 *443:10 4.82863e-05
13 *395:40 *443:10 5.21545e-05
*RES
1 *2996:Y *443:10 6.03 
2 *443:10 *2997:S 6.81 
3 *443:10 *3000:S 5.49 
*END

*D_NET *444 0.00131853
*CONN
*I *2998:A I *D sky130_fd_sc_hd__clkbuf_1
*I *2997:X O *D sky130_fd_sc_hd__mux2_1
*CAP
1 *2998:A 0.000505084
2 *2997:X 0.000505084
3 *2998:A *3179:CLK 8.65961e-05
4 *2997:A1 *2998:A 0.000159747
5 *3178:D *2998:A 4.66108e-05
6 *3179:D *2998:A 1.54049e-05
*RES
1 *2997:X *2998:A 10.925 
*END

*D_NET *445 0.0276243
*CONN
*I *3083:A1 I *D sky130_fd_sc_hd__mux2_1
*I *3000:A1 I *D sky130_fd_sc_hd__mux2_1
*I *3020:A1 I *D sky130_fd_sc_hd__mux2_1
*I *3030:A1 I *D sky130_fd_sc_hd__mux2_1
*I *3015:A1 I *D sky130_fd_sc_hd__mux2_1
*I *3010:A1 I *D sky130_fd_sc_hd__mux2_1
*I *3094:A1 I *D sky130_fd_sc_hd__mux2_1
*I *3053:A1 I *D sky130_fd_sc_hd__mux2_1
*I *3073:A1 I *D sky130_fd_sc_hd__mux2_1
*I *3078:A1 I *D sky130_fd_sc_hd__mux2_1
*I *2999:X O *D sky130_fd_sc_hd__clkbuf_4
*CAP
1 *3083:A1 0.000992944
2 *3000:A1 0
3 *3020:A1 3.86152e-05
4 *3030:A1 0.00051257
5 *3015:A1 0
6 *3010:A1 0
7 *3094:A1 0
8 *3053:A1 0.000777946
9 *3073:A1 0.00061197
10 *3078:A1 0
11 *2999:X 0
12 *445:150 0.0017968
13 *445:118 0.000771792
14 *445:109 0.001617
15 *445:88 0.00238407
16 *445:33 0.00153535
17 *445:20 0.000560726
18 *445:14 0.00054845
19 *445:12 0.00154279
20 *445:4 0.00122581
21 *3020:A1 *3020:A0 4.94474e-05
22 *3030:A1 *3018:S 0.000196048
23 *3030:A1 *3019:A 7.22354e-05
24 *3030:A1 *3020:A0 6.32041e-05
25 *3030:A1 *3029:A 4.86055e-05
26 *3030:A1 *3030:S 0
27 *3030:A1 *3404:A 4.82218e-05
28 *3030:A1 *462:12 0
29 *3053:A1 *2784:A1 0
30 *3053:A1 *3071:A0 0.00011852
31 *3053:A1 *3073:S 2.1954e-05
32 *3053:A1 *3438:A 0
33 *3053:A1 *477:14 0
34 *3053:A1 *841:16 4.05358e-05
35 *3053:A1 *842:14 0
36 *3073:A1 *3072:A 0
37 *3073:A1 *3073:S 0.000159231
38 *3073:A1 *3074:A 0.000108682
39 *3073:A1 *3209:CLK 6.98077e-05
40 *3073:A1 *602:14 5.22134e-06
41 *3073:A1 *602:16 3.08946e-05
42 *3073:A1 *602:72 3.85554e-05
43 *3073:A1 *842:14 9.03138e-05
44 *3083:A1 *3000:A0 0.000160635
45 *3083:A1 *3098:A 4.9968e-05
46 *3083:A1 *500:141 0.000638052
47 *3083:A1 *511:70 0.000539216
48 *445:12 *2763:A 0.000100736
49 *445:12 *500:87 0.000139933
50 *445:12 *601:10 2.69079e-05
51 *445:12 *601:16 2.54779e-05
52 *445:12 *828:12 2.88243e-05
53 *445:14 *3094:A0 0.000158552
54 *445:14 *601:71 1.91597e-05
55 *445:20 *3094:A0 4.89395e-05
56 *445:20 *601:71 8.06306e-05
57 *445:88 *3008:S 0
58 *445:88 *3182:CLK 0.000154863
59 *445:88 *474:55 0.000443891
60 *445:88 *474:59 4.92971e-05
61 *445:88 *476:89 0.000125424
62 *445:88 *502:10 0.000169283
63 *445:88 *590:159 7.48995e-05
64 *445:88 *601:71 6.92161e-05
65 *445:109 *2981:A1 0.000293712
66 *445:109 *2983:A1 8.08153e-06
67 *445:109 *3015:A0 5.30673e-05
68 *445:109 *3015:S 0.000233337
69 *445:109 *3023:A1 2.41231e-05
70 *445:109 *3334:A 0
71 *445:109 *453:8 0.000477201
72 *445:109 *474:55 0.000490257
73 *445:109 *604:14 0
74 *445:109 *867:10 1.19928e-05
75 *445:118 *3015:S 1.61831e-05
76 *445:118 *3016:A 0
77 *445:118 *3021:A 8.8266e-05
78 *445:118 *867:10 9.83921e-06
79 *2602:A *445:12 0.000196458
80 *2708:B1 *445:109 1.82859e-05
81 *2753:B1 *3083:A1 9.97607e-05
82 *2789:A1 *3083:A1 0.000160635
83 *2789:A2 *3083:A1 0.000419398
84 *2993:S *445:109 8.44632e-05
85 *2997:A1 *445:150 0.000153908
86 *3012:A *445:109 0
87 *3012:B *445:109 0.000187759
88 *3018:A1 *3030:A1 3.68769e-05
89 *3028:A1 *3030:A1 1.12578e-05
90 *3050:A *445:88 0
91 *3065:A *445:109 0.000194622
92 *3081:A1 *3083:A1 4.11718e-05
93 *3081:A1 *445:150 3.96661e-05
94 *3176:D *445:109 0.000183151
95 *3177:D *445:109 9.54399e-05
96 *3182:D *445:88 9.10613e-05
97 *3208:D *3053:A1 1.53032e-05
98 *3208:D *3073:A1 0.000129939
99 *3209:D *3053:A1 2.65814e-06
100 *190:28 *445:109 0
101 *197:54 *3053:A1 0.000266838
102 *197:54 *445:20 0.000269464
103 *197:54 *445:33 0.00015948
104 *197:143 *3083:A1 0
105 *218:144 *445:12 0
106 *235:18 *445:88 0.000265735
107 *285:18 *3053:A1 2.96012e-05
108 *285:18 *445:20 0.000381368
109 *285:18 *445:33 2.24833e-05
110 *350:152 *3083:A1 6.21335e-05
111 *350:152 *445:150 0.000766698
112 *365:26 *445:109 8.89169e-05
113 *395:40 *445:150 0.000195241
114 *399:49 *445:12 7.43879e-05
115 *419:88 *445:109 8.89169e-05
116 *430:46 *445:88 0
117 *432:96 *445:109 0
118 *432:102 *445:109 0
119 *433:10 *445:109 0.000568754
120 *442:16 *445:12 0.00104716
121 *442:16 *445:150 0.000188683
122 *442:114 *3030:A1 1.94805e-05
123 *442:142 *445:150 7.88754e-05
*RES
1 *2999:X *445:4 1.6 
2 *445:4 *445:12 16.21 
3 *445:12 *445:14 1.83 
4 *445:14 *445:20 12.095 
5 *445:20 *3078:A1 3.6 
6 *445:20 *445:33 3.045 
7 *445:33 *3073:A1 17.125 
8 *445:33 *3053:A1 20.245 
9 *445:14 *3094:A1 1.6 
10 *445:12 *445:88 20.335 
11 *445:88 *3010:A1 1.6 
12 *445:88 *445:109 34.81 
13 *445:109 *3015:A1 1.6 
14 *445:109 *445:118 3.57 
15 *445:118 *3030:A1 14.78 
16 *445:118 *3020:A1 2.395 
17 *445:4 *445:150 16.51 
18 *445:150 *3000:A1 1.6 
19 *445:150 *3083:A1 25.52 
*END

*D_NET *446 0.000193541
*CONN
*I *3001:A I *D sky130_fd_sc_hd__clkbuf_1
*I *3000:X O *D sky130_fd_sc_hd__mux2_1
*CAP
1 *3001:A 4.47053e-05
2 *3000:X 4.47053e-05
3 *285:18 *3001:A 0.00010413
*RES
1 *3000:X *3001:A 4.265 
*END

*D_NET *447 0.00226401
*CONN
*I *3005:S I *D sky130_fd_sc_hd__mux2_1
*I *3003:S I *D sky130_fd_sc_hd__mux2_1
*I *3002:X O *D sky130_fd_sc_hd__or3_1
*CAP
1 *3005:S 7.72418e-05
2 *3003:S 0.000158114
3 *3002:X 0.00024495
4 *447:10 0.000480306
5 *3005:S *3003:A1 2.98168e-05
6 *447:10 *3386:A 0.00015896
7 *3005:A0 *3005:S 4.66108e-05
8 *202:10 *3003:S 0.000339348
9 *202:10 *447:10 5.84456e-05
10 *340:43 *3005:S 0.00018955
11 *395:24 *447:10 3.87203e-05
12 *432:72 *3003:S 0.000327455
13 *432:72 *447:10 0.000114492
*RES
1 *3002:X *447:10 7.5 
2 *447:10 *3003:S 8.235 
3 *447:10 *3005:S 5.43 
*END

*D_NET *448 0.00160189
*CONN
*I *3004:A I *D sky130_fd_sc_hd__clkbuf_1
*I *3003:X O *D sky130_fd_sc_hd__mux2_1
*CAP
1 *3004:A 0.000284068
2 *3003:X 0.000284068
3 *3462:A *3004:A 5.53249e-06
4 *3464:A *3004:A 0
5 *218:14 *3004:A 0.00062345
6 *384:22 *3004:A 0.00040477
7 *395:24 *3004:A 0
*RES
1 *3003:X *3004:A 14.7 
*END

*D_NET *449 0.000796082
*CONN
*I *3006:A I *D sky130_fd_sc_hd__clkbuf_1
*I *3005:X O *D sky130_fd_sc_hd__mux2_1
*CAP
1 *3006:A 0.000287686
2 *3005:X 0.000287686
3 *3181:D *3006:A 8.40269e-05
4 *340:43 *3006:A 2.09263e-05
5 *391:12 *3006:A 7.16074e-05
6 *421:20 *3006:A 4.41506e-05
*RES
1 *3005:X *3006:A 8.09 
*END

*D_NET *450 0.00193943
*CONN
*I *3010:S I *D sky130_fd_sc_hd__mux2_1
*I *3008:S I *D sky130_fd_sc_hd__mux2_1
*I *3007:Y O *D sky130_fd_sc_hd__nor2_1
*CAP
1 *3010:S 1.77753e-05
2 *3008:S 0.000378864
3 *3007:Y 0.000241928
4 *450:6 0.000638567
5 *3008:S *3010:A0 4.85494e-05
6 *3008:S *3011:A 2.4269e-05
7 *3008:S *474:55 4.00796e-05
8 *3010:S *3011:A 0
9 *450:6 *3010:A0 9.66021e-05
10 *450:6 *3419:A 8.23457e-05
11 *450:6 *474:55 0.000114997
12 *3008:A1 *3008:S 3.0787e-05
13 *3050:A *3008:S 9.64815e-05
14 *3183:D *3008:S 0.000128185
15 *445:88 *3008:S 0
*RES
1 *3007:Y *450:6 5.845 
2 *450:6 *3008:S 11.72 
3 *450:6 *3010:S 1.96 
*END

*D_NET *451 0.00029799
*CONN
*I *3009:A I *D sky130_fd_sc_hd__clkbuf_1
*I *3008:X O *D sky130_fd_sc_hd__mux2_1
*CAP
1 *3009:A 6.14771e-05
2 *3008:X 6.14771e-05
3 *3009:A *601:121 0.000127392
4 *3008:A1 *3009:A 4.76437e-05
*RES
1 *3008:X *3009:A 4.955 
*END

*D_NET *452 0.000430837
*CONN
*I *3011:A I *D sky130_fd_sc_hd__clkbuf_1
*I *3010:X O *D sky130_fd_sc_hd__mux2_1
*CAP
1 *3011:A 5.83993e-05
2 *3010:X 5.83993e-05
3 *3011:A *474:55 0.000164874
4 *3008:S *3011:A 2.4269e-05
5 *3010:S *3011:A 0
6 *3050:A *3011:A 0.000124895
*RES
1 *3010:X *3011:A 5.3 
*END

*D_NET *453 0.00197578
*CONN
*I *3015:S I *D sky130_fd_sc_hd__mux2_1
*I *3013:S I *D sky130_fd_sc_hd__mux2_1
*I *3012:Y O *D sky130_fd_sc_hd__nor2_1
*CAP
1 *3015:S 0.000161995
2 *3013:S 6.30771e-05
3 *3012:Y 0.000269302
4 *453:8 0.000494374
5 *3013:S *3013:A0 4.90227e-05
6 *3015:S *2754:B2 0
7 *3015:S *867:10 0.000160342
8 *3189:D *453:8 3.89528e-05
9 *190:28 *453:8 0
10 *442:114 *3013:S 1.19928e-05
11 *445:109 *3015:S 0.000233337
12 *445:109 *453:8 0.000477201
13 *445:118 *3015:S 1.61831e-05
*RES
1 *3012:Y *453:8 9.315 
2 *453:8 *3013:S 4.74 
3 *453:8 *3015:S 7.695 
*END

*D_NET *454 0.000220542
*CONN
*I *3014:A I *D sky130_fd_sc_hd__clkbuf_1
*I *3013:X O *D sky130_fd_sc_hd__mux2_1
*CAP
1 *3014:A 6.70412e-05
2 *3013:X 6.70412e-05
3 *3061:A0 *3014:A 8.64599e-05
*RES
1 *3013:X *3014:A 4.61 
*END

*D_NET *455 0.0010594
*CONN
*I *3016:A I *D sky130_fd_sc_hd__clkbuf_1
*I *3015:X O *D sky130_fd_sc_hd__mux2_1
*CAP
1 *3016:A 0.000514749
2 *3015:X 0.000514749
3 *3016:A *867:10 1.55253e-05
4 *3184:D *3016:A 1.43717e-05
5 *445:118 *3016:A 0
*RES
1 *3015:X *3016:A 10.58 
*END

*D_NET *456 0.00279174
*CONN
*I *3018:S I *D sky130_fd_sc_hd__mux2_1
*I *3020:S I *D sky130_fd_sc_hd__mux2_1
*I *3017:Y O *D sky130_fd_sc_hd__nor2_1
*CAP
1 *3018:S 0.000318798
2 *3020:S 0
3 *3017:Y 0.000688132
4 *456:16 0.00100693
5 *3018:S *3018:A0 3.26328e-05
6 *3018:S *3020:A0 8.35106e-05
7 *3018:S *3404:A 6.41532e-05
8 *456:16 *2688:A1 0.000173317
9 *456:16 *2754:A1 0.000156133
10 *2790:A2 *456:16 7.97197e-06
11 *3018:A1 *3018:S 1.41095e-05
12 *3027:B *456:16 1.16854e-05
13 *3030:A1 *3018:S 0.000196048
14 *183:134 *456:16 1.84465e-05
15 *421:83 *456:16 1.9872e-05
*RES
1 *3017:Y *456:16 15.83 
2 *456:16 *3020:S 1.6 
3 *456:16 *3018:S 11.585 
*END

*D_NET *457 0.000455314
*CONN
*I *3019:A I *D sky130_fd_sc_hd__clkbuf_1
*I *3018:X O *D sky130_fd_sc_hd__mux2_1
*CAP
1 *3019:A 0.000114035
2 *3018:X 0.000114035
3 *3019:A *3029:A 0
4 *3019:A *3404:A 3.26889e-05
5 *3028:A1 *3019:A 4.82919e-05
6 *3030:A1 *3019:A 7.22354e-05
7 *3186:D *3019:A 7.4027e-05
*RES
1 *3018:X *3019:A 9.825 
*END

*D_NET *458 0.00104839
*CONN
*I *3021:A I *D sky130_fd_sc_hd__clkbuf_1
*I *3020:X O *D sky130_fd_sc_hd__mux2_1
*CAP
1 *3021:A 0.000301892
2 *3020:X 0.000301892
3 *3021:A *2688:A1 0
4 *3021:A *2754:B2 7.23533e-05
5 *3021:A *3426:A 0.000233925
6 *3021:A *3445:A 0
7 *3021:A *864:10 0
8 *3187:D *3021:A 5.00612e-05
9 *445:118 *3021:A 8.8266e-05
*RES
1 *3020:X *3021:A 13.455 
*END

*D_NET *459 0.00199263
*CONN
*I *3023:S I *D sky130_fd_sc_hd__mux2_1
*I *3025:S I *D sky130_fd_sc_hd__mux2_1
*I *3022:X O *D sky130_fd_sc_hd__or2_1
*CAP
1 *3023:S 0.000341564
2 *3025:S 0.000129128
3 *3022:X 0.000124265
4 *459:10 0.000594957
5 *3023:S *3023:A1 0
6 *3023:S *3189:CLK 8.40213e-05
7 *3025:S *3026:A 4.66108e-05
8 *3012:B *459:10 7.05373e-05
9 *3017:A *3023:S 3.09233e-05
10 *3017:A *3025:S 0.000136036
11 *3017:A *459:10 0.000114492
12 *3189:D *3023:S 1.43717e-05
13 *183:134 *3023:S 0
14 *190:28 *3023:S 0.000175894
15 *190:28 *459:10 0.000117832
16 *430:92 *3025:S 1.19928e-05
17 *430:110 *3023:S 0
*RES
1 *3022:X *459:10 6.12 
2 *459:10 *3025:S 6.12 
3 *459:10 *3023:S 9.765 
*END

*D_NET *460 0.000650122
*CONN
*I *3024:A I *D sky130_fd_sc_hd__clkbuf_1
*I *3023:X O *D sky130_fd_sc_hd__mux2_1
*CAP
1 *3024:A 0.000281
2 *3023:X 0.000281
3 *3024:A *3189:CLK 4.38278e-05
4 *3024:A *604:71 4.05363e-05
5 *3024:A *604:79 3.75882e-06
*RES
1 *3023:X *3024:A 11.01 
*END

*D_NET *461 0.00043582
*CONN
*I *3026:A I *D sky130_fd_sc_hd__clkbuf_1
*I *3025:X O *D sky130_fd_sc_hd__mux2_1
*CAP
1 *3026:A 0.000131397
2 *3025:X 0.000131397
3 *3012:A *3026:A 4.82863e-05
4 *3017:A *3026:A 4.00541e-06
5 *3025:S *3026:A 4.66108e-05
6 *430:92 *3026:A 7.41242e-05
*RES
1 *3025:X *3026:A 5.75 
*END

*D_NET *462 0.00263154
*CONN
*I *3030:S I *D sky130_fd_sc_hd__mux2_1
*I *3028:S I *D sky130_fd_sc_hd__mux2_1
*I *3027:Y O *D sky130_fd_sc_hd__nor2_1
*CAP
1 *3030:S 0.000321741
2 *3028:S 0
3 *3027:Y 0.000446782
4 *462:12 0.000768523
5 *3030:S *3028:A0 2.30292e-05
6 *3030:S *3029:A 0
7 *3030:S *3030:A0 0.000124895
8 *3030:S *3031:A 0
9 *2682:A2 *462:12 0.000224713
10 *3028:A1 *3030:S 0.0001249
11 *3030:A1 *3030:S 0
12 *3030:A1 *462:12 0
13 *3186:D *3030:S 0
14 *3190:D *3030:S 0.000114492
15 *3195:D *462:12 0
16 *181:10 *462:12 0.000124007
17 *182:12 *462:12 9.14049e-05
18 *185:29 *462:12 0.000267054
*RES
1 *3027:Y *462:12 14.24 
2 *462:12 *3028:S 1.6 
3 *462:12 *3030:S 11.87 
*END

*D_NET *463 0.000302011
*CONN
*I *3029:A I *D sky130_fd_sc_hd__clkbuf_1
*I *3028:X O *D sky130_fd_sc_hd__mux2_1
*CAP
1 *3029:A 6.46992e-05
2 *3028:X 6.46992e-05
3 *3019:A *3029:A 0
4 *3028:A1 *3029:A 0.000124007
5 *3030:A1 *3029:A 4.86055e-05
6 *3030:S *3029:A 0
*RES
1 *3028:X *3029:A 4.955 
*END

*D_NET *464 0.00035596
*CONN
*I *3031:A I *D sky130_fd_sc_hd__clkbuf_1
*I *3030:X O *D sky130_fd_sc_hd__mux2_1
*CAP
1 *3031:A 9.6378e-05
2 *3030:X 9.6378e-05
3 *3031:A *3030:A0 0.000163204
4 *3030:S *3031:A 0
*RES
1 *3030:X *3031:A 5.3 
*END

*D_NET *465 0.00226068
*CONN
*I *3033:S I *D sky130_fd_sc_hd__mux2_1
*I *3035:S I *D sky130_fd_sc_hd__mux2_1
*I *3032:X O *D sky130_fd_sc_hd__or2_1
*CAP
1 *3033:S 5.95539e-05
2 *3035:S 0
3 *3032:X 0.000468128
4 *465:12 0.000527682
5 *3033:S *3035:A1 1.91597e-05
6 *465:12 *2756:B2 0.000176364
7 *2756:B1 *465:12 0.000134756
8 *2757:C1 *465:12 0
9 *3037:B *465:12 9.93945e-05
10 *3043:A0 *3033:S 7.57202e-05
11 *3045:A0 *3033:S 0.000349592
12 *172:47 *465:12 0
13 *432:171 *3033:S 0.000238137
14 *432:171 *465:12 0.000112191
*RES
1 *3032:X *465:12 13.55 
2 *465:12 *3035:S 1.6 
3 *465:12 *3033:S 4.81 
*END

*D_NET *466 0.00111588
*CONN
*I *3034:A I *D sky130_fd_sc_hd__clkbuf_1
*I *3033:X O *D sky130_fd_sc_hd__mux2_1
*CAP
1 *3034:A 0.000339064
2 *3033:X 0.000339064
3 *3034:A *2687:B2 0.000270647
4 *3034:A *2756:B2 0
5 *3034:A *3035:A1 0.00012657
6 *3192:D *3034:A 4.05358e-05
*RES
1 *3033:X *3034:A 13.8 
*END

*D_NET *467 0.00101515
*CONN
*I *3036:A I *D sky130_fd_sc_hd__clkbuf_1
*I *3035:X O *D sky130_fd_sc_hd__mux2_1
*CAP
1 *3036:A 0.000274031
2 *3035:X 0.000274031
3 *3036:A *2686:B2 2.68721e-05
4 *3036:A *2755:B2 0.00011852
5 *3036:A *3432:A 0.000198934
6 *3036:A *856:8 4.87317e-05
7 *3036:A *857:8 7.4027e-05
*RES
1 *3035:X *3036:A 11.79 
*END

*D_NET *468 0.00170159
*CONN
*I *3040:S I *D sky130_fd_sc_hd__mux2_1
*I *3038:S I *D sky130_fd_sc_hd__mux2_1
*I *3037:X O *D sky130_fd_sc_hd__or2_1
*CAP
1 *3040:S 0
2 *3038:S 7.66736e-05
3 *3037:X 0.000217913
4 *468:16 0.000294586
5 *3038:S *3040:A1 9.55262e-06
6 *3038:S *3041:A 1.91597e-05
7 *468:16 *3040:A1 1.08758e-05
8 *468:16 *595:34 0.000176898
9 *2755:A2 *468:16 0
10 *2756:A2 *468:16 0.000104767
11 *2756:C1 *468:16 8.46818e-05
12 *172:47 *468:16 0.000155069
13 *430:129 *3038:S 0.000193129
14 *430:144 *3038:S 4.66108e-05
15 *432:76 *3038:S 0.000194914
16 *432:171 *3038:S 0.000107205
17 *432:171 *468:16 9.56017e-06
*RES
1 *3037:X *468:16 10.88 
2 *468:16 *3038:S 4.465 
3 *468:16 *3040:S 1.6 
*END

*D_NET *469 0.000151658
*CONN
*I *3039:A I *D sky130_fd_sc_hd__clkbuf_1
*I *3038:X O *D sky130_fd_sc_hd__mux2_1
*CAP
1 *3039:A 5.13594e-05
2 *3038:X 5.13594e-05
3 *3039:A *3041:A 4.89395e-05
*RES
1 *3038:X *3039:A 4.265 
*END

*D_NET *470 0.000853448
*CONN
*I *3041:A I *D sky130_fd_sc_hd__clkbuf_1
*I *3040:X O *D sky130_fd_sc_hd__mux2_1
*CAP
1 *3041:A 0.000349053
2 *3040:X 0.000349053
3 *3038:S *3041:A 1.91597e-05
4 *3039:A *3041:A 4.89395e-05
5 *430:129 *3041:A 4.77807e-05
6 *432:76 *3041:A 3.94628e-05
*RES
1 *3040:X *3041:A 8.51 
*END

*D_NET *471 0.00154563
*CONN
*I *3043:S I *D sky130_fd_sc_hd__mux2_1
*I *3045:S I *D sky130_fd_sc_hd__mux2_1
*I *3042:X O *D sky130_fd_sc_hd__or2_1
*CAP
1 *3043:S 0.000112594
2 *3045:S 1.45076e-05
3 *3042:X 0.000332084
4 *471:10 0.000459186
5 *3043:S *3045:A1 3.34419e-05
6 *3043:S *3344:A 0
7 *3045:S *2756:A1 2.68464e-05
8 *3045:S *3045:A1 2.68464e-05
9 *471:10 *3045:A1 6.94735e-06
10 *471:10 *3196:CLK 0.000210316
11 *471:10 *595:24 0.000236415
12 *471:10 *678:16 0
13 *3042:A *471:10 8.64421e-05
14 *3045:A0 *3043:S 0
*RES
1 *3042:X *471:10 10.11 
2 *471:10 *3045:S 4.05 
3 *471:10 *3043:S 5.49 
*END

*D_NET *472 0.000954518
*CONN
*I *3044:A I *D sky130_fd_sc_hd__clkbuf_1
*I *3043:X O *D sky130_fd_sc_hd__mux2_1
*CAP
1 *3044:A 0.000283737
2 *3043:X 0.000283737
3 *3044:A *2687:B2 0.000134756
4 *3044:A *2756:A1 2.99026e-05
5 *3043:A0 *3044:A 1.42674e-05
6 *3045:A0 *3044:A 0.000196699
7 *3196:D *3044:A 1.14192e-05
*RES
1 *3043:X *3044:A 11.805 
*END

*D_NET *473 0.000261608
*CONN
*I *3046:A I *D sky130_fd_sc_hd__clkbuf_1
*I *3045:X O *D sky130_fd_sc_hd__mux2_1
*CAP
1 *3046:A 5.77537e-05
2 *3045:X 5.77537e-05
3 *3046:A *2756:A1 7.30505e-05
4 *3196:D *3046:A 7.30505e-05
*RES
1 *3045:X *3046:A 5.06 
*END

*D_NET *474 0.0183918
*CONN
*I *3055:B I *D sky130_fd_sc_hd__or2_1
*I *3048:B I *D sky130_fd_sc_hd__or2_1
*I *3085:C I *D sky130_fd_sc_hd__or3_1
*I *3060:B I *D sky130_fd_sc_hd__or2_1
*I *3065:B I *D sky130_fd_sc_hd__or2_1
*I *3070:B I *D sky130_fd_sc_hd__nor2_1
*I *3075:B I *D sky130_fd_sc_hd__nor2_1
*I *3080:B I *D sky130_fd_sc_hd__nor2_1
*I *3047:Y O *D sky130_fd_sc_hd__nand3b_4
*CAP
1 *3055:B 0.000187266
2 *3048:B 9.61026e-05
3 *3085:C 0
4 *3060:B 0
5 *3065:B 0.00020408
6 *3070:B 1.53448e-05
7 *3075:B 6.53701e-05
8 *3080:B 0.000281309
9 *3047:Y 0
10 *474:65 0.000185756
11 *474:59 0.000392588
12 *474:55 0.00143255
13 *474:20 0.00163039
14 *474:18 0.000549153
15 *474:10 0.00171007
16 *474:4 0.00125208
17 *3048:B *677:12 8.22285e-05
18 *3055:B *2743:A 0.000158768
19 *3055:B *3056:A1 4.66108e-05
20 *3055:B *3229:CLK 4.30118e-05
21 *3055:B *594:10 6.333e-05
22 *3055:B *775:80 8.73389e-06
23 *3070:B *489:14 5.83121e-06
24 *3075:B *489:14 5.61512e-05
25 *3080:B *500:155 0.000309794
26 *3080:B *726:32 0.000308113
27 *474:10 *3047:A_N 1.56428e-05
28 *474:10 *3123:A1 7.03276e-05
29 *474:10 *677:12 4.72867e-05
30 *474:10 *775:80 2.93836e-05
31 *474:18 *2699:A2 0.000586196
32 *474:18 *677:30 4.31197e-05
33 *474:18 *677:34 0.000113659
34 *474:55 *3010:A0 0.000278111
35 *474:55 *3419:A 4.41506e-05
36 *474:55 *590:159 8.40269e-05
37 *474:59 *590:159 4.31873e-05
38 *2703:C *474:18 6.63221e-05
39 *2918:A *474:55 0.000131627
40 *3007:A *474:55 9.60547e-05
41 *3007:B *474:55 5.85003e-05
42 *3008:S *474:55 4.00796e-05
43 *3011:A *474:55 0.000164874
44 *3050:A *474:55 0.000163056
45 *3055:A *3055:B 4.82863e-05
46 *3065:A *3065:B 6.26016e-05
47 *3075:A *3075:B 6.21477e-05
48 *3075:A *474:65 0.000222123
49 *3200:D *474:10 3.1562e-06
50 *3464:A *474:10 6.85283e-05
51 *176:51 *3048:B 2.5761e-05
52 *176:51 *474:10 0.000455741
53 *193:18 *474:18 8.20768e-06
54 *193:24 *474:18 0.000342602
55 *212:18 *3048:B 4.99187e-05
56 *212:18 *474:10 6.709e-05
57 *235:18 *3065:B 0.000100612
58 *235:18 *474:59 0.000150944
59 *317:69 *3048:B 1.79174e-05
60 *345:41 *474:55 6.11763e-05
61 *352:42 *3048:B 0.000193136
62 *355:18 *3055:B 0.000439006
63 *355:32 *3055:B 9.50342e-06
64 *365:26 *474:55 0.0016552
65 *370:14 *3048:B 4.77769e-05
66 *370:28 *3080:B 8.7152e-06
67 *370:28 *474:55 0.000120724
68 *370:32 *3080:B 0.000678103
69 *371:47 *3080:B 0.000676815
70 *371:47 *474:55 0.000128214
71 *376:6 *474:55 6.60431e-05
72 *419:88 *474:55 9.12857e-06
73 *430:46 *3065:B 0
74 *432:33 *474:10 0.000353992
75 *445:88 *474:55 0.000443891
76 *445:88 *474:59 4.92971e-05
77 *445:109 *474:55 0.000490257
78 *450:6 *474:55 0.000114997
*RES
1 *3047:Y *474:4 1.6 
2 *474:4 *474:10 16.67 
3 *474:10 *474:18 11.45 
4 *474:18 *474:20 2 
5 *474:20 *3080:B 14.73 
6 *474:20 *474:55 38.1 
7 *474:55 *474:59 3.89 
8 *474:59 *474:65 4.535 
9 *474:65 *3075:B 3.1 
10 *474:65 *3070:B 2.0875 
11 *474:59 *3065:B 7.5 
12 *474:55 *3060:B 1.6 
13 *474:18 *3085:C 1.6 
14 *474:10 *3048:B 6.555 
15 *474:4 *3055:B 11.705 
*END

*D_NET *475 0.000143391
*CONN
*I *3049:A I *D sky130_fd_sc_hd__buf_2
*I *3048:X O *D sky130_fd_sc_hd__or2_1
*CAP
1 *3049:A 2.37244e-05
2 *3048:X 2.37244e-05
3 *352:42 *3049:A 4.80058e-05
4 *370:8 *3049:A 4.79367e-05
*RES
1 *3048:X *3049:A 3.995 
*END

*D_NET *476 0.0187215
*CONN
*I *2540:B I *D sky130_fd_sc_hd__or2_1
*I *3122:B I *D sky130_fd_sc_hd__or2_1
*I *3112:B I *D sky130_fd_sc_hd__nor2_1
*I *3096:B I *D sky130_fd_sc_hd__nor2_1
*I *3091:B I *D sky130_fd_sc_hd__nor2_1
*I *3050:B I *D sky130_fd_sc_hd__nor2_1
*I *3101:B I *D sky130_fd_sc_hd__nor2_1
*I *3107:B I *D sky130_fd_sc_hd__or2_1
*I *3117:B I *D sky130_fd_sc_hd__or2_1
*I *3049:X O *D sky130_fd_sc_hd__buf_2
*CAP
1 *2540:B 0.000219076
2 *3122:B 0
3 *3112:B 0
4 *3096:B 2.70877e-05
5 *3091:B 0
6 *3050:B 0.000702253
7 *3101:B 3.46251e-05
8 *3107:B 0
9 *3117:B 0.000193819
10 *3049:X 0.00022761
11 *476:89 0.000927627
12 *476:70 0.000376765
13 *476:52 0.000365594
14 *476:46 0.00131384
15 *476:36 0.00212552
16 *476:26 0.00155598
17 *476:16 0.000648749
18 *476:10 0.000612582
19 *2540:B *590:124 3.79291e-05
20 *2540:B *594:31 0.000259653
21 *3050:B *3079:A 3.7496e-05
22 *3050:B *502:10 5.13865e-05
23 *3101:B *2763:A 0.000197862
24 *3117:B *2704:A2 4.82863e-05
25 *3117:B *2766:A1 0.00026784
26 *3117:B *2766:A2 7.3151e-05
27 *476:16 *2537:A 8.33066e-06
28 *476:16 *594:31 0.000192508
29 *476:16 *594:33 7.27704e-06
30 *476:16 *594:59 6.54361e-06
31 *476:16 *608:16 5.00903e-05
32 *476:26 *2777:A 0.000328691
33 *476:26 *3228:CLK 0.000351134
34 *476:26 *3371:A 4.66108e-05
35 *476:26 *515:10 0.000124309
36 *476:26 *594:33 0.000182213
37 *476:26 *608:16 8.34462e-05
38 *476:36 *3372:A 0.000268764
39 *476:36 *515:10 4.82863e-05
40 *476:46 *3098:A 0.000373797
41 *476:46 *3217:CLK 0.000118513
42 *476:46 *3378:A 8.8266e-05
43 *476:46 *500:141 0
44 *476:46 *511:70 0.000415855
45 *476:52 *3102:A0 5.83121e-06
46 *476:52 *3103:A 4.82919e-05
47 *476:52 *3105:A 0.0001947
48 *476:70 *508:12 0
49 *476:89 *3391:A 3.5678e-06
50 *476:89 *502:10 3.50733e-05
51 *2704:B1 *3117:B 4.66108e-05
52 *2708:A2 *3117:B 4.79838e-05
53 *2708:A2 *476:52 0.000165232
54 *3050:A *3050:B 0.000779239
55 *3081:A1 *476:46 2.34891e-05
56 *3102:A1 *476:46 0.00051271
57 *3102:A1 *476:52 1.19928e-05
58 *3107:A *3117:B 5.31857e-05
59 *3219:D *476:52 0.000160635
60 *3464:A *476:26 8.40269e-05
61 *176:51 *476:10 0
62 *177:75 *3096:B 4.38051e-05
63 *177:75 *476:46 0.000157026
64 *202:102 *3101:B 0.000115351
65 *218:144 *3050:B 0.00050233
66 *235:18 *3050:B 0
67 *235:18 *476:46 2.10911e-05
68 *235:18 *476:70 5.96083e-05
69 *235:18 *476:89 2.87523e-05
70 *345:41 *3050:B 1.74776e-05
71 *345:41 *476:89 8.54281e-05
72 *345:53 *3050:B 2.69443e-06
73 *358:85 *476:46 0.000643488
74 *358:99 *476:46 7.32667e-05
75 *358:107 *476:46 3.26084e-05
76 *411:33 *476:10 0.000407801
77 *430:10 *476:46 3.00381e-05
78 *430:24 *476:26 0.00067646
79 *430:24 *476:36 0.000526928
80 *430:46 *476:46 0
81 *445:88 *476:89 0.000125424
*RES
1 *3049:X *476:10 10.55 
2 *476:10 *476:16 4.445 
3 *476:16 *476:26 15.695 
4 *476:26 *476:36 18.455 
5 *476:36 *476:46 27.565 
6 *476:46 *476:52 6.605 
7 *476:52 *3117:B 6.31 
8 *476:52 *3107:B 1.6 
9 *476:46 *476:70 2.145 
10 *476:70 *3101:B 5.43 
11 *476:70 *476:89 6.7625 
12 *476:89 *3050:B 20.3525 
13 *476:89 *3091:B 1.6 
14 *476:36 *3096:B 4.215 
15 *476:26 *3112:B 1.6 
16 *476:16 *3122:B 3.6 
17 *476:10 *2540:B 8.735 
*END

*D_NET *477 0.00276792
*CONN
*I *3051:S I *D sky130_fd_sc_hd__mux2_1
*I *3053:S I *D sky130_fd_sc_hd__mux2_1
*I *3050:Y O *D sky130_fd_sc_hd__nor2_1
*CAP
1 *3051:S 0.000138492
2 *3053:S 0.000132308
3 *3050:Y 0.000609266
4 *477:14 0.000880066
5 *3051:S *2731:B2 0
6 *3051:S *2784:A1 0.000131401
7 *3051:S *3051:A0 2.0514e-05
8 *3051:S *3395:A 7.70828e-05
9 *3051:S *602:107 0
10 *477:14 *2784:A1 0.000163019
11 *477:14 *3071:A0 0
12 *477:14 *3073:S 0.000309722
13 *477:14 *3079:A 8.86226e-05
14 *477:14 *602:94 0
15 *477:14 *602:107 0
16 *3051:A1 *3051:S 4.99619e-05
17 *3053:A1 *477:14 0
18 *3209:D *477:14 0
19 *197:54 *477:14 0.000167464
*RES
1 *3050:Y *477:14 16.185 
2 *477:14 *3053:S 5.43 
3 *477:14 *3051:S 6.795 
*END

*D_NET *478 0.00137238
*CONN
*I *3052:A I *D sky130_fd_sc_hd__clkbuf_1
*I *3051:X O *D sky130_fd_sc_hd__mux2_1
*CAP
1 *3052:A 0.000662603
2 *3051:X 0.000662603
3 *3052:A *3199:CLK 3.85642e-05
4 *3052:A *852:8 5.09835e-06
5 *3199:D *3052:A 3.51254e-06
*RES
1 *3051:X *3052:A 11.18 
*END

*D_NET *479 0.000279734
*CONN
*I *3054:A I *D sky130_fd_sc_hd__clkbuf_1
*I *3053:X O *D sky130_fd_sc_hd__mux2_1
*CAP
1 *3054:A 0.000139867
2 *3053:X 0.000139867
*RES
1 *3053:X *3054:A 5.3 
*END

*D_NET *480 0.000983726
*CONN
*I *3058:S I *D sky130_fd_sc_hd__mux2_1
*I *3056:S I *D sky130_fd_sc_hd__mux2_1
*I *3055:X O *D sky130_fd_sc_hd__or2_1
*CAP
1 *3058:S 6.47711e-05
2 *3056:S 6.61814e-05
3 *3055:X 6.07302e-05
4 *480:6 0.000191683
5 *3056:S *3056:A1 0.000118081
6 *3058:S *2743:A 0.000155928
7 *3058:S *3229:CLK 0.000181376
8 *480:6 *3056:A1 0.000108886
9 *211:18 *3058:S 1.26548e-05
10 *355:32 *3058:S 2.34345e-05
*RES
1 *3055:X *480:6 2.74 
2 *480:6 *3056:S 2.74 
3 *480:6 *3058:S 8 
*END

*D_NET *481 0.000805623
*CONN
*I *3057:A I *D sky130_fd_sc_hd__clkbuf_1
*I *3056:X O *D sky130_fd_sc_hd__mux2_1
*CAP
1 *3057:A 0.000177204
2 *3056:X 0.000177204
3 *3056:A0 *3057:A 3.97828e-05
4 *415:31 *3057:A 0.000156474
5 *415:41 *3057:A 0.000134373
6 *432:33 *3057:A 0.000120584
*RES
1 *3056:X *3057:A 11.415 
*END

*D_NET *482 0.00061907
*CONN
*I *3059:A I *D sky130_fd_sc_hd__clkbuf_1
*I *3058:X O *D sky130_fd_sc_hd__mux2_1
*CAP
1 *3059:A 0.000103886
2 *3058:X 0.000103886
3 *3059:A *2771:A 0.000139245
4 *3059:A *511:22 0.000158066
5 *3201:D *3059:A 3.1835e-05
6 *323:55 *3059:A 7.63204e-05
7 *430:24 *3059:A 5.83121e-06
*RES
1 *3058:X *3059:A 10.32 
*END

*D_NET *483 0.00457307
*CONN
*I *3061:S I *D sky130_fd_sc_hd__mux2_1
*I *3063:S I *D sky130_fd_sc_hd__mux2_1
*I *3060:X O *D sky130_fd_sc_hd__or2_1
*CAP
1 *3061:S 0.000127668
2 *3063:S 0.000162611
3 *3060:X 0.000816808
4 *483:10 0.00110709
5 *3061:S *3061:A1 3.12983e-05
6 *3063:S *3063:A1 4.76437e-05
7 *3063:S *3064:A 0.000154113
8 *3063:S *846:8 0.000122608
9 *483:10 *2731:A1 0
10 *483:10 *3061:A1 5.80139e-05
11 *483:10 *3068:A1 0
12 *483:10 *3068:S 0.000560557
13 *483:10 *486:10 0.000289004
14 *483:10 *590:159 4.99619e-05
15 *2783:B1 *483:10 0.000173533
16 *2784:B1 *483:10 0
17 *3061:A0 *3061:S 4.77769e-05
18 *3063:A0 *483:10 0
19 *3068:A0 *483:10 7.4027e-05
20 *3070:A *483:10 2.05641e-05
21 *3205:D *483:10 0
22 *218:144 *483:10 0.000448967
23 *235:18 *483:10 0.000280832
24 *430:82 *483:10 0
25 *442:61 *483:10 0
*RES
1 *3060:X *483:10 24.3 
2 *483:10 *3063:S 7.53 
3 *483:10 *3061:S 5.94 
*END

*D_NET *484 0.000172321
*CONN
*I *3062:A I *D sky130_fd_sc_hd__clkbuf_1
*I *3061:X O *D sky130_fd_sc_hd__mux2_1
*CAP
1 *3062:A 8.61606e-05
2 *3061:X 8.61606e-05
*RES
1 *3061:X *3062:A 4.61 
*END

*D_NET *485 0.0012007
*CONN
*I *3064:A I *D sky130_fd_sc_hd__clkbuf_1
*I *3063:X O *D sky130_fd_sc_hd__mux2_1
*CAP
1 *3064:A 0.000405956
2 *3063:X 0.000405956
3 *3064:A *3203:CLK 2.99026e-05
4 *3064:A *846:8 2.01737e-05
5 *3063:S *3064:A 0.000154113
6 *3203:D *3064:A 0.0001846
*RES
1 *3063:X *3064:A 10.82 
*END

*D_NET *486 0.00225435
*CONN
*I *3068:S I *D sky130_fd_sc_hd__mux2_1
*I *3066:S I *D sky130_fd_sc_hd__mux2_1
*I *3065:X O *D sky130_fd_sc_hd__or2_1
*CAP
1 *3068:S 0.000217046
2 *3066:S 0
3 *3065:X 0.000293418
4 *486:10 0.000510464
5 *3068:S *2731:A1 0
6 *2733:C1 *3068:S 0.000135254
7 *2783:A2 *3068:S 2.14129e-05
8 *2783:A2 *486:10 0.000183043
9 *218:144 *486:10 4.41506e-05
10 *442:61 *486:10 0
11 *442:74 *3068:S 0
12 *442:74 *486:10 0
13 *483:10 *3068:S 0.000560557
14 *483:10 *486:10 0.000289004
*RES
1 *3065:X *486:10 8.85 
2 *486:10 *3066:S 3.6 
3 *486:10 *3068:S 10.08 
*END

*D_NET *487 0.00050651
*CONN
*I *3067:A I *D sky130_fd_sc_hd__clkbuf_1
*I *3066:X O *D sky130_fd_sc_hd__mux2_1
*CAP
1 *3067:A 0.000203692
2 *3066:X 0.000203692
3 *3067:A *3066:A1 0
4 *3066:A0 *3067:A 9.91257e-05
5 *430:46 *3067:A 0
*RES
1 *3066:X *3067:A 10.065 
*END

*D_NET *488 0.00119455
*CONN
*I *3069:A I *D sky130_fd_sc_hd__clkbuf_1
*I *3068:X O *D sky130_fd_sc_hd__mux2_1
*CAP
1 *3069:A 0.000318046
2 *3068:X 0.000318046
3 *3069:A *2782:A1 9.54399e-05
4 *3069:A *2782:B2 0
5 *3069:A *3068:A1 7.00889e-06
6 *2733:A2 *3069:A 8.53113e-06
7 *2782:A2 *3069:A 3.35621e-05
8 *3063:A0 *3069:A 0.000161623
9 *430:82 *3069:A 0.000252289
*RES
1 *3068:X *3069:A 13.86 
*END

*D_NET *489 0.00377192
*CONN
*I *3071:S I *D sky130_fd_sc_hd__mux2_1
*I *3073:S I *D sky130_fd_sc_hd__mux2_1
*I *3070:Y O *D sky130_fd_sc_hd__nor2_1
*CAP
1 *3071:S 5.76171e-05
2 *3073:S 0.000545936
3 *3070:Y 0.000329661
4 *489:14 0.000933214
5 *3071:S *3078:S 0
6 *3073:S *3072:A 0.000307684
7 *3073:S *3074:A 1.41165e-05
8 *3073:S *3209:CLK 5.34884e-05
9 *489:14 *3078:A0 0.000198051
10 *489:14 *3078:S 4.35432e-05
11 *489:14 *3079:A 2.75145e-05
12 *489:14 *3416:A 0.000236355
13 *489:14 *492:6 6.59822e-05
14 *3053:A1 *3073:S 2.1954e-05
15 *3070:B *489:14 5.83121e-06
16 *3071:A1 *3071:S 8.70083e-05
17 *3071:A1 *489:14 9.70792e-05
18 *3073:A1 *3073:S 0.000159231
19 *3075:A *489:14 8.3303e-06
20 *3075:B *489:14 5.61512e-05
21 *3209:D *3073:S 5.01066e-05
22 *197:54 *3073:S 0.000163339
23 *477:14 *3073:S 0.000309722
*RES
1 *3070:Y *489:14 9.535 
2 *489:14 *3073:S 16.43 
3 *489:14 *3071:S 2.755 
*END

*D_NET *490 0.0022466
*CONN
*I *3072:A I *D sky130_fd_sc_hd__clkbuf_1
*I *3071:X O *D sky130_fd_sc_hd__mux2_1
*CAP
1 *3072:A 0.000602414
2 *3071:X 0.000602414
3 *3072:A *3071:A0 0.000340242
4 *3072:A *3074:A 0
5 *3072:A *3209:CLK 0.000154931
6 *3072:A *842:14 0
7 *3073:A1 *3072:A 0
8 *3073:S *3072:A 0.000307684
9 *3206:D *3072:A 0.000238919
*RES
1 *3071:X *3072:A 18.54 
*END

*D_NET *491 0.000844011
*CONN
*I *3074:A I *D sky130_fd_sc_hd__clkbuf_1
*I *3073:X O *D sky130_fd_sc_hd__mux2_1
*CAP
1 *3074:A 0.000285883
2 *3073:X 0.000285883
3 *3074:A *3071:A0 0
4 *3074:A *602:29 0
5 *3074:A *842:14 7.23533e-05
6 *3072:A *3074:A 0
7 *3073:A1 *3074:A 0.000108682
8 *3073:S *3074:A 1.41165e-05
9 *3207:D *3074:A 7.70938e-05
*RES
1 *3073:X *3074:A 12.57 
*END

*D_NET *492 0.0011646
*CONN
*I *3076:S I *D sky130_fd_sc_hd__mux2_1
*I *3078:S I *D sky130_fd_sc_hd__mux2_1
*I *3075:Y O *D sky130_fd_sc_hd__nor2_1
*CAP
1 *3076:S 7.19286e-05
2 *3078:S 9.06108e-05
3 *3075:Y 5.72705e-05
4 *492:6 0.00021981
5 *3078:S *3416:A 0.000196376
6 *492:6 *3416:A 3.83041e-05
7 *3071:A1 *3078:S 0.000233004
8 *3071:S *3078:S 0
9 *218:144 *3076:S 0
10 *442:42 *3076:S 2.92496e-05
11 *442:61 *3076:S 0.00011852
12 *489:14 *3078:S 4.35432e-05
13 *489:14 *492:6 6.59822e-05
*RES
1 *3075:Y *492:6 2.74 
2 *492:6 *3078:S 4.48 
3 *492:6 *3076:S 7.235 
*END

*D_NET *493 0.000294785
*CONN
*I *3077:A I *D sky130_fd_sc_hd__clkbuf_1
*I *3076:X O *D sky130_fd_sc_hd__mux2_1
*CAP
1 *3077:A 3.19713e-05
2 *3076:X 3.19713e-05
3 *3077:A *3416:A 0.000117832
4 *285:18 *3077:A 0.00011301
*RES
1 *3076:X *3077:A 8.58 
*END

*D_NET *494 0.000595188
*CONN
*I *3079:A I *D sky130_fd_sc_hd__clkbuf_1
*I *3078:X O *D sky130_fd_sc_hd__mux2_1
*CAP
1 *3079:A 0.000181097
2 *3078:X 0.000181097
3 *3050:A *3079:A 7.00889e-06
4 *3050:B *3079:A 3.7496e-05
5 *197:54 *3079:A 7.23533e-05
6 *477:14 *3079:A 8.86226e-05
7 *489:14 *3079:A 2.75145e-05
*RES
1 *3078:X *3079:A 10.725 
*END

*D_NET *495 0.00164325
*CONN
*I *3083:S I *D sky130_fd_sc_hd__mux2_1
*I *3081:S I *D sky130_fd_sc_hd__mux2_1
*I *3080:Y O *D sky130_fd_sc_hd__nor2_1
*CAP
1 *3083:S 3.55498e-05
2 *3081:S 0.000122783
3 *3080:Y 0.000168729
4 *495:8 0.000327061
5 *3081:S *3222:CLK 0
6 *3081:S *511:70 7.00322e-05
7 *3083:S *3083:A0 2.54431e-05
8 *3083:S *500:141 8.8266e-05
9 *495:8 *3083:A0 3.86607e-05
10 *495:8 *603:35 0
11 *2790:C1 *3081:S 2.01504e-05
12 *3081:A1 *3081:S 8.77498e-05
13 *3211:D *3081:S 3.96657e-05
14 *358:85 *3083:S 0.00016063
15 *380:12 *3081:S 0.000153004
16 *380:12 *495:8 0.000305527
*RES
1 *3080:Y *495:8 7.275 
2 *495:8 *3081:S 6.63 
3 *495:8 *3083:S 5.085 
*END

*D_NET *496 0.000904718
*CONN
*I *3082:A I *D sky130_fd_sc_hd__clkbuf_1
*I *3081:X O *D sky130_fd_sc_hd__mux2_1
*CAP
1 *3082:A 0.000285333
2 *3081:X 0.000285333
3 *3082:A *3210:CLK 2.26891e-05
4 *3082:A *600:87 4.4901e-05
5 *3211:D *3082:A 0.000164137
6 *177:102 *3082:A 5.02217e-05
7 *380:12 *3082:A 5.21046e-05
*RES
1 *3081:X *3082:A 12.24 
*END

*D_NET *497 0.000322917
*CONN
*I *3084:A I *D sky130_fd_sc_hd__clkbuf_1
*I *3083:X O *D sky130_fd_sc_hd__mux2_1
*CAP
1 *3084:A 7.25915e-05
2 *3083:X 7.25915e-05
3 *358:85 *3084:A 0.000177734
*RES
1 *3083:X *3084:A 4.955 
*END

*D_NET *498 0.000940783
*CONN
*I *3089:S I *D sky130_fd_sc_hd__mux2_1
*I *3086:S I *D sky130_fd_sc_hd__mux2_1
*I *3085:X O *D sky130_fd_sc_hd__or3_1
*CAP
1 *3089:S 1.23867e-05
2 *3086:S 8.28736e-05
3 *3085:X 0.000187896
4 *498:8 0.000283157
5 *3086:S *3086:A1 5.8196e-05
6 *3086:S *603:35 7.899e-05
7 *3089:S *3370:A 4.77757e-05
8 *3089:S *603:33 2.68526e-05
9 *498:8 *2762:A1 2.41307e-05
10 *498:8 *3213:CLK 7.3727e-05
11 *498:8 *603:35 1.51628e-05
12 *3085:B *498:8 1.12156e-05
13 *370:32 *498:8 3.84193e-05
14 *380:10 *498:8 0
*RES
1 *3085:X *498:8 7.275 
2 *498:8 *3086:S 5.49 
3 *498:8 *3089:S 4.05 
*END

*D_NET *499 0.000689485
*CONN
*I *3087:A I *D sky130_fd_sc_hd__clkbuf_1
*I *3086:X O *D sky130_fd_sc_hd__mux2_1
*CAP
1 *3087:A 0.000195339
2 *3086:X 0.000195339
3 *3087:A *2693:A 0.000118081
4 *3087:A *2693:C 4.16515e-05
5 *2693:B *3087:A 3.96284e-05
6 *2694:A3 *3087:A 1.47347e-05
7 *2694:B1 *3087:A 4.66108e-05
8 *192:66 *3087:A 3.81021e-05
*RES
1 *3086:X *3087:A 7.025 
*END

*D_NET *500 0.0229514
*CONN
*I *3089:A0 I *D sky130_fd_sc_hd__mux2_1
*I *2538:A0 I *D sky130_fd_sc_hd__mux2_1
*I *2543:A0 I *D sky130_fd_sc_hd__mux2_1
*I *3110:A0 I *D sky130_fd_sc_hd__mux2_1
*I *3120:A0 I *D sky130_fd_sc_hd__mux2_1
*I *2575:A0 I *D sky130_fd_sc_hd__mux2_1
*I *2560:A0 I *D sky130_fd_sc_hd__mux2_1
*I *2550:A0 I *D sky130_fd_sc_hd__mux2_1
*I *2565:A0 I *D sky130_fd_sc_hd__mux2_1
*I *2555:A0 I *D sky130_fd_sc_hd__mux2_1
*I *3088:X O *D sky130_fd_sc_hd__buf_2
*CAP
1 *3089:A0 0.000254766
2 *2538:A0 0
3 *2543:A0 0.000227788
4 *3110:A0 0
5 *3120:A0 0.000787683
6 *2575:A0 3.37765e-05
7 *2560:A0 3.69588e-05
8 *2550:A0 0.000127558
9 *2565:A0 0.000587239
10 *2555:A0 3.12394e-05
11 *3088:X 0
12 *500:155 0.000913226
13 *500:141 0.00225337
14 *500:87 0.000999699
15 *500:39 0.000774633
16 *500:37 0.000502151
17 *500:26 0.00114608
18 *500:14 0.0012138
19 *500:8 0.000994532
20 *500:4 0.00162514
21 *2543:A0 *2538:A1 0.000125845
22 *2543:A0 *2543:S 8.64421e-05
23 *2543:A0 *2743:A 0.000197826
24 *2550:A0 *2550:A1 6.69608e-06
25 *2550:A0 *2551:A 7.00889e-06
26 *2555:A0 *2555:A1 5.83121e-06
27 *2560:A0 *2796:A1 4.66108e-05
28 *2565:A0 *2548:A1 7.23602e-05
29 *2565:A0 *2563:A0 0
30 *2565:A0 *2565:A1 0.000120186
31 *2565:A0 *2714:A1 0
32 *2565:A0 *511:127 1.93834e-05
33 *2565:A0 *511:133 0.000227543
34 *2565:A0 *810:12 0
35 *2575:A0 *2712:B2 4.77807e-05
36 *3089:A0 *2693:A 7.78715e-05
37 *3089:A0 *2693:C 6.58955e-06
38 *3089:A0 *3370:A 0.00011223
39 *3089:A0 *603:33 0.000196066
40 *3120:A0 *2766:A1 0
41 *3120:A0 *3110:A1 8.23457e-05
42 *3120:A0 *3118:S 0.000126054
43 *3120:A0 *3119:A 7.06865e-05
44 *3120:A0 *3120:A1 9.63998e-05
45 *3120:A0 *3337:A 0.00018915
46 *3120:A0 *518:6 0.000311661
47 *3120:A0 *829:8 0.00026617
48 *500:14 *511:86 0
49 *500:14 *726:38 0
50 *500:14 *806:14 0.000116165
51 *500:14 *807:20 0.000229015
52 *500:26 *2555:A1 8.71336e-05
53 *500:26 *2581:A 7.03219e-05
54 *500:26 *2711:A1 1.42598e-05
55 *500:26 *2711:A2 0.000157401
56 *500:26 *3347:A 8.70004e-05
57 *500:37 *511:127 0.000387675
58 *500:37 *532:16 9.95691e-06
59 *500:37 *816:12 4.14369e-05
60 *500:39 *2550:A1 0
61 *500:39 *511:127 1.46216e-05
62 *500:39 *816:12 7.23533e-05
63 *500:87 *3110:A1 3.74161e-05
64 *500:87 *3110:S 2.05056e-05
65 *500:87 *511:86 0
66 *500:87 *829:8 0.00015639
67 *500:141 *3083:A0 5.83121e-06
68 *500:155 *2539:A 0.000307035
69 *500:155 *726:32 0.000240666
70 *2711:B1 *500:26 8.48119e-05
71 *2712:C1 *500:14 4.18638e-05
72 *2712:C1 *500:26 0.000508842
73 *2743:B *2543:A0 6.25749e-05
74 *2743:C *2543:A0 1.70906e-05
75 *2768:B *3089:A0 7.15568e-05
76 *2790:B1 *500:141 4.88478e-05
77 *2790:C1 *500:141 7.59111e-05
78 *2995:A *500:8 0.000238129
79 *2999:A *500:8 0.000106716
80 *3080:A *500:155 4.66108e-05
81 *3080:B *500:155 0.000309794
82 *3081:A1 *500:141 0.000541988
83 *3083:A1 *500:141 0.000638052
84 *3083:S *500:141 8.8266e-05
85 *3256:D *500:26 3.3924e-05
86 *176:79 *3089:A0 0
87 *176:79 *500:141 0
88 *177:75 *500:141 2.4852e-05
89 *192:54 *2543:A0 0.000192417
90 *192:54 *500:155 0.00014315
91 *192:66 *500:155 8.23457e-05
92 *197:54 *3120:A0 0.000245854
93 *218:110 *500:14 0
94 *218:110 *500:87 0
95 *218:144 *500:87 0
96 *291:40 *500:141 0.000161984
97 *350:152 *500:141 0.000470862
98 *358:85 *500:141 0.00011822
99 *358:107 *500:8 1.60203e-05
100 *358:107 *500:141 0.00012657
101 *380:10 *3089:A0 0.00033879
102 *380:12 *3089:A0 5.16348e-05
103 *380:12 *500:141 0.000314459
104 *391:64 *500:141 0.000168425
105 *442:142 *500:141 0.000377373
106 *445:12 *500:87 0.000139933
107 *476:46 *500:141 0
*RES
1 *3088:X *500:4 1.6 
2 *500:4 *500:8 6.245 
3 *500:8 *500:14 8.82 
4 *500:14 *500:26 16.445 
5 *500:26 *2555:A0 2.05 
6 *500:26 *500:37 10.775 
7 *500:37 *500:39 1.2525 
8 *500:39 *2565:A0 14.7375 
9 *500:39 *2550:A0 5.445 
10 *500:37 *2560:A0 4.05 
11 *500:14 *2575:A0 4.05 
12 *500:8 *500:87 6.395 
13 *500:87 *3120:A0 21.755 
14 *500:87 *3110:A0 1.6 
15 *500:4 *500:141 36.465 
16 *500:141 *500:155 15.815 
17 *500:155 *2543:A0 7.585 
18 *500:155 *2538:A0 1.6 
19 *500:141 *3089:A0 10.125 
*END

*D_NET *501 0.00137379
*CONN
*I *3090:A I *D sky130_fd_sc_hd__clkbuf_1
*I *3089:X O *D sky130_fd_sc_hd__mux2_1
*CAP
1 *3090:A 0.000378615
2 *3089:X 0.000378615
3 *3090:A *603:33 0.000446232
4 *207:26 *3090:A 5.92528e-05
5 *321:61 *3090:A 0.000111073
*RES
1 *3089:X *3090:A 12.825 
*END

*D_NET *502 0.00189789
*CONN
*I *3094:S I *D sky130_fd_sc_hd__mux2_1
*I *3092:S I *D sky130_fd_sc_hd__mux2_1
*I *3091:Y O *D sky130_fd_sc_hd__nor2_1
*CAP
1 *3094:S 0
2 *3092:S 0.000253547
3 *3091:Y 0.000121714
4 *502:10 0.000375261
5 *3092:S *3092:A0 0.000195465
6 *3092:S *3415:A 0.000112595
7 *502:10 *3391:A 0.000289883
8 *502:10 *601:71 0.000231815
9 *3050:B *502:10 5.13865e-05
10 *3092:A1 *3092:S 6.18661e-05
11 *445:88 *502:10 0.000169283
12 *476:89 *502:10 3.50733e-05
*RES
1 *3091:Y *502:10 6.22 
2 *502:10 *3092:S 10.805 
3 *502:10 *3094:S 1.6 
*END

*D_NET *503 0.000625122
*CONN
*I *3093:A I *D sky130_fd_sc_hd__clkbuf_1
*I *3092:X O *D sky130_fd_sc_hd__mux2_1
*CAP
1 *3093:A 0.000242714
2 *3092:X 0.000242714
3 *3093:A *3095:A 4.89295e-05
4 *3214:D *3093:A 9.07642e-05
*RES
1 *3092:X *3093:A 7.475 
*END

*D_NET *504 0.000911819
*CONN
*I *3095:A I *D sky130_fd_sc_hd__clkbuf_1
*I *3094:X O *D sky130_fd_sc_hd__mux2_1
*CAP
1 *3095:A 0.000345789
2 *3094:X 0.000345789
3 *3095:A *601:71 7.38695e-05
4 *3095:A *834:6 4.77769e-05
5 *3093:A *3095:A 4.89295e-05
6 *197:54 *3095:A 4.96649e-05
*RES
1 *3094:X *3095:A 12.495 
*END

*D_NET *505 0.00225091
*CONN
*I *3097:S I *D sky130_fd_sc_hd__mux2_1
*I *3099:S I *D sky130_fd_sc_hd__mux2_1
*I *3096:Y O *D sky130_fd_sc_hd__nor2_1
*CAP
1 *3097:S 0
2 *3099:S 0.000281331
3 *3096:Y 7.81881e-05
4 *505:6 0.000359519
5 *3099:S *2696:A 0.000122325
6 *3099:S *3097:A0 8.57024e-05
7 *3099:S *832:8 6.90876e-05
8 *505:6 *3097:A0 3.66286e-05
9 *505:6 *3372:A 4.60123e-05
10 *505:6 *832:8 0.000128709
11 *2708:A2 *3099:S 9.03508e-06
12 *2720:C1 *3099:S 9.30564e-05
13 *2720:D1 *3099:S 0.000212607
14 *2753:B1 *3099:S 3.91306e-05
15 *181:38 *3099:S 4.9253e-06
16 *190:28 *3099:S 7.14892e-06
17 *192:91 *505:6 0.000260997
18 *192:109 *3099:S 0.00032228
19 *192:109 *505:6 8.40213e-05
20 *197:143 *3099:S 0
21 *391:42 *3099:S 1.02024e-05
*RES
1 *3096:Y *505:6 4.81 
2 *505:6 *3099:S 12.86 
3 *505:6 *3097:S 1.6 
*END

*D_NET *506 0.00137314
*CONN
*I *3098:A I *D sky130_fd_sc_hd__clkbuf_1
*I *3097:X O *D sky130_fd_sc_hd__mux2_1
*CAP
1 *3098:A 0.000220072
2 *3097:X 0.000220072
3 *3098:A *3378:A 4.82863e-05
4 *3098:A *511:70 0.000384614
5 *2753:B1 *3098:A 7.63282e-05
6 *3083:A1 *3098:A 4.9968e-05
7 *350:152 *3098:A 0
8 *476:46 *3098:A 0.000373797
*RES
1 *3097:X *3098:A 13.89 
*END

*D_NET *507 0.000697988
*CONN
*I *3100:A I *D sky130_fd_sc_hd__clkbuf_1
*I *3099:X O *D sky130_fd_sc_hd__mux2_1
*CAP
1 *3100:A 0.000201153
2 *3099:X 0.000201153
3 *3100:A *3216:CLK 4.66473e-05
4 *3100:A *726:32 4.66826e-05
5 *3100:A *831:20 0
6 *2720:D1 *3100:A 5.71428e-05
7 *2760:B1 *3100:A 1.88656e-05
8 *3216:D *3100:A 4.78548e-05
9 *181:61 *3100:A 5.00567e-05
10 *395:40 *3100:A 2.84332e-05
*RES
1 *3099:X *3100:A 11.505 
*END

*D_NET *508 0.00138158
*CONN
*I *3104:S I *D sky130_fd_sc_hd__mux2_1
*I *3102:S I *D sky130_fd_sc_hd__mux2_1
*I *3101:Y O *D sky130_fd_sc_hd__nor2_1
*CAP
1 *3104:S 0.000210726
2 *3102:S 2.35527e-05
3 *3101:Y 0.000117211
4 *508:12 0.00035149
5 *3102:S *3102:A0 7.60965e-05
6 *3104:S *3102:A0 4.35348e-05
7 *3104:S *3104:A0 1.17666e-05
8 *2701:B *3104:S 3.16057e-06
9 *2702:B1 *3104:S 0.000137563
10 *2708:A2 *3102:S 7.35729e-05
11 *2708:A2 *3104:S 7.48724e-05
12 *2763:B *3104:S 3.83318e-05
13 *2763:C *3104:S 0.000105906
14 *3104:A1 *3104:S 9.50342e-06
15 *202:102 *508:12 4.77769e-05
16 *430:46 *508:12 5.65189e-05
17 *476:70 *508:12 0
*RES
1 *3101:Y *508:12 7.43 
2 *508:12 *3102:S 2.74 
3 *508:12 *3104:S 10.49 
*END

*D_NET *509 0.000167043
*CONN
*I *3103:A I *D sky130_fd_sc_hd__clkbuf_1
*I *3102:X O *D sky130_fd_sc_hd__mux2_1
*CAP
1 *3103:A 5.93756e-05
2 *3102:X 5.93756e-05
3 *476:52 *3103:A 4.82919e-05
*RES
1 *3102:X *3103:A 4.265 
*END

*D_NET *510 0.00176096
*CONN
*I *3105:A I *D sky130_fd_sc_hd__clkbuf_1
*I *3104:X O *D sky130_fd_sc_hd__mux2_1
*CAP
1 *3105:A 0.000448461
2 *3104:X 0.000448461
3 *3105:A *726:32 0.000460258
4 *3218:D *3105:A 7.4027e-05
5 *3219:D *3105:A 0.000113905
6 *218:144 *3105:A 2.11536e-05
7 *476:52 *3105:A 0.0001947
*RES
1 *3104:X *3105:A 14.655 
*END

*D_NET *511 0.0330804
*CONN
*I *2541:A0 I *D sky130_fd_sc_hd__mux2_1
*I *3123:A0 I *D sky130_fd_sc_hd__mux2_1
*I *3108:A0 I *D sky130_fd_sc_hd__mux2_1
*I *3118:A0 I *D sky130_fd_sc_hd__mux2_1
*I *2558:A0 I *D sky130_fd_sc_hd__mux2_1
*I *2563:A0 I *D sky130_fd_sc_hd__mux2_1
*I *2548:A0 I *D sky130_fd_sc_hd__mux2_1
*I *2553:A0 I *D sky130_fd_sc_hd__mux2_1
*I *2578:A0 I *D sky130_fd_sc_hd__mux2_1
*I *2573:A0 I *D sky130_fd_sc_hd__mux2_1
*I *3106:X O *D sky130_fd_sc_hd__clkbuf_4
*CAP
1 *2541:A0 0
2 *3123:A0 0.000365846
3 *3108:A0 0
4 *3118:A0 0.000795703
5 *2558:A0 0.00036825
6 *2563:A0 0.000680306
7 *2548:A0 0
8 *2553:A0 0
9 *2578:A0 0
10 *2573:A0 2.42282e-05
11 *3106:X 0.00174775
12 *511:133 0.000837271
13 *511:127 0.00124904
14 *511:116 0.00156285
15 *511:101 0.00107536
16 *511:86 0.00062357
17 *511:80 0.0011877
18 *511:76 0.000708161
19 *511:70 0.00290529
20 *511:38 0.00310244
21 *511:22 0.00225822
22 *2558:A0 *2551:A 0.000126245
23 *2558:A0 *2558:A1 5.30673e-05
24 *2558:A0 *2559:A 2.8185e-05
25 *2558:A0 *3231:CLK 4.82919e-05
26 *2563:A0 *2548:A1 0
27 *2563:A0 *591:33 0.000310789
28 *2563:A0 *810:12 0.000178439
29 *2573:A0 *2573:A1 7.4027e-05
30 *2573:A0 *3443:A 7.23602e-05
31 *3118:A0 *3110:A1 0.000152134
32 *3118:A0 *3110:S 5.16418e-05
33 *3118:A0 *3111:A 0.000214787
34 *3118:A0 *3118:S 1.37328e-05
35 *3118:A0 *3119:A 0.000184576
36 *3118:A0 *3121:A 2.11084e-05
37 *3118:A0 *3217:CLK 0
38 *3118:A0 *512:8 0.000108329
39 *3118:A0 *726:32 2.11084e-05
40 *3123:A0 *2777:B 4.49328e-05
41 *3123:A0 *3115:A0 3.86607e-05
42 *3123:A0 *515:10 8.35683e-05
43 *3123:A0 *608:24 7.21296e-06
44 *3123:A0 *715:10 0
45 *511:22 *2541:S 4.77719e-05
46 *511:22 *2544:A 8.51862e-05
47 *511:22 *2771:A 9.54469e-05
48 *511:22 *3411:A 0
49 *511:22 *592:18 0.000150843
50 *511:22 *593:123 0
51 *511:22 *759:12 0.000232877
52 *511:38 *2542:A 3.6227e-05
53 *511:38 *3115:A0 8.65961e-05
54 *511:38 *3228:CLK 2.16833e-05
55 *511:38 *608:16 0.000267846
56 *511:38 *759:12 0.000234722
57 *511:70 *3104:A0 7.06865e-05
58 *511:70 *3113:S 0.00011355
59 *511:70 *3378:A 2.30292e-05
60 *511:70 *515:10 5.33085e-05
61 *511:70 *590:14 0.000119866
62 *511:70 *608:24 2.05573e-05
63 *511:70 *825:14 6.41543e-05
64 *511:76 *2701:A 0.00045947
65 *511:76 *3217:CLK 1.91597e-05
66 *511:76 *601:16 2.20014e-05
67 *511:76 *601:18 0.000148131
68 *511:80 *601:18 4.66108e-05
69 *511:86 *2573:A1 9.50342e-06
70 *511:86 *3110:A1 0.000159964
71 *511:86 *3110:S 0.000180682
72 *511:86 *3443:A 4.38051e-05
73 *511:86 *726:38 0.000287204
74 *511:101 *2578:A1 0.000160635
75 *511:101 *2578:S 0.000196295
76 *511:101 *807:20 1.85674e-05
77 *511:116 *2579:A 0.000200565
78 *511:127 *2553:A1 9.32375e-05
79 *511:127 *2553:S 4.41857e-05
80 *511:127 *2558:S 9.37731e-05
81 *511:127 *2560:A1 4.05358e-05
82 *511:127 *2561:A 2.54606e-05
83 *511:127 *3343:A 0
84 *511:127 *816:12 0.000117832
85 *511:133 *2551:A 0
86 *511:133 *3343:A 0
87 *511:133 *591:33 4.66108e-05
88 *2547:A *2563:A0 0
89 *2565:A0 *2563:A0 0
90 *2565:A0 *511:127 1.93834e-05
91 *2565:A0 *511:133 0.000227543
92 *2714:A2 *2563:A0 0
93 *2776:C *511:38 0.000122337
94 *2777:C *511:38 1.03423e-05
95 *2790:A2 *511:70 3.64998e-06
96 *2790:B1 *511:70 9.044e-05
97 *2790:C1 *511:70 0.000121871
98 *2968:B *511:22 0.000370626
99 *2971:A0 *511:22 0
100 *2974:A0 *511:22 0.00034839
101 *2978:A *511:22 8.08439e-05
102 *3059:A *511:22 0.000158066
103 *3081:A1 *511:70 0.000402447
104 *3081:S *511:70 7.00322e-05
105 *3083:A1 *511:70 0.000539216
106 *3098:A *511:70 0.000384614
107 *3216:D *511:70 0.000163204
108 *3219:D *511:76 7.61195e-05
109 *3228:D *511:38 5.25992e-05
110 *3231:D *2558:A0 2.97674e-05
111 *3232:D *511:116 0
112 *3240:D *511:116 6.65066e-05
113 *3271:D *511:22 0
114 *3464:A *3123:A0 0.000418278
115 *183:59 *511:70 9.044e-05
116 *191:36 *511:38 0.000161941
117 *212:18 *3123:A0 0
118 *323:55 *511:22 0.000464669
119 *350:12 *511:22 9.30717e-05
120 *350:106 *511:22 7.5416e-05
121 *351:164 *511:22 0.000673242
122 *358:67 *511:38 4.82919e-05
123 *358:67 *511:70 0.00011852
124 *358:85 *511:70 0.000238321
125 *358:99 *511:70 9.73758e-05
126 *419:16 *511:22 0.000297855
127 *419:43 *511:22 0.000143909
128 *430:10 *511:70 0.000112123
129 *430:24 *511:22 0.00023622
130 *430:24 *511:38 0.00015603
131 *442:16 *511:86 3.47668e-05
132 *476:46 *511:70 0.000415855
133 *500:14 *511:86 0
134 *500:37 *511:127 0.000387675
135 *500:39 *511:127 1.46216e-05
136 *500:87 *511:86 0
*RES
1 *3106:X *511:22 48.785 
2 *511:22 *511:38 16.68 
3 *511:38 *511:70 47.305 
4 *511:70 *511:76 9.195 
5 *511:76 *511:80 2.45 
6 *511:80 *511:86 9.075 
7 *511:86 *2573:A0 4.47 
8 *511:86 *511:101 6.605 
9 *511:101 *2578:A0 1.6 
10 *511:101 *511:116 18.025 
11 *511:116 *2553:A0 1.6 
12 *511:116 *511:127 16.685 
13 *511:127 *511:133 5.105 
14 *511:133 *2548:A0 1.6 
15 *511:133 *2563:A0 17.03 
16 *511:127 *2558:A0 10.26 
17 *511:80 *3118:A0 17.61 
18 *511:76 *3108:A0 1.6 
19 *511:38 *3123:A0 11.61 
20 *511:22 *2541:A0 1.6 
*END

*D_NET *512 0.00154291
*CONN
*I *3108:S I *D sky130_fd_sc_hd__mux2_1
*I *3110:S I *D sky130_fd_sc_hd__mux2_1
*I *3107:X O *D sky130_fd_sc_hd__or2_1
*CAP
1 *3108:S 1.8095e-05
2 *3110:S 0.000147293
3 *3107:X 0.000109813
4 *512:8 0.000275201
5 *3108:S *601:18 8.49205e-05
6 *3108:S *828:12 8.49205e-05
7 *3110:S *3108:A1 7.4027e-05
8 *3110:S *3110:A1 4.82919e-05
9 *512:8 *2766:A1 8.53113e-06
10 *512:8 *726:38 4.54264e-05
11 *512:8 *726:74 4.5783e-05
12 *3118:A0 *3110:S 5.16418e-05
13 *3118:A0 *512:8 0.000108329
14 *442:16 *3110:S 7.70284e-05
15 *442:16 *512:8 0.000162419
16 *500:87 *3110:S 2.05056e-05
17 *511:86 *3110:S 0.000180682
*RES
1 *3107:X *512:8 7.02 
2 *512:8 *3110:S 7.41 
3 *512:8 *3108:S 4.395 
*END

*D_NET *513 0.00148418
*CONN
*I *3109:A I *D sky130_fd_sc_hd__clkbuf_1
*I *3108:X O *D sky130_fd_sc_hd__mux2_1
*CAP
1 *3109:A 0.000593827
2 *3108:X 0.000593827
3 *3109:A *3220:CLK 3.30017e-05
4 *3109:A *601:18 0.000216918
5 *3109:A *828:12 4.66108e-05
*RES
1 *3108:X *3109:A 10.73 
*END

*D_NET *514 0.0014013
*CONN
*I *3111:A I *D sky130_fd_sc_hd__clkbuf_1
*I *3110:X O *D sky130_fd_sc_hd__mux2_1
*CAP
1 *3111:A 0.00027382
2 *3110:X 0.00027382
3 *3111:A *3119:A 2.937e-05
4 *3111:A *726:38 0.000297417
5 *3118:A0 *3111:A 0.000214787
6 *285:18 *3111:A 0.00031209
*RES
1 *3110:X *3111:A 14.43 
*END

*D_NET *515 0.00199332
*CONN
*I *3115:S I *D sky130_fd_sc_hd__mux2_1
*I *3113:S I *D sky130_fd_sc_hd__mux2_1
*I *3112:Y O *D sky130_fd_sc_hd__nor2_1
*CAP
1 *3115:S 0
2 *3113:S 0.000202423
3 *3112:Y 0.000368492
4 *515:10 0.000570915
5 *3113:S *3113:A0 3.86607e-05
6 *3113:S *590:14 1.93765e-05
7 *3113:S *715:10 9.24119e-05
8 *515:10 *3371:A 2.49909e-05
9 *515:10 *715:10 5.00612e-05
10 *2778:A *3113:S 0.000142895
11 *3123:A0 *515:10 8.35683e-05
12 *358:67 *3113:S 6.00734e-05
13 *476:26 *515:10 0.000124309
14 *476:36 *515:10 4.82863e-05
15 *511:70 *3113:S 0.00011355
16 *511:70 *515:10 5.33085e-05
*RES
1 *3112:Y *515:10 9.135 
2 *515:10 *3113:S 8.895 
3 *515:10 *3115:S 3.6 
*END

*D_NET *516 0.00142499
*CONN
*I *3114:A I *D sky130_fd_sc_hd__clkbuf_1
*I *3113:X O *D sky130_fd_sc_hd__mux2_1
*CAP
1 *3114:A 0.000344852
2 *3113:X 0.000344852
3 *3114:A *2774:A 0.000337127
4 *3114:A *2774:C 8.65825e-06
5 *3114:A *2776:A 4.66108e-05
6 *218:24 *3114:A 3.53787e-05
7 *371:51 *3114:A 5.93824e-05
8 *384:30 *3114:A 0.00023614
9 *403:22 *3114:A 1.19928e-05
*RES
1 *3113:X *3114:A 14.385 
*END

*D_NET *517 0.00102652
*CONN
*I *3116:A I *D sky130_fd_sc_hd__clkbuf_1
*I *3115:X O *D sky130_fd_sc_hd__mux2_1
*CAP
1 *3116:A 0.000323823
2 *3115:X 0.000323823
3 *3223:D *3116:A 4.05358e-05
4 *187:24 *3116:A 0
5 *202:24 *3116:A 0.000116165
6 *358:85 *3116:A 0.000222169
*RES
1 *3115:X *3116:A 12.135 
*END

*D_NET *518 0.00228918
*CONN
*I *3120:S I *D sky130_fd_sc_hd__mux2_1
*I *3118:S I *D sky130_fd_sc_hd__mux2_1
*I *3117:X O *D sky130_fd_sc_hd__or2_1
*CAP
1 *3120:S 0
2 *3118:S 0.000270639
3 *3117:X 7.71767e-05
4 *518:6 0.000347816
5 *3118:S *3118:A1 0.000141599
6 *3118:S *3121:A 5.17773e-05
7 *3118:S *822:8 0.000354209
8 *518:6 *3337:A 9.2541e-05
9 *518:6 *822:8 0.000501975
10 *3118:A0 *3118:S 1.37328e-05
11 *3120:A0 *3118:S 0.000126054
12 *3120:A0 *518:6 0.000311661
13 *3225:D *3118:S 0
*RES
1 *3117:X *518:6 6.19 
2 *518:6 *3118:S 12.11 
3 *518:6 *3120:S 1.6 
*END

*D_NET *519 0.0013067
*CONN
*I *3119:A I *D sky130_fd_sc_hd__clkbuf_1
*I *3118:X O *D sky130_fd_sc_hd__mux2_1
*CAP
1 *3119:A 0.000502774
2 *3118:X 0.000502774
3 *3111:A *3119:A 2.937e-05
4 *3118:A0 *3119:A 0.000184576
5 *3120:A0 *3119:A 7.06865e-05
6 *197:54 *3119:A 1.65192e-05
*RES
1 *3118:X *3119:A 14.205 
*END

*D_NET *520 0.0006158
*CONN
*I *3121:A I *D sky130_fd_sc_hd__clkbuf_1
*I *3120:X O *D sky130_fd_sc_hd__mux2_1
*CAP
1 *3121:A 0.000251189
2 *3120:X 0.000251189
3 *3121:A *3118:A1 4.05358e-05
4 *3118:A0 *3121:A 2.11084e-05
5 *3118:S *3121:A 5.17773e-05
*RES
1 *3120:X *3121:A 11.31 
*END

*D_NET *521 0.00125572
*CONN
*I *3123:S I *D sky130_fd_sc_hd__mux2_1
*I *2538:S I *D sky130_fd_sc_hd__mux2_1
*I *3122:X O *D sky130_fd_sc_hd__or2_1
*CAP
1 *3123:S 0.000191343
2 *2538:S 9.51951e-05
3 *3122:X 0
4 *521:4 0.000286538
5 *2538:S *3228:CLK 0.000200667
6 *2538:S *594:33 0.000107016
7 *3123:S *2537:A 1.79174e-05
8 *3123:S *3123:A1 4.417e-05
9 *3122:A *3123:S 5.19006e-06
10 *212:18 *2538:S 0.000307683
*RES
1 *3122:X *521:4 1.6 
2 *521:4 *2538:S 9.275 
3 *521:4 *3123:S 4.735 
*END

*D_NET *522 0.000574857
*CONN
*I *2537:A I *D sky130_fd_sc_hd__clkbuf_1
*I *3123:X O *D sky130_fd_sc_hd__mux2_1
*CAP
1 *2537:A 0.0001708
2 *3123:X 0.0001708
3 *2537:A *3180:CLK 4.28112e-06
4 *2537:A *594:31 8.53011e-05
5 *2537:A *594:59 5.87002e-05
6 *2537:A *608:16 5.87261e-05
7 *3123:S *2537:A 1.79174e-05
8 *476:16 *2537:A 8.33066e-06
*RES
1 *3123:X *2537:A 10.065 
*END

*D_NET *523 0.00100889
*CONN
*I *2539:A I *D sky130_fd_sc_hd__clkbuf_1
*I *2538:X O *D sky130_fd_sc_hd__mux2_1
*CAP
1 *2539:A 0.000261763
2 *2538:X 0.000261763
3 *3086:A0 *2539:A 8.7152e-06
4 *192:66 *2539:A 5.45745e-05
5 *218:14 *2539:A 0.00011504
6 *500:155 *2539:A 0.000307035
*RES
1 *2538:X *2539:A 11.445 
*END

*D_NET *524 0.00190532
*CONN
*I *2543:S I *D sky130_fd_sc_hd__mux2_1
*I *2541:S I *D sky130_fd_sc_hd__mux2_1
*I *2540:X O *D sky130_fd_sc_hd__or2_1
*CAP
1 *2543:S 8.45831e-05
2 *2541:S 0.000112217
3 *2540:X 0.00021509
4 *524:10 0.000411891
5 *2541:S *2770:A 0.000109572
6 *2541:S *3382:A 4.01208e-05
7 *2543:S *2544:A 0.00016031
8 *2543:S *2743:A 0.00017416
9 *524:10 *2543:A1 0
10 *524:10 *3382:A 0.000173401
11 *2540:A *524:10 1.77595e-05
12 *2543:A0 *2543:S 8.64421e-05
13 *2743:B *2543:S 0.000113027
14 *211:66 *2541:S 0
15 *415:41 *524:10 0.000112364
16 *430:24 *2541:S 4.66108e-05
17 *511:22 *2541:S 4.77719e-05
*RES
1 *2540:X *524:10 7.725 
2 *524:10 *2541:S 5.94 
3 *524:10 *2543:S 7.155 
*END

*D_NET *525 0.000939895
*CONN
*I *2542:A I *D sky130_fd_sc_hd__clkbuf_1
*I *2541:X O *D sky130_fd_sc_hd__mux2_1
*CAP
1 *2542:A 0.000188524
2 *2541:X 0.000188524
3 *2542:A *2739:A 0.000115046
4 *2542:A *759:12 4.66108e-05
5 *2739:C *2542:A 2.937e-05
6 *2778:B *2542:A 2.68464e-05
7 *3228:D *2542:A 0.000151996
8 *211:66 *2542:A 0.000156751
9 *411:47 *2542:A 0
10 *511:38 *2542:A 3.6227e-05
*RES
1 *2541:X *2542:A 11.775 
*END

*D_NET *526 0.00177526
*CONN
*I *2544:A I *D sky130_fd_sc_hd__clkbuf_1
*I *2543:X O *D sky130_fd_sc_hd__mux2_1
*CAP
1 *2544:A 0.000495145
2 *2543:X 0.000495145
3 *2544:A *2743:A 0.00010235
4 *2544:A *3229:CLK 3.64998e-06
5 *2544:A *818:8 0.000158532
6 *2543:S *2544:A 0.00016031
7 *3229:D *2544:A 9.75726e-05
8 *215:72 *2544:A 1.73877e-05
9 *355:32 *2544:A 0.000111448
10 *430:24 *2544:A 4.85359e-05
11 *511:22 *2544:A 8.51862e-05
*RES
1 *2543:X *2544:A 15.825 
*END

*D_NET *527 0.0165867
*CONN
*I *2552:B I *D sky130_fd_sc_hd__or2_1
*I *2546:B I *D sky130_fd_sc_hd__or2_2
*I *2582:C I *D sky130_fd_sc_hd__or3_1
*I *2572:B I *D sky130_fd_sc_hd__or2_1
*I *2577:B I *D sky130_fd_sc_hd__or2_1
*I *2567:B I *D sky130_fd_sc_hd__nor2_1
*I *2557:B I *D sky130_fd_sc_hd__or2_1
*I *2562:B I *D sky130_fd_sc_hd__or2_1
*I *2545:X O *D sky130_fd_sc_hd__or3b_4
*CAP
1 *2552:B 3.43701e-05
2 *2546:B 0.000437463
3 *2582:C 0
4 *2572:B 0.000327697
5 *2577:B 0
6 *2567:B 0
7 *2557:B 1.50419e-05
8 *2562:B 6.01766e-05
9 *2545:X 0.00027119
10 *527:83 0.000497134
11 *527:67 0.00011336
12 *527:50 0.000820198
13 *527:44 0.00291425
14 *527:24 0.00239927
15 *527:18 0.000821507
16 *527:16 0.000373442
17 *2546:B *2619:A 7.14241e-05
18 *2546:B *2621:A 0
19 *2546:B *2748:A 9.32087e-05
20 *2546:B *759:47 0.000176506
21 *2546:B *759:70 2.68526e-05
22 *2552:B *2780:A1 3.50152e-06
23 *2557:B *528:67 1.91597e-05
24 *2557:B *541:14 4.66108e-05
25 *2572:B *3179:CLK 0
26 *2572:B *598:111 0
27 *527:16 *2545:A 4.22112e-05
28 *527:16 *2545:C_N 1.19928e-05
29 *527:16 *2780:A1 4.23177e-05
30 *527:16 *759:47 0.000257087
31 *527:18 *2780:A1 8.3945e-05
32 *527:24 *2780:A1 0.000129283
33 *527:44 *2585:A1 0.000157394
34 *527:67 *528:67 0.000300572
35 *527:67 *541:14 1.91597e-05
36 *527:83 *598:111 0
37 *2546:A *527:24 0.000207128
38 *2546:A *527:44 9.55262e-06
39 *2552:A *527:16 0.000121027
40 *2552:A *527:18 9.55476e-05
41 *2567:A *2562:B 8.53113e-06
42 *2567:A *527:50 0.000205074
43 *2567:A *527:67 0.000160635
44 *2572:A *2572:B 0.000176026
45 *2717:A2 *2562:B 5.92849e-05
46 *2717:A2 *527:50 0.000192928
47 *2719:A2 *2562:B 5.42303e-05
48 *2719:A2 *527:50 7.34094e-05
49 *2720:D1 *2572:B 7.63125e-05
50 *2735:A3 *527:44 0.00012214
51 *2751:A *527:24 0.00023182
52 *2751:B *527:16 7.01359e-05
53 *2751:B *527:18 0.000101609
54 *2751:B *527:24 0.000268268
55 *2780:A3 *527:24 2.747e-05
56 *2780:B1 *2546:B 0
57 *2780:B1 *527:24 8.23457e-05
58 *2781:D *527:24 0.000121043
59 *2786:A3 *527:44 4.28112e-06
60 *2795:B1 *527:50 4.00529e-05
61 *2902:B *527:44 0
62 *2931:B *2546:B 0
63 *2949:B *2546:B 0.000193138
64 *3178:D *2572:B 7.53592e-05
65 *174:110 *527:44 0.000115263
66 *207:43 *527:44 9.84929e-05
67 *207:51 *527:44 0.000429812
68 *207:51 *527:50 0.000135538
69 *231:101 *527:44 0.000860113
70 *231:133 *527:44 3.84918e-06
71 *328:84 *527:44 0.000231026
72 *370:53 *527:44 0.000753655
73 *391:64 *527:44 0
74 *395:40 *2572:B 0
75 *395:40 *527:83 0
76 *411:47 *2546:B 0.000163823
77 *415:41 *527:16 0.000451453
*RES
1 *2545:X *527:16 13.265 
2 *527:16 *527:18 2.175 
3 *527:18 *527:24 8.85 
4 *527:24 *527:44 35.68 
5 *527:44 *527:50 13.97 
6 *527:50 *2562:B 5.235 
7 *527:50 *527:67 5.24 
8 *527:67 *2557:B 2.05 
9 *527:67 *2567:B 1.6 
10 *527:44 *527:83 4.4 
11 *527:83 *2577:B 3.6 
12 *527:83 *2572:B 10.155 
13 *527:24 *2582:C 1.6 
14 *527:18 *2546:B 13.955 
15 *527:16 *2552:B 2.215 
*END

*D_NET *528 0.0200485
*CONN
*I *2617:B I *D sky130_fd_sc_hd__or2_1
*I *2592:B I *D sky130_fd_sc_hd__or2_1
*I *2607:B I *D sky130_fd_sc_hd__or2_1
*I *2597:B I *D sky130_fd_sc_hd__or2_1
*I *2602:B I *D sky130_fd_sc_hd__or2_1
*I *2612:B I *D sky130_fd_sc_hd__or2_1
*I *2547:B I *D sky130_fd_sc_hd__or2_1
*I *2587:B I *D sky130_fd_sc_hd__nor2_1
*I *2622:B I *D sky130_fd_sc_hd__or2_1
*I *2546:X O *D sky130_fd_sc_hd__or2_2
*CAP
1 *2617:B 0.000393319
2 *2592:B 0.000157293
3 *2607:B 0.000451951
4 *2597:B 0.000177416
5 *2602:B 0
6 *2612:B 0
7 *2547:B 0.00011381
8 *2587:B 0.000313242
9 *2622:B 0.000283982
10 *2546:X 3.69588e-05
11 *528:140 0.00107751
12 *528:93 0.000542361
13 *528:87 0.000465809
14 *528:67 0.0012439
15 *528:49 0.00114525
16 *528:47 0.00184511
17 *528:10 0.00163708
18 *528:8 0.000480969
19 *2547:B *2606:A 9.35556e-05
20 *2587:B *2793:B2 6.86736e-05
21 *2587:B *3253:CLK 2.78732e-05
22 *2587:B *811:12 3.09164e-05
23 *2587:B *926:10 1.22676e-05
24 *2592:B *3333:A 8.65961e-05
25 *2592:B *556:6 4.1527e-05
26 *2597:B *2736:A1 4.95956e-05
27 *2597:B *3440:A 5.91401e-05
28 *2597:B *600:21 8.50701e-05
29 *2607:B *2596:A 4.38278e-05
30 *2607:B *2794:A2 0.000385327
31 *2607:B *599:22 0.000179082
32 *2607:B *599:24 2.95721e-05
33 *2607:B *925:12 0
34 *528:47 *2600:A1 4.78847e-05
35 *528:47 *2876:A1 0.000238677
36 *528:47 *3139:CLK 0.000257524
37 *528:47 *3295:A 4.82919e-05
38 *528:47 *3339:A 9.66035e-05
39 *528:47 *600:8 0.000184834
40 *528:49 *3250:CLK 4.82919e-05
41 *528:49 *600:8 6.90876e-05
42 *528:67 *2601:A 3.43325e-05
43 *528:67 *3250:CLK 0.000508809
44 *528:67 *535:6 3.00381e-05
45 *528:67 *541:14 8.95127e-05
46 *528:87 *2604:A 4.66108e-05
47 *528:87 *2615:A1 2.30292e-05
48 *528:87 *535:6 9.99942e-05
49 *528:87 *562:10 0.000123225
50 *528:87 *568:10 0
51 *528:87 *591:12 0.000139245
52 *528:93 *2604:A 8.23457e-05
53 *528:93 *3253:CLK 7.63204e-05
54 *528:93 *591:12 8.05587e-05
55 *528:140 *2736:A1 0
56 *528:140 *2736:B2 0
57 *2547:A *2592:B 2.58336e-05
58 *2557:B *528:67 1.91597e-05
59 *2592:A *2592:B 8.696e-05
60 *2607:A *2607:B 2.76356e-05
61 *2612:A *528:87 3.74161e-05
62 *2612:A *528:93 7.75271e-05
63 *2615:A0 *528:87 0.000133437
64 *2673:B *2617:B 5.91243e-05
65 *2673:B *528:10 0.000113797
66 *2673:B *528:47 4.82863e-05
67 *2718:A *2547:B 3.82323e-06
68 *2718:A *2587:B 0.000132867
69 *2736:B1 *528:140 1.12261e-05
70 *2737:B1 *528:140 7.12477e-05
71 *2749:C *528:47 9.71838e-05
72 *2753:B1 *2597:B 0.00017317
73 *2753:B2 *2617:B 6.51664e-05
74 *2753:B2 *528:47 4.60584e-05
75 *2780:B1 *2617:B 0.000157418
76 *2780:B1 *528:8 4.66108e-05
77 *2793:B1 *2587:B 0
78 *2876:A0 *528:47 2.16833e-05
79 *2876:S *528:47 0.000458867
80 *2877:A *528:47 4.66742e-05
81 *2879:A *528:47 0.000193801
82 *2881:A *528:47 0.000109947
83 *2889:B *528:47 0.000270585
84 *2931:A *2622:B 0.000247937
85 *2931:B *2617:B 0.000398242
86 *2931:B *2622:B 0.000362972
87 *2931:B *528:10 0.000132842
88 *3248:D *2607:B 0.000107374
89 *3249:D *2607:B 7.28794e-05
90 *3250:D *528:67 0.000182659
91 *3252:D *528:93 1.34594e-05
92 *3259:D *2617:B 2.86975e-05
93 *181:61 *2597:B 0
94 *197:143 *528:140 0.000179438
95 *197:149 *2607:B 4.76926e-05
96 *197:149 *528:140 9.40795e-05
97 *202:120 *2587:B 0.000292053
98 *202:120 *528:93 0.000310636
99 *208:61 *2607:B 0.00025169
100 *215:106 *528:47 5.32892e-05
101 *231:46 *528:47 0.00019585
102 *316:39 *2617:B 3.03775e-05
103 *322:55 *528:47 0.000277753
104 *358:67 *2622:B 0
105 *358:67 *528:10 0
106 *366:10 *528:47 4.82919e-05
107 *527:67 *528:67 0.000300572
*RES
1 *2546:X *528:8 4.05 
2 *528:8 *528:10 1.635 
3 *528:10 *2622:B 10.32 
4 *528:10 *528:47 30.305 
5 *528:47 *528:49 1.485 
6 *528:49 *528:67 15.15 
7 *528:67 *528:87 11.62 
8 *528:87 *528:93 6.47 
9 *528:93 *2587:B 10.59 
10 *528:93 *2547:B 5.1 
11 *528:87 *2612:B 1.6 
12 *528:67 *2602:B 1.6 
13 *528:49 *2597:B 9.785 
14 *528:47 *528:140 10.37 
15 *528:140 *2607:B 18.745 
16 *528:140 *2592:B 6.465 
17 *528:8 *2617:B 16.075 
*END

*D_NET *529 0.00222465
*CONN
*I *2550:S I *D sky130_fd_sc_hd__mux2_1
*I *2548:S I *D sky130_fd_sc_hd__mux2_1
*I *2547:X O *D sky130_fd_sc_hd__or2_1
*CAP
1 *2550:S 0.000234894
2 *2548:S 0.000335325
3 *2547:X 9.23085e-05
4 *529:10 0.000662527
5 *2548:S *591:27 0.000107494
6 *2548:S *591:33 0.000214835
7 *2714:A2 *2550:S 0.000108322
8 *2714:A2 *529:10 0.000181376
9 *2714:B1 *2550:S 2.4997e-05
10 *2714:B1 *529:10 9.40749e-05
11 *3239:D *2550:S 7.23602e-05
12 *3239:D *529:10 9.61344e-05
*RES
1 *2547:X *529:10 6.195 
2 *529:10 *2548:S 8.91 
3 *529:10 *2550:S 7.845 
*END

*D_NET *530 0.000270093
*CONN
*I *2549:A I *D sky130_fd_sc_hd__clkbuf_1
*I *2548:X O *D sky130_fd_sc_hd__mux2_1
*CAP
1 *2549:A 4.68805e-05
2 *2548:X 4.68805e-05
3 *2549:A *2714:A1 8.26509e-05
4 *2549:A *591:33 9.36815e-05
*RES
1 *2548:X *2549:A 4.61 
*END

*D_NET *531 0.000986169
*CONN
*I *2551:A I *D sky130_fd_sc_hd__clkbuf_1
*I *2550:X O *D sky130_fd_sc_hd__mux2_1
*CAP
1 *2551:A 0.000310859
2 *2550:X 0.000310859
3 *2551:A *2714:A1 8.8266e-05
4 *2551:A *3343:A 5.63405e-05
5 *2551:A *591:33 8.65905e-05
6 *2550:A0 *2551:A 7.00889e-06
7 *2558:A0 *2551:A 0.000126245
8 *511:133 *2551:A 0
*RES
1 *2550:X *2551:A 12.96 
*END

*D_NET *532 0.0137574
*CONN
*I *2555:S I *D sky130_fd_sc_hd__mux2_1
*I *2553:S I *D sky130_fd_sc_hd__mux2_1
*I *2552:X O *D sky130_fd_sc_hd__or2_1
*CAP
1 *2555:S 0
2 *2553:S 0.00026185
3 *2552:X 0.00487318
4 *532:16 0.00513503
5 *2553:S *2553:A1 4.90227e-05
6 *532:16 *598:46 0
7 *2780:A3 *532:16 1.88656e-05
8 *187:85 *532:16 0.00109742
9 *211:150 *532:16 0
10 *212:63 *532:16 0.000871246
11 *231:101 *532:16 0.00137774
12 *411:47 *532:16 1.88656e-05
13 *500:37 *532:16 9.95691e-06
14 *511:127 *2553:S 4.41857e-05
*RES
1 *2552:X *532:16 14.7389 
2 *532:16 *2553:S 7.98 
3 *532:16 *2555:S 3.6 
*END

*D_NET *533 0.000217252
*CONN
*I *2554:A I *D sky130_fd_sc_hd__clkbuf_1
*I *2553:X O *D sky130_fd_sc_hd__mux2_1
*CAP
1 *2554:A 0.000108626
2 *2553:X 0.000108626
*RES
1 *2553:X *2554:A 4.955 
*END

*D_NET *534 0.000441908
*CONN
*I *2556:A I *D sky130_fd_sc_hd__clkbuf_1
*I *2555:X O *D sky130_fd_sc_hd__mux2_1
*CAP
1 *2556:A 0.000220954
2 *2555:X 0.000220954
*RES
1 *2555:X *2556:A 6.68 
*END

*D_NET *535 0.00459443
*CONN
*I *2560:S I *D sky130_fd_sc_hd__mux2_1
*I *2558:S I *D sky130_fd_sc_hd__mux2_1
*I *2557:X O *D sky130_fd_sc_hd__or2_1
*CAP
1 *2560:S 2.08954e-05
2 *2558:S 0.000829091
3 *2557:X 0.000702478
4 *535:6 0.00155246
5 *2558:S *2558:A1 0
6 *2558:S *2560:A1 0.000120655
7 *2558:S *2796:A1 0.000239807
8 *2558:S *3235:CLK 0.000103993
9 *2558:S *3343:A 0
10 *2558:S *591:48 0
11 *2558:S *816:12 4.40506e-05
12 *2560:S *2560:A1 0
13 *535:6 *2615:A1 8.49205e-05
14 *535:6 *2616:A 8.40213e-05
15 *535:6 *2796:A1 3.16136e-05
16 *535:6 *2796:B2 5.06989e-05
17 *535:6 *816:12 0.000178069
18 *2615:A0 *535:6 6.52265e-05
19 *2714:A2 *535:6 8.65961e-05
20 *3235:D *2558:S 5.37091e-05
21 *215:153 *535:6 0.000122331
22 *511:127 *2558:S 9.37731e-05
23 *528:67 *535:6 3.00381e-05
24 *528:87 *535:6 9.99942e-05
*RES
1 *2557:X *535:6 13.78 
2 *535:6 *2558:S 21.195 
3 *535:6 *2560:S 1.96 
*END

*D_NET *536 0.000712498
*CONN
*I *2559:A I *D sky130_fd_sc_hd__clkbuf_1
*I *2558:X O *D sky130_fd_sc_hd__mux2_1
*CAP
1 *2559:A 0.000261967
2 *2558:X 0.000261967
3 *2559:A *3231:CLK 5.83121e-06
4 *2559:A *591:48 6.5525e-05
5 *2559:A *591:72 5.21545e-05
6 *2558:A0 *2559:A 2.8185e-05
7 *3234:D *2559:A 3.68682e-05
*RES
1 *2558:X *2559:A 11.97 
*END

*D_NET *537 0.000966875
*CONN
*I *2561:A I *D sky130_fd_sc_hd__clkbuf_1
*I *2560:X O *D sky130_fd_sc_hd__mux2_1
*CAP
1 *2561:A 0.00034154
2 *2560:X 0.00034154
3 *2561:A *2558:A1 2.11084e-05
4 *2561:A *2560:A1 7.4027e-05
5 *2561:A *3316:A 0.000163199
6 *2561:A *3343:A 0
7 *511:127 *2561:A 2.54606e-05
*RES
1 *2560:X *2561:A 13.425 
*END

*D_NET *538 0.00461219
*CONN
*I *2563:S I *D sky130_fd_sc_hd__mux2_1
*I *2565:S I *D sky130_fd_sc_hd__mux2_1
*I *2562:X O *D sky130_fd_sc_hd__or2_1
*CAP
1 *2563:S 0
2 *2565:S 0.000192004
3 *2562:X 0.000968179
4 *538:16 0.00116018
5 *2565:S *2563:A1 3.32037e-05
6 *2565:S *2564:A 3.51072e-05
7 *538:16 *2563:A1 2.14569e-05
8 *538:16 *2610:A1 4.82919e-05
9 *538:16 *2610:S 1.91597e-05
10 *538:16 *2715:A1 9.52847e-05
11 *538:16 *2795:B2 3.05646e-05
12 *538:16 *3424:A 4.82919e-05
13 *538:16 *893:12 7.23602e-05
14 *2587:A *538:16 0.000125959
15 *2717:A2 *538:16 0
16 *2718:B *538:16 0.000164874
17 *2718:C *538:16 0
18 *2719:A2 *538:16 0.000595824
19 *2793:A2 *538:16 0.000270415
20 *208:61 *538:16 9.0716e-05
21 *328:137 *538:16 0.000640317
*RES
1 *2562:X *538:16 27.185 
2 *538:16 *2565:S 4.81 
3 *538:16 *2563:S 1.6 
*END

*D_NET *539 0.00133427
*CONN
*I *2564:A I *D sky130_fd_sc_hd__clkbuf_1
*I *2563:X O *D sky130_fd_sc_hd__mux2_1
*CAP
1 *2564:A 0.000489174
2 *2563:X 0.000489174
3 *2564:A *591:110 0.000143266
4 *2565:S *2564:A 3.51072e-05
5 *3236:D *2564:A 0.000177545
*RES
1 *2563:X *2564:A 15.78 
*END

*D_NET *540 0.000268131
*CONN
*I *2566:A I *D sky130_fd_sc_hd__clkbuf_1
*I *2565:X O *D sky130_fd_sc_hd__mux2_1
*CAP
1 *2566:A 0.000134066
2 *2565:X 0.000134066
*RES
1 *2565:X *2566:A 5.3 
*END

*D_NET *541 0.00333428
*CONN
*I *2570:S I *D sky130_fd_sc_hd__mux2_1
*I *2568:S I *D sky130_fd_sc_hd__mux2_1
*I *2567:Y O *D sky130_fd_sc_hd__nor2_1
*CAP
1 *2570:S 0
2 *2568:S 0.000350685
3 *2567:Y 0.000590432
4 *541:14 0.000941117
5 *2568:S *2568:A0 7.4027e-05
6 *2568:S *2569:A 0
7 *2568:S *2590:A0 7.23602e-05
8 *2568:S *2715:B2 7.87685e-05
9 *2568:S *926:10 0
10 *541:14 *2570:A0 5.05521e-05
11 *541:14 *2605:S 9.24127e-05
12 *541:14 *2791:B2 0
13 *541:14 *3345:A 0.000160536
14 *541:14 *562:10 7.36562e-05
15 *2547:A *541:14 0.000238137
16 *2557:B *541:14 4.66108e-05
17 *2570:A1 *2568:S 1.34017e-05
18 *2587:A *2568:S 3.96088e-05
19 *2590:A1 *2568:S 0.000104118
20 *2603:A0 *541:14 0
21 *2715:B1 *2568:S 0.000101992
22 *2715:B1 *541:14 1.34503e-05
23 *2793:A2 *2568:S 0.000183738
24 *2794:B1 *2568:S 0
25 *2798:A2 *541:14 0
26 *527:67 *541:14 1.91597e-05
27 *528:67 *541:14 8.95127e-05
*RES
1 *2567:Y *541:14 17.705 
2 *541:14 *2568:S 13.97 
3 *541:14 *2570:S 1.6 
*END

*D_NET *542 0.00029218
*CONN
*I *2569:A I *D sky130_fd_sc_hd__clkbuf_1
*I *2568:X O *D sky130_fd_sc_hd__mux2_1
*CAP
1 *2569:A 6.79874e-05
2 *2568:X 6.79874e-05
3 *2569:A *3254:CLK 0.000122821
4 *2569:A *926:10 3.33839e-05
5 *2568:S *2569:A 0
*RES
1 *2568:X *2569:A 4.955 
*END

*D_NET *543 0.00158481
*CONN
*I *2571:A I *D sky130_fd_sc_hd__clkbuf_1
*I *2570:X O *D sky130_fd_sc_hd__mux2_1
*CAP
1 *2571:A 0.000327605
2 *2570:X 0.000327605
3 *2547:A *2571:A 0.000311974
4 *2714:B1 *2571:A 0.000342254
5 *202:120 *2571:A 0.000275375
*RES
1 *2570:X *2571:A 15.09 
*END

*D_NET *544 0.00107835
*CONN
*I *2575:S I *D sky130_fd_sc_hd__mux2_1
*I *2573:S I *D sky130_fd_sc_hd__mux2_1
*I *2572:X O *D sky130_fd_sc_hd__or2_1
*CAP
1 *2575:S 5.77608e-05
2 *2573:S 0.000117472
3 *2572:X 0.000132688
4 *544:6 0.000307921
5 *2573:S *2574:A 0
6 *2573:S *806:14 0.000121643
7 *2575:S *2575:A1 7.22551e-05
8 *2575:S *547:10 1.37328e-05
9 *2575:S *806:14 8.08153e-06
10 *544:6 *806:14 0.0001947
11 *218:110 *2575:S 5.20968e-05
*RES
1 *2572:X *544:6 3.775 
2 *544:6 *2573:S 3.445 
3 *544:6 *2575:S 7.34 
*END

*D_NET *545 0.00138804
*CONN
*I *2574:A I *D sky130_fd_sc_hd__clkbuf_1
*I *2573:X O *D sky130_fd_sc_hd__mux2_1
*CAP
1 *2574:A 0.000532273
2 *2573:X 0.000532273
3 *2574:A *3242:CLK 3.45588e-05
4 *2574:A *3443:A 0.000148275
5 *2574:A *931:6 5.05437e-05
6 *2573:S *2574:A 0
7 *3242:D *2574:A 9.01118e-05
*RES
1 *2573:X *2574:A 12.545 
*END

*D_NET *546 0.00142771
*CONN
*I *2576:A I *D sky130_fd_sc_hd__clkbuf_1
*I *2575:X O *D sky130_fd_sc_hd__mux2_1
*CAP
1 *2576:A 0.000432952
2 *2575:X 0.000432952
3 *2576:A *2712:B2 4.77769e-05
4 *2576:A *3335:A 5.34565e-05
5 *2576:A *598:94 0.000334452
6 *2576:A *598:111 5.70961e-05
7 *2712:C1 *2576:A 6.90254e-05
*RES
1 *2575:X *2576:A 13.38 
*END

*D_NET *547 0.00397777
*CONN
*I *2578:S I *D sky130_fd_sc_hd__mux2_1
*I *2580:S I *D sky130_fd_sc_hd__mux2_1
*I *2577:X O *D sky130_fd_sc_hd__or2_1
*CAP
1 *2578:S 0.000468361
2 *2580:S 0.000122454
3 *2577:X 0.000433419
4 *547:10 0.00102423
5 *2578:S *2712:A1 0.000194812
6 *2578:S *2795:A1 7.36562e-05
7 *2578:S *807:20 0.000199033
8 *2580:S *2795:A1 3.68784e-05
9 *547:10 *2712:B2 3.78034e-06
10 *2575:S *547:10 1.37328e-05
11 *2712:A2 *547:10 4.30176e-06
12 *2719:A1 *547:10 3.00381e-05
13 *2719:B1 *547:10 3.38041e-05
14 *2720:D1 *547:10 8.65961e-05
15 *2738:A2 *547:10 7.03901e-06
16 *2797:A2 *2580:S 0.000304481
17 *2797:A2 *547:10 1.1392e-05
18 *211:150 *547:10 3.47678e-05
19 *218:110 *2578:S 0.000328021
20 *218:110 *2580:S 0.000370671
21 *511:101 *2578:S 0.000196295
*RES
1 *2577:X *547:10 8.895 
2 *547:10 *2580:S 8.04 
3 *547:10 *2578:S 14.19 
*END

*D_NET *548 0.000437103
*CONN
*I *2579:A I *D sky130_fd_sc_hd__clkbuf_1
*I *2578:X O *D sky130_fd_sc_hd__mux2_1
*CAP
1 *2579:A 0.000118269
2 *2578:X 0.000118269
3 *511:116 *2579:A 0.000200565
*RES
1 *2578:X *2579:A 5.645 
*END

*D_NET *549 0.000800274
*CONN
*I *2581:A I *D sky130_fd_sc_hd__clkbuf_1
*I *2580:X O *D sky130_fd_sc_hd__mux2_1
*CAP
1 *2581:A 0.000273784
2 *2580:X 0.000273784
3 *2581:A *3243:CLK 5.76951e-06
4 *2581:A *598:94 5.60609e-05
5 *2581:A *598:111 1.06326e-05
6 *3243:D *2581:A 0.00010992
7 *500:26 *2581:A 7.03219e-05
*RES
1 *2580:X *2581:A 11.565 
*END

*D_NET *550 0.00190779
*CONN
*I *2585:S I *D sky130_fd_sc_hd__mux2_1
*I *2583:S I *D sky130_fd_sc_hd__mux2_1
*I *2582:X O *D sky130_fd_sc_hd__or3_1
*CAP
1 *2585:S 0
2 *2583:S 0.000239649
3 *2582:X 0.000245242
4 *550:8 0.000484892
5 *2583:S *606:58 0.000262715
6 *550:8 *3396:A 0.000193128
7 *328:58 *2583:S 0.00026615
8 *370:53 *2583:S 0.00012398
9 *370:53 *550:8 9.20283e-05
10 *403:22 *2583:S 0
*RES
1 *2582:X *550:8 5.515 
2 *550:8 *2583:S 11.93 
3 *550:8 *2585:S 1.6 
*END

*D_NET *551 0.000507663
*CONN
*I *2584:A I *D sky130_fd_sc_hd__clkbuf_1
*I *2583:X O *D sky130_fd_sc_hd__mux2_1
*CAP
1 *2584:A 0.000185036
2 *2583:X 0.000185036
3 *2584:A *3244:CLK 0
4 *2908:B *2584:A 9.86546e-05
5 *3244:D *2584:A 3.89366e-05
6 *369:77 *2584:A 0
*RES
1 *2583:X *2584:A 10.62 
*END

*D_NET *552 0.00062611
*CONN
*I *2586:A I *D sky130_fd_sc_hd__clkbuf_1
*I *2585:X O *D sky130_fd_sc_hd__mux2_1
*CAP
1 *2586:A 0.000149843
2 *2585:X 0.000149843
3 *2586:A *606:64 0
4 *3245:D *2586:A 4.66037e-05
5 *370:32 *2586:A 0.00027982
*RES
1 *2585:X *2586:A 10.62 
*END

*D_NET *553 0.00163488
*CONN
*I *2590:S I *D sky130_fd_sc_hd__mux2_1
*I *2588:S I *D sky130_fd_sc_hd__mux2_1
*I *2587:Y O *D sky130_fd_sc_hd__nor2_1
*CAP
1 *2590:S 0.000179942
2 *2588:S 0.000408864
3 *2587:Y 6.9158e-05
4 *553:8 0.000657964
5 *2588:S *2568:A0 0
6 *2588:S *2588:A0 2.88357e-05
7 *2588:S *2589:A 0
8 *2588:S *926:10 6.28765e-05
9 *2590:S *2590:A0 5.30673e-05
10 *2590:S *2591:A 1.83847e-05
11 *553:8 *2589:A 0
12 *553:8 *811:12 3.86607e-05
13 *553:8 *926:10 7.81954e-05
14 *3238:D *2588:S 3.89366e-05
*RES
1 *2587:Y *553:8 5.235 
2 *553:8 *2588:S 10.02 
3 *553:8 *2590:S 6.84 
*END

*D_NET *554 0.000907898
*CONN
*I *2589:A I *D sky130_fd_sc_hd__clkbuf_1
*I *2588:X O *D sky130_fd_sc_hd__mux2_1
*CAP
1 *2589:A 0.00037339
2 *2588:X 0.00037339
3 *2589:A *2591:A 0.000161118
4 *2588:S *2589:A 0
5 *3246:D *2589:A 0
6 *553:8 *2589:A 0
*RES
1 *2588:X *2589:A 13.365 
*END

*D_NET *555 0.00198797
*CONN
*I *2591:A I *D sky130_fd_sc_hd__clkbuf_1
*I *2590:X O *D sky130_fd_sc_hd__mux2_1
*CAP
1 *2591:A 0.00067399
2 *2590:X 0.00067399
3 *2591:A *3254:CLK 0.000178148
4 *2591:A *591:110 8.62445e-06
5 *2591:A *811:12 1.3582e-05
6 *2589:A *2591:A 0.000161118
7 *2590:S *2591:A 1.83847e-05
8 *3236:D *2591:A 3.03989e-05
9 *3246:D *2591:A 6.508e-05
10 *3247:D *2591:A 0.000164656
*RES
1 *2590:X *2591:A 17.175 
*END

*D_NET *556 0.00218983
*CONN
*I *2593:S I *D sky130_fd_sc_hd__mux2_1
*I *2595:S I *D sky130_fd_sc_hd__mux2_1
*I *2592:X O *D sky130_fd_sc_hd__or2_1
*CAP
1 *2593:S 0
2 *2595:S 0.0002997
3 *2592:X 7.97521e-05
4 *556:6 0.000379452
5 *2595:S *2593:A1 1.56428e-05
6 *2595:S *2595:A1 0.000477978
7 *2595:S *2794:A2 7.34644e-05
8 *2595:S *923:10 0
9 *556:6 *2593:A1 2.59926e-05
10 *556:6 *3333:A 0.000272984
11 *2547:A *2595:S 4.66108e-05
12 *2547:A *556:6 0.000423126
13 *2592:B *556:6 4.1527e-05
14 *2608:A0 *2595:S 0
15 *2830:A *2595:S 0
16 *208:61 *2595:S 5.36001e-05
17 *316:59 *2595:S 0
*RES
1 *2592:X *556:6 5.5 
2 *556:6 *2595:S 12.53 
3 *556:6 *2593:S 1.6 
*END

*D_NET *557 0.000421354
*CONN
*I *2594:A I *D sky130_fd_sc_hd__clkbuf_1
*I *2593:X O *D sky130_fd_sc_hd__mux2_1
*CAP
1 *2594:A 0.000124328
2 *2593:X 0.000124328
3 *2547:A *2594:A 0.000145184
4 *3248:D *2594:A 2.75145e-05
*RES
1 *2593:X *2594:A 5.99 
*END

*D_NET *558 0.00107188
*CONN
*I *2596:A I *D sky130_fd_sc_hd__clkbuf_1
*I *2595:X O *D sky130_fd_sc_hd__mux2_1
*CAP
1 *2596:A 0.000375552
2 *2595:X 0.000375552
3 *2596:A *599:18 5.0557e-05
4 *2596:A *599:24 0
5 *2607:B *2596:A 4.38278e-05
6 *2608:A0 *2596:A 4.61744e-05
7 *3248:D *2596:A 0.000133748
8 *3249:D *2596:A 2.19562e-06
9 *316:59 *2596:A 4.4277e-05
*RES
1 *2595:X *2596:A 13.71 
*END

*D_NET *559 0.00308013
*CONN
*I *2598:S I *D sky130_fd_sc_hd__mux2_1
*I *2600:S I *D sky130_fd_sc_hd__mux2_1
*I *2597:X O *D sky130_fd_sc_hd__or2_1
*CAP
1 *2598:S 0
2 *2600:S 0.00045646
3 *2597:X 0.000144643
4 *559:10 0.000601102
5 *2600:S *2601:A 0.00016596
6 *2600:S *3294:A 4.2145e-05
7 *2600:S *590:54 0.000112869
8 *2600:S *590:56 0.000216003
9 *2600:S *590:66 6.8597e-05
10 *2597:A *559:10 4.66108e-05
11 *2925:B *2600:S 0.000750435
12 *2925:B *559:10 7.36562e-05
13 *215:147 *559:10 6.29663e-05
14 *316:57 *2600:S 0.000117984
15 *316:98 *2600:S 3.05373e-05
16 *316:98 *559:10 2.68721e-05
17 *316:121 *559:10 4.94326e-05
18 *328:84 *2600:S 3.69766e-05
19 *391:64 *2600:S 7.68851e-05
*RES
1 *2597:X *559:10 6.375 
2 *559:10 *2600:S 10.0933 
3 *559:10 *2598:S 3.6 
*END

*D_NET *560 0.00116397
*CONN
*I *2599:A I *D sky130_fd_sc_hd__clkbuf_1
*I *2598:X O *D sky130_fd_sc_hd__mux2_1
*CAP
1 *2599:A 0.000338672
2 *2598:X 0.000338672
3 *2599:A *2750:A1 0.000139331
4 *3251:D *2599:A 0.0001111
5 *299:34 *2599:A 0.000236197
6 *316:57 *2599:A 0
*RES
1 *2598:X *2599:A 13.59 
*END

*D_NET *561 0.00290909
*CONN
*I *2601:A I *D sky130_fd_sc_hd__clkbuf_1
*I *2600:X O *D sky130_fd_sc_hd__mux2_1
*CAP
1 *2601:A 0.000929512
2 *2600:X 0.000929512
3 *2601:A *3250:CLK 0.000156882
4 *2601:A *3294:A 1.01661e-05
5 *2601:A *914:12 0.000383657
6 *2600:S *2601:A 0.00016596
7 *2925:B *2601:A 0.000210599
8 *3250:D *2601:A 1.90762e-05
9 *181:61 *2601:A 3.38168e-05
10 *316:57 *2601:A 3.55813e-05
11 *528:67 *2601:A 3.43325e-05
*RES
1 *2600:X *2601:A 21.12 
*END

*D_NET *562 0.00160197
*CONN
*I *2603:S I *D sky130_fd_sc_hd__mux2_1
*I *2605:S I *D sky130_fd_sc_hd__mux2_1
*I *2602:X O *D sky130_fd_sc_hd__or2_1
*CAP
1 *2603:S 0
2 *2605:S 0.00020661
3 *2602:X 0.000141915
4 *562:10 0.000348525
5 *2605:S *2791:B2 6.9451e-05
6 *2605:S *893:12 0.000112371
7 *562:10 *2791:B2 5.00526e-05
8 *328:102 *2605:S 3.83194e-05
9 *328:113 *2605:S 0.000345436
10 *528:87 *562:10 0.000123225
11 *541:14 *2605:S 9.24127e-05
12 *541:14 *562:10 7.36562e-05
*RES
1 *2602:X *562:10 6.375 
2 *562:10 *2605:S 9.39 
3 *562:10 *2603:S 3.6 
*END

*D_NET *563 0.000718879
*CONN
*I *2604:A I *D sky130_fd_sc_hd__clkbuf_1
*I *2603:X O *D sky130_fd_sc_hd__mux2_1
*CAP
1 *2604:A 0.000259303
2 *2603:X 0.000259303
3 *2604:A *568:10 4.82863e-05
4 *2612:A *2604:A 2.30292e-05
5 *528:87 *2604:A 4.66108e-05
6 *528:93 *2604:A 8.23457e-05
*RES
1 *2603:X *2604:A 7.13 
*END

*D_NET *564 0.00148192
*CONN
*I *2606:A I *D sky130_fd_sc_hd__clkbuf_1
*I *2605:X O *D sky130_fd_sc_hd__mux2_1
*CAP
1 *2606:A 0.000536
2 *2605:X 0.000536
3 *2606:A *3345:A 7.23533e-05
4 *2606:A *892:8 3.64975e-05
5 *2547:B *2606:A 9.35556e-05
6 *2718:A *2606:A 2.04648e-05
7 *2798:A2 *2606:A 4.05358e-05
8 *3253:D *2606:A 0.000146512
*RES
1 *2605:X *2606:A 16.14 
*END

*D_NET *565 0.00178171
*CONN
*I *2608:S I *D sky130_fd_sc_hd__mux2_1
*I *2610:S I *D sky130_fd_sc_hd__mux2_1
*I *2607:X O *D sky130_fd_sc_hd__or2_1
*CAP
1 *2608:S 0.000410136
2 *2610:S 5.0796e-05
3 *2607:X 6.24505e-05
4 *565:6 0.000523382
5 *2608:S *2611:A 0
6 *2608:S *3414:A 0
7 *2610:S *2610:A1 4.66108e-05
8 *565:6 *2610:A1 0.000201508
9 *2718:C *2608:S 0
10 *2793:A2 *2610:S 0
11 *208:61 *2610:S 8.23457e-05
12 *208:61 *565:6 0.000262996
13 *328:137 *2608:S 4.9968e-05
14 *328:149 *2608:S 7.23533e-05
15 *538:16 *2610:S 1.91597e-05
*RES
1 *2607:X *565:6 4.12 
2 *565:6 *2610:S 2.755 
3 *565:6 *2608:S 11.825 
*END

*D_NET *566 0.00085995
*CONN
*I *2609:A I *D sky130_fd_sc_hd__clkbuf_1
*I *2608:X O *D sky130_fd_sc_hd__mux2_1
*CAP
1 *2609:A 0.000218646
2 *2608:X 0.000218646
3 *2609:A *2608:A1 4.89395e-05
4 *2608:A0 *2609:A 0.000373719
*RES
1 *2608:X *2609:A 7.715 
*END

*D_NET *567 0.00086825
*CONN
*I *2611:A I *D sky130_fd_sc_hd__clkbuf_1
*I *2610:X O *D sky130_fd_sc_hd__mux2_1
*CAP
1 *2611:A 0.000228245
2 *2610:X 0.000228245
3 *2611:A *3255:CLK 8.40213e-05
4 *2608:S *2611:A 0
5 *2718:C *2611:A 4.05358e-05
6 *3255:D *2611:A 9.05753e-05
7 *328:149 *2611:A 0.000196628
*RES
1 *2610:X *2611:A 12.72 
*END

*D_NET *568 0.0022123
*CONN
*I *2615:S I *D sky130_fd_sc_hd__mux2_1
*I *2613:S I *D sky130_fd_sc_hd__mux2_1
*I *2612:X O *D sky130_fd_sc_hd__or2_1
*CAP
1 *2615:S 4.51682e-05
2 *2613:S 0.000420681
3 *2612:X 0.000168326
4 *568:10 0.000634175
5 *2613:S *2613:A1 9.29545e-05
6 *2613:S *2614:A 0.000231818
7 *2613:S *2615:A1 5.11729e-05
8 *2613:S *2792:A2 0.000136531
9 *2613:S *591:12 0
10 *2613:S *848:14 4.05358e-05
11 *568:10 *2615:A1 9.82856e-06
12 *568:10 *591:12 0
13 *2580:A0 *2613:S 0.000154197
14 *2580:A0 *2615:S 1.17036e-05
15 *2580:A0 *568:10 4.24292e-06
16 *2604:A *568:10 4.82863e-05
17 *2613:A0 *2613:S 8.41384e-05
18 *212:77 *2613:S 1.91597e-05
19 *328:113 *568:10 5.93844e-05
20 *528:87 *568:10 0
*RES
1 *2612:X *568:10 6.3225 
2 *568:10 *2613:S 13.6875 
3 *568:10 *2615:S 4.2825 
*END

*D_NET *569 0.00165704
*CONN
*I *2614:A I *D sky130_fd_sc_hd__clkbuf_1
*I *2613:X O *D sky130_fd_sc_hd__mux2_1
*CAP
1 *2614:A 0.00049326
2 *2613:X 0.00049326
3 *2614:A *2711:B2 8.7152e-06
4 *2614:A *2792:A2 0.000342601
5 *2614:A *3347:A 7.1624e-05
6 *2614:A *598:46 0
7 *2613:S *2614:A 0.000231818
8 *197:54 *2614:A 1.57575e-05
*RES
1 *2613:X *2614:A 16.575 
*END

*D_NET *570 0.00056412
*CONN
*I *2616:A I *D sky130_fd_sc_hd__clkbuf_1
*I *2615:X O *D sky130_fd_sc_hd__mux2_1
*CAP
1 *2616:A 9.99708e-05
2 *2615:X 9.99708e-05
3 *2612:A *2616:A 0.000139245
4 *202:120 *2616:A 0.000140912
5 *535:6 *2616:A 8.40213e-05
*RES
1 *2615:X *2616:A 9.63 
*END

*D_NET *571 0.00229127
*CONN
*I *2618:S I *D sky130_fd_sc_hd__mux2_1
*I *2620:S I *D sky130_fd_sc_hd__mux2_1
*I *2617:X O *D sky130_fd_sc_hd__or2_1
*CAP
1 *2618:S 0.000425396
2 *2620:S 5.52441e-05
3 *2617:X 0.000264783
4 *571:10 0.000745423
5 *2618:S *2618:A1 5.79135e-05
6 *2618:S *3258:CLK 8.96417e-05
7 *2618:S *759:47 7.22384e-05
8 *2620:S *3259:CLK 0.000131871
9 *571:10 *3259:CLK 6.56614e-05
10 *2618:A0 *2618:S 4.60123e-05
11 *3258:D *2618:S 7.32693e-05
12 *3259:D *571:10 5.5108e-05
13 *316:39 *2618:S 5.83121e-06
14 *415:41 *2620:S 7.19937e-05
15 *415:41 *571:10 0.000130887
*RES
1 *2617:X *571:10 7.92 
2 *571:10 *2620:S 5.235 
3 *571:10 *2618:S 9.96 
*END

*D_NET *572 0.000272698
*CONN
*I *2619:A I *D sky130_fd_sc_hd__clkbuf_1
*I *2618:X O *D sky130_fd_sc_hd__mux2_1
*CAP
1 *2619:A 6.49248e-05
2 *2618:X 6.49248e-05
3 *2546:B *2619:A 7.14241e-05
4 *2625:A0 *2619:A 0
5 *2949:B *2619:A 7.14241e-05
*RES
1 *2618:X *2619:A 8.685 
*END

*D_NET *573 0.0018621
*CONN
*I *2621:A I *D sky130_fd_sc_hd__clkbuf_1
*I *2620:X O *D sky130_fd_sc_hd__mux2_1
*CAP
1 *2621:A 0.000585436
2 *2620:X 0.000585436
3 *2621:A *2748:A 7.10044e-05
4 *2621:A *3258:CLK 0
5 *2621:A *759:47 7.31467e-05
6 *2621:A *759:70 0.000106476
7 *2546:B *2621:A 0
8 *2780:B1 *2621:A 0.000132366
9 *2949:B *2621:A 1.27504e-05
10 *3258:D *2621:A 9.50342e-06
11 *316:33 *2621:A 0.000152055
12 *322:55 *2621:A 4.72463e-05
13 *328:18 *2621:A 6.87295e-05
14 *328:58 *2621:A 1.79536e-05
*RES
1 *2620:X *2621:A 21.055 
*END

*D_NET *574 0.00192643
*CONN
*I *2625:S I *D sky130_fd_sc_hd__mux2_1
*I *2623:S I *D sky130_fd_sc_hd__mux2_1
*I *2622:X O *D sky130_fd_sc_hd__or2_1
*CAP
1 *2625:S 0.000157244
2 *2623:S 0
3 *2622:X 0.000152289
4 *574:14 0.000309533
5 *2625:S *2626:A 5.74515e-05
6 *574:14 *2626:A 0.000157378
7 *574:14 *2808:B1 4.77719e-05
8 *2808:A2 *2625:S 0.000376773
9 *2949:B *574:14 9.02719e-05
10 *3271:D *2625:S 7.73574e-06
11 *3271:D *574:14 9.95393e-05
12 *316:14 *2625:S 0.000410785
13 *316:33 *2625:S 5.96587e-05
*RES
1 *2622:X *574:14 9.26 
2 *574:14 *2623:S 1.6 
3 *574:14 *2625:S 7.105 
*END

*D_NET *575 0.00187116
*CONN
*I *2624:A I *D sky130_fd_sc_hd__clkbuf_1
*I *2623:X O *D sky130_fd_sc_hd__mux2_1
*CAP
1 *2624:A 0.000318237
2 *2623:X 0.000318237
3 *2808:A2 *2624:A 0.00019391
4 *3260:D *2624:A 0.000273695
5 *211:94 *2624:A 1.01661e-05
6 *325:16 *2624:A 8.65905e-05
7 *350:106 *2624:A 0.000554541
8 *356:14 *2624:A 0.000115782
*RES
1 *2623:X *2624:A 15.54 
*END

*D_NET *576 0.00183274
*CONN
*I *2626:A I *D sky130_fd_sc_hd__clkbuf_1
*I *2625:X O *D sky130_fd_sc_hd__mux2_1
*CAP
1 *2626:A 0.000332999
2 *2625:X 0.000332999
3 *2626:A *2808:A1 0.000240106
4 *2626:A *3258:CLK 1.83975e-05
5 *2626:A *3259:CLK 7.96104e-06
6 *2625:S *2626:A 5.74515e-05
7 *2808:A2 *2626:A 0.000194278
8 *2949:B *2626:A 0.000166346
9 *211:94 *2626:A 8.00712e-05
10 *218:55 *2626:A 8.00712e-05
11 *328:18 *2626:A 0.000164679
12 *574:14 *2626:A 0.000157378
*RES
1 *2625:X *2626:A 17.8826 
*END

*D_NET *577 0.000138693
*CONN
*I *2628:A I *D sky130_fd_sc_hd__clkbuf_1
*I *2627:X O *D sky130_fd_sc_hd__clkbuf_1
*CAP
1 *2628:A 6.08098e-05
2 *2627:X 6.08098e-05
3 *2628:A *2627:A 5.4155e-06
4 *2628:A *2636:C1 1.16578e-05
*RES
1 *2627:X *2628:A 4.265 
*END

*D_NET *578 0.000609435
*CONN
*I *2631:A I *D sky130_fd_sc_hd__clkbuf_1
*I *2630:X O *D sky130_fd_sc_hd__mux2_1
*CAP
1 *2631:A 0.000215782
2 *2630:X 0.000215782
3 *2631:A *2817:B 0
4 *2631:A *592:79 1.08758e-05
5 *2631:A *592:88 4.24164e-05
6 *2629:B *2631:A 5.05521e-05
7 *3272:D *2631:A 7.4027e-05
8 *359:99 *2631:A 0
*RES
1 *2630:X *2631:A 10.995 
*END

*D_NET *579 0.00150223
*CONN
*I *2633:B1 I *D sky130_fd_sc_hd__a22o_1
*I *2632:Y O *D sky130_fd_sc_hd__o21ai_1
*CAP
1 *2633:B1 0.000194553
2 *2632:Y 0.000194553
3 *2633:B1 *2811:A 0
4 *2633:B1 *2811:B 0.000527801
5 *2632:A2 *2633:B1 0.000343348
6 *2632:B1 *2633:B1 4.82863e-05
7 *2633:A2 *2633:B1 2.61042e-05
8 *2814:A3 *2633:B1 8.53113e-06
9 *2814:B1 *2633:B1 0.000110767
10 *310:16 *2633:B1 4.82863e-05
*RES
1 *2632:Y *2633:B1 13.44 
*END

*D_NET *580 0.000603724
*CONN
*I *2636:A2 I *D sky130_fd_sc_hd__a221o_1
*I *2634:Y O *D sky130_fd_sc_hd__inv_2
*CAP
1 *2636:A2 0.000155067
2 *2634:Y 0.000155067
3 *2636:A2 *2636:A1 0.000144047
4 *2636:A2 *3277:D 4.05358e-05
5 *2636:A2 *781:8 7.89689e-05
6 *3420:A *2636:A2 3.00381e-05
*RES
1 *2634:Y *2636:A2 10.8375 
*END

*D_NET *581 0.000391402
*CONN
*I *2636:B2 I *D sky130_fd_sc_hd__a221o_1
*I *2635:Y O *D sky130_fd_sc_hd__inv_2
*CAP
1 *2636:B2 0.000135908
2 *2635:Y 0.000135908
3 *2636:B2 *2636:C1 1.20741e-05
4 *2636:B2 *2637:A 9.82856e-06
5 *2636:B2 *619:50 3.47668e-05
6 *2636:B2 *787:16 2.83578e-05
7 *2666:A *2636:B2 3.45588e-05
*RES
1 *2635:Y *2636:B2 9.48375 
*END

*D_NET *582 0.000149399
*CONN
*I *2638:A1 I *D sky130_fd_sc_hd__mux2_1
*I *2637:Y O *D sky130_fd_sc_hd__inv_2
*CAP
1 *2638:A1 3.88874e-05
2 *2637:Y 3.88874e-05
3 *2638:A1 *2638:A0 7.1624e-05
*RES
1 *2637:Y *2638:A1 8.07 
*END

*D_NET *583 0.000906176
*CONN
*I *2639:A I *D sky130_fd_sc_hd__clkbuf_1
*I *2638:X O *D sky130_fd_sc_hd__mux2_1
*CAP
1 *2639:A 0.000280889
2 *2638:X 0.000280889
3 *2639:A *3135:RESET_B 4.70919e-05
4 *2639:A *3278:CLK 1.43521e-05
5 *2639:A *3303:A 0.000143266
6 *2639:A *630:6 4.66826e-05
7 *2639:A *630:36 4.47125e-05
8 *2638:S *2639:A 4.82919e-05
9 *3282:D *2639:A 0
*RES
1 *2638:X *2639:A 11.7 
*END

*D_NET *584 0.000662795
*CONN
*I *2643:A1 I *D sky130_fd_sc_hd__a21oi_1
*I *2642:A1 I *D sky130_fd_sc_hd__o21ai_1
*I *2640:Y O *D sky130_fd_sc_hd__inv_2
*CAP
1 *2643:A1 0.000208687
2 *2642:A1 8.80463e-05
3 *2640:Y 0
4 *584:4 0.000296733
5 *2642:A1 *2640:A 3.95724e-05
6 *2643:A1 *2643:B1 0
7 *2643:A1 *2644:A1 2.97561e-05
8 *2643:A1 *682:20 0
*RES
1 *2640:Y *584:4 1.6 
2 *584:4 *2642:A1 3.37 
3 *584:4 *2643:A1 8.375 
*END

*D_NET *585 0.000355815
*CONN
*I *2642:B1 I *D sky130_fd_sc_hd__o21ai_1
*I *2641:Y O *D sky130_fd_sc_hd__xnor2_1
*CAP
1 *2642:B1 8.5447e-05
2 *2641:Y 8.5447e-05
3 *2642:B1 *2641:A 1.61831e-05
4 *2642:B1 *2641:B 7.4027e-05
5 *2642:B1 *2643:B1 7.81914e-05
6 *2642:B1 *592:12 1.65192e-05
*RES
1 *2641:Y *2642:B1 9.03 
*END

*D_NET *586 0.000784948
*CONN
*I *2643:B1 I *D sky130_fd_sc_hd__a21oi_1
*I *2642:Y O *D sky130_fd_sc_hd__o21ai_1
*CAP
1 *2643:B1 0.000270328
2 *2642:Y 0.000270328
3 *2643:B1 *2641:A 4.82863e-05
4 *2642:B1 *2643:B1 7.81914e-05
5 *2643:A1 *2643:B1 0
6 *2643:A2 *2643:B1 0.000117814
7 *315:28 *2643:B1 0
*RES
1 *2642:Y *2643:B1 12.15 
*END

*D_NET *587 0.00150333
*CONN
*I *2644:A1 I *D sky130_fd_sc_hd__mux2_1
*I *2643:Y O *D sky130_fd_sc_hd__a21oi_1
*CAP
1 *2644:A1 0.000688575
2 *2643:Y 0.000688575
3 *2644:A1 *2641:A 0
4 *2644:A1 *2644:S 1.33205e-05
5 *2644:A1 *682:20 0
6 *2644:A1 *796:12 8.31082e-05
7 *2643:A1 *2644:A1 2.97561e-05
*RES
1 *2643:Y *2644:A1 15.405 
*END

*D_NET *588 0.00038068
*CONN
*I *2645:A I *D sky130_fd_sc_hd__clkbuf_1
*I *2644:X O *D sky130_fd_sc_hd__mux2_1
*CAP
1 *2645:A 9.77869e-05
2 *2644:X 9.77869e-05
3 *2645:A *2644:A0 0.000160115
4 *2645:A *3277:CLK 2.49909e-05
*RES
1 *2644:X *2645:A 5.3 
*END

*D_NET *589 0.00151106
*CONN
*I *3134:D I *D sky130_fd_sc_hd__dfrtp_1
*I *2814:X O *D sky130_fd_sc_hd__a32o_1
*CAP
1 *3134:D 0.000508955
2 *2814:X 0.000508955
3 *3134:D *2667:A 0
4 *3134:D *3134:RESET_B 1.95248e-05
5 *3134:D *3274:RESET_B 2.75229e-05
6 *3134:D *3275:RESET_B 0
7 *3134:D *596:16 3.00381e-05
8 *3134:D *596:51 0.000256734
9 *3134:D *619:8 0.000159324
10 *2632:B1 *3134:D 0
*RES
1 *2814:X *3134:D 16.605 
*END

*D_NET *590 0.0501097
*CONN
*I *3292:A I *D sky130_fd_sc_hd__clkbuf_8
*I *3291:A I *D sky130_fd_sc_hd__clkbuf_8
*I *3288:A I *D sky130_fd_sc_hd__clkbuf_8
*I *3287:A I *D sky130_fd_sc_hd__clkbuf_8
*I *3290:A I *D sky130_fd_sc_hd__clkbuf_8
*I *3299:A I *D sky130_fd_sc_hd__clkbuf_8
*I *3298:A I *D sky130_fd_sc_hd__clkbuf_8
*I *3297:A I *D sky130_fd_sc_hd__clkbuf_8
*I *3296:A I *D sky130_fd_sc_hd__clkbuf_8
*I *3289:A I *D sky130_fd_sc_hd__clkbuf_8
*I *3295:A I *D sky130_fd_sc_hd__clkbuf_8
*I *3294:A I *D sky130_fd_sc_hd__clkbuf_8
*I *3286:A I *D sky130_fd_sc_hd__clkbuf_8
*I *3293:A I *D sky130_fd_sc_hd__clkbuf_8
*I *3300:A I *D sky130_fd_sc_hd__clkbuf_8
*I *3301:A I *D sky130_fd_sc_hd__clkbuf_8
*I *3285:X O *D sky130_fd_sc_hd__clkbuf_16
*CAP
1 *3292:A 0.00028822
2 *3291:A 3.37454e-05
3 *3288:A 2.82438e-05
4 *3287:A 3.18738e-05
5 *3290:A 0.000735495
6 *3299:A 0.000270469
7 *3298:A 2.60786e-05
8 *3297:A 0
9 *3296:A 0.000312988
10 *3289:A 0
11 *3295:A 2.64794e-05
12 *3294:A 0.000254519
13 *3286:A 0.000152643
14 *3293:A 0
15 *3300:A 0.000959061
16 *3301:A 5.82404e-05
17 *3285:X 0.000241655
18 *590:242 0.000409544
19 *590:226 0.00151653
20 *590:222 0.00307174
21 *590:181 0.00039735
22 *590:159 0.00189577
23 *590:145 0.00466597
24 *590:135 0.00380625
25 *590:124 0.00148241
26 *590:112 0.00356416
27 *590:66 0.00119232
28 *590:56 0.00146247
29 *590:54 0.00183305
30 *590:22 0.00134211
31 *590:18 0.00402719
32 *590:14 0.00294811
33 *3286:A *2791:A1 0.000106702
34 *3286:A *2791:B2 0.000131401
35 *3290:A *3131:CLK 0.000230367
36 *3290:A *607:33 0.000292221
37 *3292:A *3171:CLK 0
38 *3292:A *3268:D 0.000165076
39 *3292:A *597:8 2.75229e-05
40 *3292:A *597:12 0
41 *3292:A *774:64 7.12809e-05
42 *3294:A *2736:A1 5.78621e-05
43 *3294:A *2736:B2 0.000103545
44 *3295:A *600:8 4.66108e-05
45 *3296:A *601:121 4.77807e-05
46 *3299:A *2765:B2 2.61011e-05
47 *3300:A *605:16 0.000122797
48 *590:14 *825:14 6.86947e-05
49 *590:18 *748:28 6.60925e-05
50 *590:54 *2750:A1 0.0002531
51 *590:66 *2791:B2 0.000191527
52 *590:222 *3304:A 0.000476158
53 *590:226 *3267:CLK 0.000179015
54 *590:226 *3268:D 0.00010605
55 *590:226 *3268:RESET_B 0
56 *590:226 *3270:RESET_B 0
57 *590:226 *3274:D 0
58 *590:226 *3274:RESET_B 0
59 *590:226 *593:10 0
60 *590:226 *593:57 0
61 *590:226 *596:20 0.000179235
62 *590:226 *641:33 0
63 *590:226 *641:65 0
64 *590:226 *679:8 0
65 *590:242 *3171:CLK 0
66 *590:242 *3268:D 9.62779e-05
67 *2540:B *590:124 3.79291e-05
68 *2557:A *590:54 0.00156544
69 *2557:A *590:56 0.000296938
70 *2557:A *590:66 0.0010066
71 *2580:A0 *3286:A 0.00010117
72 *2600:S *3294:A 4.2145e-05
73 *2600:S *590:54 0.000112869
74 *2600:S *590:56 0.000216003
75 *2600:S *590:66 6.8597e-05
76 *2601:A *3294:A 1.01661e-05
77 *2602:A *590:66 6.31967e-05
78 *2752:A *3301:A 2.05571e-05
79 *2753:B1 *590:54 0.000280363
80 *2767:A2 *3299:A 9.22294e-06
81 *2767:A2 *590:181 0
82 *2792:B1 *3286:A 0
83 *2797:C1 *3286:A 0
84 *2797:C1 *590:66 0
85 *2838:B1_N *3292:A 0
86 *2844:A1_N *3290:A 5.83121e-06
87 *2845:A1 *3290:A 0.000119762
88 *2865:B *3290:A 3.59784e-05
89 *2925:B *590:54 0.000198061
90 *2948:A *3290:A 0
91 *2955:B *3300:A 4.66108e-05
92 *2965:A *3298:A 0.000121019
93 *3008:A1 *3296:A 9.2986e-05
94 *3037:A *590:145 6.82276e-05
95 *3050:A *590:159 0.000150959
96 *3060:A *3290:A 2.78131e-05
97 *3060:A *590:145 0
98 *3070:A *590:145 0.000254489
99 *3070:A *590:159 0.00130688
100 *3113:S *590:14 1.93765e-05
101 *3167:D *590:145 0.000177149
102 *176:51 *590:124 0.000152524
103 *176:51 *590:135 0.000133292
104 *181:24 *3299:A 0
105 *181:61 *3294:A 0.000100193
106 *183:38 *590:159 5.20496e-06
107 *187:43 *590:18 0.000243962
108 *187:53 *3300:A 0
109 *187:53 *3301:A 0
110 *187:53 *590:18 0.000210726
111 *187:53 *590:22 0.000223562
112 *197:143 *3295:A 1.7635e-05
113 *207:94 *3298:A 0.000121019
114 *208:26 *590:145 4.21127e-05
115 *208:120 *590:145 0
116 *208:120 *590:159 0
117 *211:35 *590:222 0
118 *218:24 *590:14 0
119 *218:24 *590:112 0
120 *218:144 *3296:A 0.000222936
121 *316:57 *3294:A 0
122 *321:16 *3290:A 0.000135878
123 *321:16 *590:145 9.51586e-05
124 *328:18 *3300:A 0.000221299
125 *330:18 *3292:A 0
126 *334:8 *3292:A 3.68682e-05
127 *345:29 *3290:A 0.000349442
128 *345:29 *590:145 0.000292227
129 *358:67 *3301:A 1.88602e-05
130 *358:67 *590:14 8.41015e-06
131 *361:33 *3290:A 2.31305e-06
132 *371:12 *590:145 0.000225675
133 *407:22 *590:124 6.83077e-06
134 *415:31 *590:124 0
135 *415:31 *590:135 0
136 *419:43 *590:112 0
137 *419:43 *590:222 0
138 *421:49 *3299:A 0.000140151
139 *421:49 *590:181 0.000146768
140 *430:46 *590:159 0
141 *442:27 *3296:A 0
142 *442:42 *3296:A 0
143 *445:88 *590:159 7.48995e-05
144 *474:55 *590:159 8.40269e-05
145 *474:59 *590:159 4.31873e-05
146 *483:10 *590:159 4.99619e-05
147 *511:70 *590:14 0.000119866
148 *528:47 *3295:A 4.82919e-05
*RES
1 *3285:X *590:14 5.83097 
2 *590:14 *590:18 4.06947 
3 *590:18 *590:22 1.48547 
4 *590:22 *3301:A 4.39963 
5 *590:22 *3300:A 10.8952 
6 *590:18 *590:54 4.471 
7 *590:54 *590:56 0.6498 
8 *590:56 *590:66 5.0411 
9 *590:66 *3293:A 3.6 
10 *590:66 *3286:A 7.53 
11 *590:56 *3294:A 7.83877 
12 *590:54 *3295:A 4.7825 
13 *590:14 *590:112 0.970267 
14 *590:112 *590:124 7.3853 
15 *590:124 *3289:A 3.6 
16 *590:124 *590:135 2.2625 
17 *590:135 *590:145 6.57587 
18 *590:145 *590:159 10.1815 
19 *590:159 *3296:A 11.81 
20 *590:159 *3297:A 1.6 
21 *590:145 *590:181 2.5175 
22 *590:181 *3298:A 4.74 
23 *590:181 *3299:A 7.5 
24 *590:135 *3290:A 9.22583 
25 *590:112 *590:222 3.7718 
26 *590:222 *590:226 26.9675 
27 *590:226 *3287:A 2.05 
28 *590:226 *3288:A 2.05 
29 *590:222 *590:242 2.0175 
30 *590:242 *3291:A 4.05 
31 *590:242 *3292:A 9.765 
*END

*D_NET *591 0.0131797
*CONN
*I *3252:CLK I *D sky130_fd_sc_hd__dfxtp_1
*I *3239:CLK I *D sky130_fd_sc_hd__dfxtp_1
*I *3236:CLK I *D sky130_fd_sc_hd__dfxtp_1
*I *3247:CLK I *D sky130_fd_sc_hd__dfxtp_1
*I *3254:CLK I *D sky130_fd_sc_hd__dfxtp_1
*I *3238:CLK I *D sky130_fd_sc_hd__dfxtp_1
*I *3246:CLK I *D sky130_fd_sc_hd__dfxtp_1
*I *3237:CLK I *D sky130_fd_sc_hd__dfxtp_1
*I *3230:CLK I *D sky130_fd_sc_hd__dfxtp_1
*I *3235:CLK I *D sky130_fd_sc_hd__dfxtp_1
*I *3231:CLK I *D sky130_fd_sc_hd__dfxtp_1
*I *3234:CLK I *D sky130_fd_sc_hd__dfxtp_1
*I *3253:CLK I *D sky130_fd_sc_hd__dfxtp_1
*I *3286:X O *D sky130_fd_sc_hd__clkbuf_8
*CAP
1 *3252:CLK 2.37395e-05
2 *3239:CLK 0
3 *3236:CLK 0
4 *3247:CLK 0
5 *3254:CLK 0.000603262
6 *3238:CLK 0.000431903
7 *3246:CLK 0
8 *3237:CLK 2.08101e-05
9 *3230:CLK 0.000351849
10 *3235:CLK 0.000246945
11 *3231:CLK 2.00211e-05
12 *3234:CLK 0.000252882
13 *3253:CLK 0.000119849
14 *3286:X 0.000397007
15 *591:116 0.000620708
16 *591:110 0.00104666
17 *591:100 0.00067319
18 *591:89 0.000464261
19 *591:72 0.000731061
20 *591:48 0.000366377
21 *591:35 0.000384593
22 *591:33 0.00078405
23 *591:27 0.000710652
24 *591:23 0.000336998
25 *591:12 0.000516856
26 *3235:CLK *2558:A1 6.10014e-05
27 *3235:CLK *3343:A 0
28 *3238:CLK *927:8 2.42723e-05
29 *3252:CLK *808:6 1.47347e-05
30 *3253:CLK *2791:B2 0
31 *3254:CLK *2568:A0 0.00012398
32 *3254:CLK *926:10 1.18883e-05
33 *591:12 *2615:A1 4.32126e-05
34 *591:12 *2792:A2 5.34461e-05
35 *591:27 *808:6 5.83121e-06
36 *591:33 *2714:A1 3.65344e-05
37 *591:33 *813:8 5.05437e-05
38 *591:48 *3343:A 0
39 *591:72 *3343:A 0
40 *591:100 *810:12 4.82919e-05
41 *2548:S *591:27 0.000107494
42 *2548:S *591:33 0.000214835
43 *2549:A *591:33 9.36815e-05
44 *2551:A *591:33 8.65905e-05
45 *2558:A0 *3231:CLK 4.82919e-05
46 *2558:S *3235:CLK 0.000103993
47 *2558:S *591:48 0
48 *2559:A *3231:CLK 5.83121e-06
49 *2559:A *591:48 6.5525e-05
50 *2559:A *591:72 5.21545e-05
51 *2563:A0 *591:33 0.000310789
52 *2564:A *591:110 0.000143266
53 *2569:A *3254:CLK 0.000122821
54 *2587:B *3253:CLK 2.78732e-05
55 *2591:A *3254:CLK 0.000178148
56 *2591:A *591:110 8.62445e-06
57 *2612:A *591:12 0.0006566
58 *2613:S *591:12 0
59 *3230:D *591:72 0
60 *3231:D *3235:CLK 0
61 *3231:D *591:48 0
62 *3234:D *3234:CLK 0.000128642
63 *3235:D *3235:CLK 5.20335e-05
64 *3236:D *591:110 0.000147348
65 *3236:D *591:116 0
66 *3237:D *591:72 2.87867e-05
67 *3237:D *591:100 1.43717e-05
68 *3238:D *3238:CLK 9.12671e-06
69 *3239:D *591:27 0.000197937
70 *3246:D *3238:CLK 0.000201499
71 *3247:D *3254:CLK 0.000141508
72 *3247:D *591:110 3.28583e-05
73 *3252:D *3253:CLK 1.52184e-05
74 *3252:D *591:12 6.36578e-05
75 *328:113 *591:12 0
76 *511:133 *591:33 4.66108e-05
77 *528:87 *591:12 0.000139245
78 *528:93 *3253:CLK 7.63204e-05
79 *528:93 *591:12 8.05587e-05
80 *568:10 *591:12 0
*RES
1 *3286:X *591:12 14.205 
2 *591:12 *3253:CLK 5.745 
3 *591:12 *591:23 2 
4 *591:23 *591:27 5.64 
5 *591:27 *591:33 8.85 
6 *591:33 *591:35 0.45 
7 *591:35 *3234:CLK 5.86 
8 *591:35 *591:48 3.89 
9 *591:48 *3231:CLK 4.05 
10 *591:48 *3235:CLK 8.265 
11 *591:33 *591:72 11.795 
12 *591:72 *3230:CLK 12.255 
13 *591:72 *591:89 2.36 
14 *591:89 *3237:CLK 1.96 
15 *591:89 *591:100 5.985 
16 *591:100 *591:110 8.425 
17 *591:110 *591:116 6.145 
18 *591:116 *3246:CLK 1.6 
19 *591:116 *3238:CLK 8.29 
20 *591:110 *3254:CLK 12.55 
21 *591:110 *3247:CLK 1.6 
22 *591:100 *3236:CLK 1.6 
23 *591:27 *3239:CLK 1.6 
24 *591:23 *3252:CLK 2.05 
*END

*D_NET *592 0.0153285
*CONN
*I *3271:CLK I *D sky130_fd_sc_hd__dfrtp_1
*I *3276:CLK I *D sky130_fd_sc_hd__dfrtp_1
*I *3277:CLK I *D sky130_fd_sc_hd__dfrtp_1
*I *3283:CLK I *D sky130_fd_sc_hd__dfstp_1
*I *3284:CLK I *D sky130_fd_sc_hd__dfrtp_1
*I *3262:CLK I *D sky130_fd_sc_hd__dfrtp_1
*I *3272:CLK I *D sky130_fd_sc_hd__dfrtp_4
*I *3273:CLK I *D sky130_fd_sc_hd__dfrtp_1
*I *3160:CLK I *D sky130_fd_sc_hd__dfxtp_1
*I *3163:CLK I *D sky130_fd_sc_hd__dfxtp_1
*I *3161:CLK I *D sky130_fd_sc_hd__dfxtp_1
*I *3136:CLK I *D sky130_fd_sc_hd__dfxtp_1
*I *3287:X O *D sky130_fd_sc_hd__clkbuf_8
*CAP
1 *3271:CLK 5.36877e-05
2 *3276:CLK 0.000149304
3 *3277:CLK 0.000707305
4 *3283:CLK 0.000327935
5 *3284:CLK 0.000246061
6 *3262:CLK 5.50573e-05
7 *3272:CLK 0
8 *3273:CLK 0
9 *3160:CLK 0.000285707
10 *3163:CLK 0
11 *3161:CLK 4.40225e-05
12 *3136:CLK 0.000327702
13 *3287:X 0.000612492
14 *592:127 0.00104354
15 *592:114 0.00060513
16 *592:101 0.000336322
17 *592:88 0.00141973
18 *592:79 0.0014965
19 *592:53 0.000377362
20 *592:51 0.000489628
21 *592:24 0.000548744
22 *592:20 0.000376384
23 *592:18 0.000996626
24 *592:12 0.00119729
25 *3136:CLK *2721:B2 6.37009e-05
26 *3136:CLK *2799:B2 0.000487978
27 *3136:CLK *921:10 4.19797e-05
28 *3160:CLK *3326:A 0.000114649
29 *3161:CLK *2721:B2 8.41384e-05
30 *3161:CLK *2944:A1 0.000158564
31 *3271:CLK *3411:A 3.00381e-05
32 *3276:CLK *2644:S 9.37731e-05
33 *3276:CLK *3276:D 5.83121e-06
34 *3276:CLK *782:10 4.38051e-05
35 *3277:CLK *2644:A0 8.69114e-05
36 *3277:CLK *3277:D 4.82863e-05
37 *3277:CLK *3277:RESET_B 4.11729e-05
38 *3284:CLK *619:64 7.29836e-05
39 *592:12 *2640:A 3.86529e-05
40 *592:12 *2641:B 4.43871e-06
41 *592:12 *3271:RESET_B 0
42 *592:12 *3411:A 3.83995e-05
43 *592:18 *3312:A 0
44 *592:24 *2721:B2 1.46781e-05
45 *592:53 *3326:A 0.000181
46 *592:79 *3326:A 8.33066e-06
47 *592:88 *3272:RESET_B 4.70393e-05
48 *592:114 *619:54 0
49 *592:114 *619:56 0
50 *592:127 *2644:S 9.37731e-05
51 *592:127 *619:54 0
52 *2631:A *592:79 1.08758e-05
53 *2631:A *592:88 4.24164e-05
54 *2642:A2 *592:12 0.000133408
55 *2642:B1 *592:12 1.65192e-05
56 *2645:A *3277:CLK 2.49909e-05
57 *2945:A *3160:CLK 0
58 *2971:A0 *592:18 0
59 *3137:D *3136:CLK 0.000487283
60 *3161:D *3161:CLK 1.14192e-05
61 *3272:D *592:79 6.48719e-05
62 *3272:D *592:88 4.7101e-05
63 *3273:D *592:79 8.60031e-05
64 *163:20 *3283:CLK 7.27003e-05
65 *350:12 *592:18 8.77898e-05
66 *350:40 *592:18 5.51245e-05
67 *351:109 *3136:CLK 9.12494e-06
68 *351:109 *592:24 0.000338514
69 *351:123 *3136:CLK 0.000142344
70 *356:14 *3136:CLK 5.04591e-05
71 *359:88 *592:18 0
72 *359:88 *592:79 0
73 *359:99 *592:18 0
74 *511:22 *592:18 0.000150843
*RES
1 *3287:X *592:12 13.625 
2 *592:12 *592:18 13.795 
3 *592:18 *592:20 2.865 
4 *592:20 *592:24 6.185 
5 *592:24 *3136:CLK 13.65 
6 *592:24 *3161:CLK 5.085 
7 *592:20 *3163:CLK 1.6 
8 *592:18 *592:51 5.9 
9 *592:51 *592:53 2.145 
10 *592:53 *3160:CLK 8.43 
11 *592:53 *3273:CLK 3.6 
12 *592:51 *592:79 4.85 
13 *592:79 *3272:CLK 1.6 
14 *592:79 *592:88 15.555 
15 *592:88 *3262:CLK 2.77 
16 *592:88 *592:101 2 
17 *592:101 *3284:CLK 7.395 
18 *592:101 *592:114 1.38 
19 *592:114 *3283:CLK 8.55 
20 *592:114 *592:127 2.91 
21 *592:127 *3277:CLK 11.91 
22 *592:127 *3276:CLK 6.375 
23 *592:12 *3271:CLK 2.665 
*END

*D_NET *593 0.0140038
*CONN
*I *3274:CLK I *D sky130_fd_sc_hd__dfrtp_1
*I *3169:CLK I *D sky130_fd_sc_hd__dfxtp_1
*I *3170:CLK I *D sky130_fd_sc_hd__dfxtp_1
*I *3168:CLK I *D sky130_fd_sc_hd__dfxtp_1
*I *3269:CLK I *D sky130_fd_sc_hd__dfrtp_1
*I *3270:CLK I *D sky130_fd_sc_hd__dfrtp_1
*I *3258:CLK I *D sky130_fd_sc_hd__dfxtp_1
*I *3260:CLK I *D sky130_fd_sc_hd__dfxtp_1
*I *3281:CLK I *D sky130_fd_sc_hd__dfrtp_4
*I *3279:CLK I *D sky130_fd_sc_hd__dfrtp_1
*I *3280:CLK I *D sky130_fd_sc_hd__dfrtp_1
*I *3288:X O *D sky130_fd_sc_hd__clkbuf_8
*CAP
1 *3274:CLK 0
2 *3169:CLK 0.000128415
3 *3170:CLK 0.000240216
4 *3168:CLK 0
5 *3269:CLK 0
6 *3270:CLK 0
7 *3258:CLK 0.000562925
8 *3260:CLK 0
9 *3281:CLK 5.48706e-05
10 *3279:CLK 5.98383e-05
11 *3280:CLK 0
12 *3288:X 0.000143891
13 *593:127 0.000354474
14 *593:123 0.000778367
15 *593:106 0.00064131
16 *593:73 0.000834823
17 *593:69 0.000769719
18 *593:61 0.00103822
19 *593:57 0.00071022
20 *593:29 0.00147986
21 *593:12 0.00136515
22 *593:10 0.00041933
23 *3169:CLK *3348:A 2.76356e-05
24 *3170:CLK *641:33 0.000132821
25 *3258:CLK *2618:A1 7.10346e-05
26 *3258:CLK *2623:A1 5.63183e-05
27 *3258:CLK *2673:A 6.75372e-05
28 *3258:CLK *3259:CLK 0.000408411
29 *3258:CLK *759:47 7.00889e-06
30 *3279:CLK *2648:A 1.31843e-05
31 *3281:CLK *2637:A 0
32 *3281:CLK *3281:D 3.39151e-05
33 *3281:CLK *794:56 7.06865e-05
34 *593:10 *3280:D 4.91189e-05
35 *593:10 *682:20 0
36 *593:29 *2649:A 0.000154977
37 *593:29 *2654:A2 7.49219e-05
38 *593:29 *2825:A 7.54478e-05
39 *593:29 *3280:RESET_B 0.000230135
40 *593:29 *619:50 6.16472e-05
41 *593:29 *682:20 0
42 *593:29 *793:18 0.000113681
43 *593:29 *795:86 3.23663e-05
44 *593:57 *3274:D 2.75145e-05
45 *593:57 *3274:RESET_B 7.73272e-05
46 *593:57 *3280:RESET_B 7.78212e-05
47 *593:57 *682:20 0
48 *593:69 *3270:RESET_B 0
49 *593:106 *3270:RESET_B 0
50 *593:123 *3270:RESET_B 0
51 *593:123 *3348:A 0.000154852
52 *593:123 *641:33 0
53 *593:127 *641:33 0.000221344
54 *2618:S *3258:CLK 8.96417e-05
55 *2621:A *3258:CLK 0
56 *2622:A *593:73 9.86151e-05
57 *2626:A *3258:CLK 1.83975e-05
58 *2649:C *593:29 1.79408e-05
59 *2653:A2 *593:29 0
60 *2656:B *3281:CLK 2.60986e-05
61 *2825:C *593:29 6.0333e-05
62 *2969:S *593:123 3.75882e-06
63 *2970:A *3170:CLK 6.08432e-05
64 *2971:A0 *593:69 0.000150931
65 *2971:A0 *593:106 6.87525e-05
66 *2971:A0 *593:123 4.49328e-05
67 *2971:S *593:123 2.45861e-05
68 *3169:D *3169:CLK 1.08105e-05
69 *3258:D *3258:CLK 7.3802e-05
70 *3260:D *593:73 0.00041572
71 *3270:D *593:69 6.52265e-05
72 *3270:D *593:73 0.000160641
73 *3271:D *3258:CLK 0.000152301
74 *3271:D *593:69 0.000180997
75 *3271:D *593:73 0.000265604
76 *3284:D *593:29 5.72372e-05
77 *158:10 *3279:CLK 1.17309e-05
78 *158:10 *593:29 5.72462e-05
79 *158:12 *593:29 3.73067e-05
80 *159:16 *593:29 9.47267e-06
81 *163:20 *593:29 8.30853e-06
82 *322:55 *3258:CLK 1.12141e-05
83 *328:18 *3258:CLK 0
84 *511:22 *593:123 0
85 *590:226 *593:10 0
86 *590:226 *593:57 0
*RES
1 *3288:X *593:10 6.195 
2 *593:10 *593:12 2 
3 *593:12 *3280:CLK 1.6 
4 *593:12 *593:29 22.465 
5 *593:29 *3279:CLK 2.77 
6 *593:29 *3281:CLK 6.98 
7 *593:10 *593:57 6.665 
8 *593:57 *593:61 8.315 
9 *593:61 *593:69 11.48 
10 *593:69 *593:73 7.71 
11 *593:73 *3260:CLK 1.6 
12 *593:73 *3258:CLK 16.55 
13 *593:69 *3270:CLK 1.6 
14 *593:61 *593:106 2.145 
15 *593:106 *3269:CLK 3.6 
16 *593:106 *593:123 10.22 
17 *593:123 *593:127 4.655 
18 *593:127 *3168:CLK 3.6 
19 *593:127 *3170:CLK 7.335 
20 *593:123 *3169:CLK 3.355 
21 *593:57 *3274:CLK 1.6 
*END

*D_NET *594 0.0122888
*CONN
*I *3131:CLK I *D sky130_fd_sc_hd__dfrtp_4
*I *3200:CLK I *D sky130_fd_sc_hd__dfxtp_1
*I *3180:CLK I *D sky130_fd_sc_hd__dfxtp_1
*I *3226:CLK I *D sky130_fd_sc_hd__dfxtp_1
*I *3227:CLK I *D sky130_fd_sc_hd__dfxtp_1
*I *3228:CLK I *D sky130_fd_sc_hd__dfxtp_1
*I *3229:CLK I *D sky130_fd_sc_hd__dfxtp_1
*I *3289:X O *D sky130_fd_sc_hd__clkbuf_8
*CAP
1 *3131:CLK 0.000205762
2 *3200:CLK 1.80269e-05
3 *3180:CLK 0.000506467
4 *3226:CLK 9.89864e-06
5 *3227:CLK 0.0003404
6 *3228:CLK 0.000319805
7 *3229:CLK 0.000217927
8 *3289:X 0.00013599
9 *594:59 0.000593782
10 *594:33 0.000735987
11 *594:31 0.000577546
12 *594:27 0.000727749
13 *594:10 0.000665437
14 *594:8 0.000503888
15 *3131:CLK *3306:A 3.89775e-05
16 *3131:CLK *607:33 8.66375e-05
17 *3180:CLK *873:8 0.000235568
18 *3227:CLK *3368:A 4.87465e-06
19 *3228:CLK *2777:A 2.15594e-05
20 *3229:CLK *2743:A 0.000106866
21 *594:27 *2743:A 2.3091e-05
22 *594:27 *774:77 3.5678e-06
23 *2537:A *3180:CLK 4.28112e-06
24 *2537:A *594:31 8.53011e-05
25 *2537:A *594:59 5.87002e-05
26 *2538:S *3228:CLK 0.000200667
27 *2538:S *594:33 0.000107016
28 *2540:A *594:31 0.00016031
29 *2540:B *594:31 0.000259653
30 *2544:A *3229:CLK 3.64998e-06
31 *2751:A *3228:CLK 4.41381e-05
32 *2776:C *3228:CLK 0.00013184
33 *2777:C *3228:CLK 0.000244859
34 *2823:B *3131:CLK 2.02082e-05
35 *2823:B *594:10 1.10359e-05
36 *2901:C *3180:CLK 0.000253337
37 *2979:A *3200:CLK 9.12671e-06
38 *2979:A *594:27 6.07575e-06
39 *2979:A *594:31 5.97697e-05
40 *3055:B *3229:CLK 4.30118e-05
41 *3055:B *594:10 6.333e-05
42 *3058:S *3229:CLK 0.000181376
43 *3122:A *594:31 0.000129653
44 *3200:D *594:27 7.45772e-05
45 *3226:D *3226:CLK 4.77769e-05
46 *3227:D *3227:CLK 0.000108614
47 *3290:A *3131:CLK 0.000230367
48 *3464:A *3228:CLK 0.000132842
49 *191:36 *3228:CLK 0.000143833
50 *192:23 *3228:CLK 2.49909e-05
51 *211:18 *3131:CLK 0.000379178
52 *211:18 *3229:CLK 0.000374417
53 *211:18 *594:10 0.000181711
54 *212:18 *3180:CLK 0.00010231
55 *212:18 *3228:CLK 3.66009e-05
56 *212:18 *594:33 4.90272e-05
57 *212:18 *594:59 6.55142e-05
58 *336:58 *3180:CLK 0.00029271
59 *355:18 *594:8 0.000119018
60 *358:67 *3228:CLK 0
61 *370:14 *3180:CLK 0.000121712
62 *370:106 *3180:CLK 1.88656e-05
63 *399:16 *3180:CLK 0.00029829
64 *419:126 *3180:CLK 5.26905e-05
65 *419:126 *594:8 0.000451582
66 *432:8 *594:31 1.59218e-05
67 *432:33 *3226:CLK 4.77769e-05
68 *476:16 *594:31 0.000192508
69 *476:16 *594:33 7.27704e-06
70 *476:16 *594:59 6.54361e-06
71 *476:26 *3228:CLK 0.000351134
72 *476:26 *594:33 0.000182213
73 *511:38 *3228:CLK 2.16833e-05
*RES
1 *3289:X *594:8 7.845 
2 *594:8 *594:10 3.93 
3 *594:10 *3229:CLK 9.435 
4 *594:10 *594:27 5.915 
5 *594:27 *594:31 10.73 
6 *594:31 *594:33 2.4 
7 *594:33 *3228:CLK 13.05 
8 *594:33 *3227:CLK 8.55 
9 *594:31 *594:59 1.635 
10 *594:59 *3226:CLK 4.05 
11 *594:59 *3180:CLK 15.315 
12 *594:27 *3200:CLK 1.96 
13 *594:8 *3131:CLK 9.315 
*END

*D_NET *595 0.0124622
*CONN
*I *3130:CLK I *D sky130_fd_sc_hd__dfrtp_2
*I *3128:CLK I *D sky130_fd_sc_hd__dfrtp_1
*I *3265:CLK I *D sky130_fd_sc_hd__dfrtp_4
*I *3263:CLK I *D sky130_fd_sc_hd__dfrtp_4
*I *3129:CLK I *D sky130_fd_sc_hd__dfrtp_1
*I *3266:CLK I *D sky130_fd_sc_hd__dfrtp_4
*I *3196:CLK I *D sky130_fd_sc_hd__dfxtp_1
*I *3197:CLK I *D sky130_fd_sc_hd__dfxtp_1
*I *3192:CLK I *D sky130_fd_sc_hd__dfxtp_1
*I *3193:CLK I *D sky130_fd_sc_hd__dfxtp_1
*I *3290:X O *D sky130_fd_sc_hd__clkbuf_8
*CAP
1 *3130:CLK 3.98628e-05
2 *3128:CLK 0.000135784
3 *3265:CLK 0
4 *3263:CLK 0.000211408
5 *3129:CLK 0.000200408
6 *3266:CLK 0
7 *3196:CLK 0.000135514
8 *3197:CLK 3.43921e-05
9 *3192:CLK 0.000123779
10 *3193:CLK 0.000109897
11 *3290:X 0.000505936
12 *595:112 0.000309758
13 *595:105 0.000355232
14 *595:34 0.000988912
15 *595:28 0.00106763
16 *595:24 0.0012195
17 *595:16 0.000904771
18 *595:14 0.00029919
19 *595:12 0.000264778
20 *595:10 0.000780426
21 *3128:CLK *3263:D 1.73877e-05
22 *3128:CLK *652:53 7.00066e-05
23 *3128:CLK *770:28 0.000162318
24 *3129:CLK *2709:A_N 0.000144238
25 *3129:CLK *2709:D 2.04306e-06
26 *3129:CLK *3265:D 0.00010126
27 *3130:CLK *652:19 4.21973e-05
28 *3192:CLK *2755:B2 0
29 *3192:CLK *2756:B2 0
30 *3192:CLK *3432:A 8.53113e-06
31 *3193:CLK *3040:A1 4.66108e-05
32 *3196:CLK *2756:A1 1.79174e-05
33 *3196:CLK *3045:A1 5.20619e-05
34 *3263:CLK *2709:D 0.000164686
35 *3263:CLK *3263:D 5.0751e-05
36 *3263:CLK *3265:RESET_B 1.79098e-05
37 *3263:CLK *607:33 0
38 *3263:CLK *799:8 0.000161837
39 *595:10 *2713:A_N 3.98952e-05
40 *595:10 *3265:D 2.68721e-05
41 *595:10 *3265:RESET_B 6.54478e-05
42 *595:10 *607:33 1.69508e-05
43 *595:10 *773:60 1.92979e-05
44 *595:12 *3265:D 2.69493e-05
45 *595:12 *3265:RESET_B 5.11729e-05
46 *595:12 *607:33 0
47 *595:16 *2709:A_N 8.63479e-05
48 *595:16 *2709:C 0.000118081
49 *595:16 *2709:D 1.04187e-05
50 *595:16 *801:54 1.19928e-05
51 *595:24 *2684:D_N 8.97564e-05
52 *595:24 *2709:A_N 0
53 *595:24 *3266:RESET_B 3.89172e-05
54 *595:24 *678:16 0
55 *595:24 *801:54 0.000104303
56 *595:28 *2687:A1 0.000148746
57 *595:34 *2687:A1 2.79984e-05
58 *595:34 *2687:B2 3.52275e-05
59 *595:34 *2755:B2 0
60 *595:34 *2756:B2 0
61 *595:34 *3040:A1 0.000204371
62 *595:34 *3432:A 0.000114492
63 *595:105 *3265:D 4.64133e-05
64 *595:105 *652:19 4.00796e-05
65 *595:112 *652:19 0.000184858
66 *2687:B1 *595:34 6.33849e-05
67 *2756:A2 *595:34 3.3625e-05
68 *2756:C1 *595:34 0.000133329
69 *2823:B *595:10 8.53113e-06
70 *2849:A *3128:CLK 1.1561e-05
71 *2865:B *595:10 3.64998e-06
72 *3032:A *595:10 0
73 *3032:A *595:24 0
74 *3042:A *595:24 0
75 *3129:D *3128:CLK 5.21714e-05
76 *3129:D *3129:CLK 4.82919e-05
77 *3193:D *3193:CLK 0.000113663
78 *185:29 *595:34 0.000109456
79 *211:18 *3129:CLK 8.40213e-05
80 *215:72 *595:10 0.000139405
81 *317:8 *595:10 0.000146374
82 *317:10 *595:10 0.000102791
83 *317:12 *595:10 2.92496e-05
84 *317:38 *595:10 4.66108e-05
85 *318:14 *3128:CLK 0.000183036
86 *320:10 *595:10 0.000256419
87 *323:55 *595:10 1.74678e-05
88 *468:16 *595:34 0.000176898
89 *471:10 *3196:CLK 0.000210316
90 *471:10 *595:24 0.000236415
*RES
1 *3290:X *595:10 15.0825 
2 *595:10 *595:12 1.2525 
3 *595:12 *595:14 2 
4 *595:14 *595:16 2.175 
5 *595:16 *595:24 14.78 
6 *595:24 *595:28 5.555 
7 *595:28 *595:34 14.705 
8 *595:34 *3193:CLK 5.775 
9 *595:34 *3192:CLK 5.745 
10 *595:28 *3197:CLK 2.215 
11 *595:24 *3196:CLK 6.705 
12 *595:16 *3266:CLK 1.6 
13 *595:14 *3129:CLK 6.205 
14 *595:12 *3263:CLK 8.52 
15 *595:10 *595:105 5.1275 
16 *595:105 *3265:CLK 1.6 
17 *595:105 *595:112 2.865 
18 *595:112 *3128:CLK 9.785 
19 *595:112 *3130:CLK 2.395 
*END

*D_NET *596 0.00784675
*CONN
*I *3127:CLK I *D sky130_fd_sc_hd__dfrtp_1
*I *3278:CLK I *D sky130_fd_sc_hd__dfrtp_1
*I *3282:CLK I *D sky130_fd_sc_hd__dfrtp_1
*I *3275:CLK I *D sky130_fd_sc_hd__dfrtp_1
*I *3135:CLK I *D sky130_fd_sc_hd__dfrtp_1
*I *3134:CLK I *D sky130_fd_sc_hd__dfrtp_1
*I *3268:CLK I *D sky130_fd_sc_hd__dfrtp_1
*I *3267:CLK I *D sky130_fd_sc_hd__dfrtp_1
*I *3291:X O *D sky130_fd_sc_hd__clkbuf_8
*CAP
1 *3127:CLK 0.000194654
2 *3278:CLK 0.000180905
3 *3282:CLK 0
4 *3275:CLK 0
5 *3135:CLK 0.000374484
6 *3134:CLK 0
7 *3268:CLK 6.15605e-05
8 *3267:CLK 0.000121395
9 *3291:X 0
10 *596:73 0.000199837
11 *596:66 0.000213595
12 *596:51 0.000815523
13 *596:49 0.000605696
14 *596:20 0.000224073
15 *596:16 0.000470347
16 *596:4 0.000593896
17 *3127:CLK *2815:B 2.84192e-05
18 *3127:CLK *3127:RESET_B 0.000157378
19 *3135:CLK *2667:A 0
20 *3135:CLK *2814:A2 0.00023575
21 *3135:CLK *2860:B1_N 0.000114201
22 *3135:CLK *3431:A 9.84013e-05
23 *3267:CLK *3267:D 0.000190457
24 *3267:CLK *3268:D 3.09164e-05
25 *3268:CLK *3268:D 6.97034e-05
26 *3278:CLK *3302:A 0
27 *3278:CLK *3303:A 0
28 *596:16 *3267:D 0.000152405
29 *596:16 *3268:D 1.61461e-05
30 *596:16 *3274:RESET_B 4.43871e-06
31 *596:16 *3361:A 0
32 *596:16 *619:8 0
33 *596:16 *779:12 0
34 *596:20 *3268:D 0.000187766
35 *596:49 *3308:A 0.000158536
36 *596:51 *2667:A 0
37 *596:51 *2814:A2 0.000349475
38 *596:51 *3431:A 0.000105677
39 *2632:B1 *596:49 0.000197826
40 *2632:B1 *596:51 0
41 *2639:A *3278:CLK 1.43521e-05
42 *2815:A *3127:CLK 4.66108e-05
43 *3134:D *596:16 3.00381e-05
44 *3134:D *596:51 0.000256734
45 *3275:D *3278:CLK 7.00889e-06
46 *3275:D *596:66 6.75724e-05
47 *3275:D *596:73 2.75229e-05
48 *3282:D *3278:CLK 0.000168156
49 *8:18 *596:16 0.00013878
50 *8:18 *596:49 9.08384e-05
51 *310:25 *596:49 3.6355e-05
52 *310:44 *3127:CLK 0.00011099
53 *310:55 *3127:CLK 2.97802e-05
54 *313:12 *3127:CLK 0.000157031
55 *313:12 *596:51 0.000153263
56 *590:226 *3267:CLK 0.000179015
57 *590:226 *596:20 0.000179235
*RES
1 *3291:X *596:4 1.6 
2 *596:4 *596:16 11.86 
3 *596:16 *596:20 4.145 
4 *596:20 *3267:CLK 6.885 
5 *596:20 *3268:CLK 4.74 
6 *596:16 *3134:CLK 1.6 
7 *596:4 *596:49 5.9 
8 *596:49 *596:51 6.48 
9 *596:51 *3135:CLK 10.995 
10 *596:51 *596:66 4.865 
11 *596:66 *3275:CLK 1.6 
12 *596:66 *596:73 0.45 
13 *596:73 *3282:CLK 1.6 
14 *596:73 *3278:CLK 9.14 
15 *596:49 *3127:CLK 12.235 
*END

*D_NET *597 0.00788878
*CONN
*I *3264:CLK I *D sky130_fd_sc_hd__dfrtp_4
*I *3133:CLK I *D sky130_fd_sc_hd__dfrtp_4
*I *3132:CLK I *D sky130_fd_sc_hd__dfrtp_4
*I *3201:CLK I *D sky130_fd_sc_hd__dfxtp_1
*I *3126:CLK I *D sky130_fd_sc_hd__dfstp_1
*I *3171:CLK I *D sky130_fd_sc_hd__dfxtp_1
*I *3292:X O *D sky130_fd_sc_hd__clkbuf_8
*CAP
1 *3264:CLK 0.000720748
2 *3133:CLK 8.01636e-05
3 *3132:CLK 0.000185598
4 *3201:CLK 7.95331e-05
5 *3126:CLK 0.000245707
6 *3171:CLK 0.000338021
7 *3292:X 0.000322753
8 *597:56 0.000900627
9 *597:43 0.000544132
10 *597:12 0.000717452
11 *597:10 0.000346982
12 *597:8 0.000715297
13 *3132:CLK *775:64 4.65043e-05
14 *3132:CLK *775:76 0.000231826
15 *3264:CLK *2812:C 0.000114492
16 *3264:CLK *3264:RESET_B 0
17 *3264:CLK *3307:A 0
18 *3264:CLK *652:31 0
19 *3264:CLK *770:14 6.28765e-05
20 *3264:CLK *771:14 0.000365327
21 *3264:CLK *772:12 1.65105e-05
22 *3264:CLK *772:29 2.23485e-05
23 *3264:CLK *773:12 0.00049436
24 *597:10 *774:64 0
25 *597:43 *775:76 7.03276e-05
26 *2837:A2 *597:8 1.16578e-05
27 *2839:A1 *3264:CLK 0.000136877
28 *2843:A *3132:CLK 1.91597e-05
29 *2843:A *597:43 4.92205e-05
30 *2845:A2 *3264:CLK 8.42239e-05
31 *2854:A1 *597:8 0.000172642
32 *2855:A1 *597:43 7.27704e-06
33 *2855:A1 *597:56 7.28465e-06
34 *2856:B *597:8 4.82919e-05
35 *2856:B *597:10 0
36 *2856:B *597:43 0
37 *2857:A *597:8 4.92062e-05
38 *3132:D *3132:CLK 0.000117751
39 *3133:D *597:56 0.000115945
40 *3292:A *3171:CLK 0
41 *3292:A *597:8 2.75229e-05
42 *3292:A *597:12 0
43 *312:8 *3264:CLK 0.00024822
44 *312:8 *597:56 1.64056e-05
45 *334:26 *597:43 8.19282e-05
46 *334:34 *3264:CLK 0
47 *334:43 *3264:CLK 0
48 *337:20 *597:8 7.35813e-05
49 *590:242 *3171:CLK 0
*RES
1 *3292:X *597:8 9.915 
2 *597:8 *597:10 2.145 
3 *597:10 *597:12 2.145 
4 *597:12 *3171:CLK 8.925 
5 *597:12 *3126:CLK 7.155 
6 *597:10 *3201:CLK 4.74 
7 *597:8 *597:43 4.44 
8 *597:43 *3132:CLK 7.515 
9 *597:43 *597:56 2.145 
10 *597:56 *3133:CLK 4.755 
11 *597:56 *3264:CLK 21.555 
*END

*D_NET *598 0.0102183
*CONN
*I *3257:CLK I *D sky130_fd_sc_hd__dfxtp_1
*I *3179:CLK I *D sky130_fd_sc_hd__dfxtp_1
*I *3178:CLK I *D sky130_fd_sc_hd__dfxtp_1
*I *3243:CLK I *D sky130_fd_sc_hd__dfxtp_1
*I *3241:CLK I *D sky130_fd_sc_hd__dfxtp_1
*I *3242:CLK I *D sky130_fd_sc_hd__dfxtp_1
*I *3240:CLK I *D sky130_fd_sc_hd__dfxtp_1
*I *3232:CLK I *D sky130_fd_sc_hd__dfxtp_1
*I *3233:CLK I *D sky130_fd_sc_hd__dfxtp_1
*I *3256:CLK I *D sky130_fd_sc_hd__dfxtp_1
*I *3293:X O *D sky130_fd_sc_hd__clkbuf_8
*CAP
1 *3257:CLK 0
2 *3179:CLK 0.000153099
3 *3178:CLK 0
4 *3243:CLK 1.81311e-05
5 *3241:CLK 0
6 *3242:CLK 0.000202856
7 *3240:CLK 0
8 *3232:CLK 0.000352055
9 *3233:CLK 0.000565872
10 *3256:CLK 3.32875e-05
11 *3293:X 0.000322048
12 *598:111 0.000839162
13 *598:94 0.000948606
14 *598:79 0.000298175
15 *598:50 0.000446116
16 *598:48 0.000394912
17 *598:46 0.00052885
18 *598:29 0.000991685
19 *598:18 0.000406537
20 *598:12 0.000646576
21 *3232:CLK *815:16 4.90291e-05
22 *3233:CLK *814:14 0.000304564
23 *598:12 *2797:A1 7.67322e-05
24 *598:46 *2711:B2 0
25 *598:48 *815:16 0.000130196
26 *598:50 *815:16 8.91504e-05
27 *598:79 *807:20 1.9872e-05
28 *598:79 *815:16 0.000123428
29 *598:94 *2712:B2 0.000118081
30 *598:94 *807:20 0.000104582
31 *598:94 *815:16 6.83667e-05
32 *598:111 *2791:A1 0.000262805
33 *598:111 *3425:A 0.000269339
34 *2572:B *3179:CLK 0
35 *2572:B *598:111 0
36 *2574:A *3242:CLK 3.45588e-05
37 *2576:A *598:94 0.000334452
38 *2576:A *598:111 5.70961e-05
39 *2581:A *3243:CLK 5.76951e-06
40 *2581:A *598:94 5.60609e-05
41 *2581:A *598:111 1.06326e-05
42 *2614:A *598:46 0
43 *2719:A2 *598:111 0
44 *2720:D1 *3179:CLK 0
45 *2797:C1 *598:12 7.83487e-05
46 *2998:A *3179:CLK 8.65961e-05
47 *3178:D *3179:CLK 9.5433e-05
48 *3232:D *3232:CLK 0.000128642
49 *3233:D *3233:CLK 1.95758e-05
50 *3240:D *3242:CLK 0
51 *3240:D *598:50 7.36892e-05
52 *3241:D *598:94 1.43717e-05
53 *3243:D *3243:CLK 2.73339e-05
54 *3243:D *598:94 1.73014e-05
55 *3243:D *598:111 9.11224e-05
56 *3256:D *598:29 4.1652e-06
57 *3256:D *598:46 4.87479e-05
58 *197:54 *598:12 4.65721e-05
59 *197:54 *598:94 0.000133719
60 *202:120 *598:94 6.97895e-05
61 *207:51 *598:111 2.01934e-05
62 *235:18 *3179:CLK 0
63 *235:18 *598:111 0
64 *527:83 *598:111 0
65 *532:16 *598:46 0
*RES
1 *3293:X *598:12 10.7 
2 *598:12 *598:18 6.755 
3 *598:18 *3256:CLK 4.05 
4 *598:18 *598:29 0.615 
5 *598:29 *3233:CLK 13.485 
6 *598:29 *598:46 7.715 
7 *598:46 *598:48 2.175 
8 *598:48 *598:50 2.175 
9 *598:50 *3232:CLK 7.57 
10 *598:50 *3240:CLK 1.6 
11 *598:48 *3242:CLK 8.645 
12 *598:46 *598:79 1.485 
13 *598:79 *3241:CLK 1.6 
14 *598:79 *598:94 11.29 
15 *598:94 *3243:CLK 2.14 
16 *598:94 *598:111 13.55 
17 *598:111 *3178:CLK 3.6 
18 *598:111 *3179:CLK 6.54 
19 *598:12 *3257:CLK 1.6 
*END

*D_NET *599 0.0112019
*CONN
*I *3153:CLK I *D sky130_fd_sc_hd__dfxtp_1
*I *3251:CLK I *D sky130_fd_sc_hd__dfxtp_1
*I *3249:CLK I *D sky130_fd_sc_hd__dfxtp_1
*I *3248:CLK I *D sky130_fd_sc_hd__dfxtp_1
*I *3255:CLK I *D sky130_fd_sc_hd__dfxtp_1
*I *3124:CLK I *D sky130_fd_sc_hd__dfxtp_1
*I *3141:CLK I *D sky130_fd_sc_hd__dfxtp_1
*I *3152:CLK I *D sky130_fd_sc_hd__dfxtp_1
*I *3155:CLK I *D sky130_fd_sc_hd__dfxtp_1
*I *3154:CLK I *D sky130_fd_sc_hd__dfxtp_1
*I *3148:CLK I *D sky130_fd_sc_hd__dfxtp_1
*I *3149:CLK I *D sky130_fd_sc_hd__dfxtp_1
*I *3125:CLK I *D sky130_fd_sc_hd__dfxtp_1
*I *3294:X O *D sky130_fd_sc_hd__clkbuf_8
*CAP
1 *3153:CLK 0.000178536
2 *3251:CLK 7.99213e-05
3 *3249:CLK 0
4 *3248:CLK 0
5 *3255:CLK 2.97605e-05
6 *3124:CLK 0
7 *3141:CLK 0.000130741
8 *3152:CLK 0.000296811
9 *3155:CLK 0
10 *3154:CLK 0
11 *3148:CLK 9.90707e-05
12 *3149:CLK 0.000188801
13 *3125:CLK 0
14 *3294:X 0
15 *599:93 0.000578055
16 *599:59 0.00041968
17 *599:55 0.000423851
18 *599:49 0.000775356
19 *599:43 0.000747381
20 *599:36 0.000440955
21 *599:32 0.000491292
22 *599:24 0.000283522
23 *599:22 0.000155411
24 *599:18 0.00033287
25 *599:8 0.000516201
26 *599:4 0.000347498
27 *3152:CLK *2794:A2 4.82863e-05
28 *3152:CLK *2829:A0 2.30258e-05
29 *3152:CLK *922:12 0
30 *599:32 *2717:B2 4.7072e-06
31 *599:36 *2717:B2 9.12671e-06
32 *2562:A *3153:CLK 0.000405064
33 *2562:A *599:8 0.000875601
34 *2596:A *599:18 5.0557e-05
35 *2596:A *599:24 0
36 *2607:B *599:22 0.000179082
37 *2607:B *599:24 2.95721e-05
38 *2608:A0 *599:24 0
39 *2608:A0 *599:32 0
40 *2611:A *3255:CLK 8.40213e-05
41 *2717:A2 *3251:CLK 8.42239e-05
42 *2717:A2 *599:18 0.000269886
43 *2717:B1 *3251:CLK 8.71001e-05
44 *2717:B1 *599:18 0.000268011
45 *2717:B1 *599:22 0.000172735
46 *2717:B1 *599:24 0.000170807
47 *2717:B1 *599:32 0.000136877
48 *2830:A *3152:CLK 0
49 *2832:S *3152:CLK 0.000225883
50 *2833:A *3152:CLK 0.00013959
51 *2912:A *3148:CLK 0.000123955
52 *3124:D *599:36 0.000237271
53 *3125:D *599:43 5.14473e-05
54 *3125:D *599:49 9.10613e-05
55 *3149:D *3149:CLK 0
56 *3155:D *599:49 0
57 *3155:D *599:55 0
58 *3249:D *599:18 5.78262e-05
59 *3254:D *599:32 0
60 *3254:D *599:36 0
61 *3255:D *3255:CLK 4.82863e-05
62 *181:90 *3152:CLK 0
63 *197:149 *3152:CLK 0
64 *208:61 *3152:CLK 1.83756e-05
65 *299:34 *3153:CLK 0.000119756
66 *299:34 *599:8 0.000425972
67 *326:10 *3152:CLK 0.000171068
68 *328:102 *599:8 7.69977e-05
*RES
1 *3294:X *599:4 1.6 
2 *599:4 *599:8 10.04 
3 *599:8 *599:18 9.575 
4 *599:18 *599:22 4.145 
5 *599:22 *599:24 2.145 
6 *599:24 *599:32 4.7 
7 *599:32 *599:36 5.985 
8 *599:36 *3125:CLK 1.6 
9 *599:36 *599:43 1.83 
10 *599:43 *599:49 10.115 
11 *599:49 *599:55 6.32 
12 *599:55 *599:59 4.145 
13 *599:59 *3149:CLK 6.54 
14 *599:59 *3148:CLK 5.43 
15 *599:55 *3154:CLK 1.6 
16 *599:49 *3155:CLK 3.6 
17 *599:43 *599:93 2.175 
18 *599:93 *3152:CLK 12.53 
19 *599:93 *3141:CLK 3.43 
20 *599:32 *3124:CLK 1.6 
21 *599:24 *3255:CLK 4.395 
22 *599:22 *3248:CLK 3.6 
23 *599:18 *3249:CLK 1.6 
24 *599:8 *3251:CLK 5.49 
25 *599:4 *3153:CLK 5.86 
*END

*D_NET *600 0.0101832
*CONN
*I *3139:CLK I *D sky130_fd_sc_hd__dfxtp_1
*I *3211:CLK I *D sky130_fd_sc_hd__dfxtp_1
*I *3210:CLK I *D sky130_fd_sc_hd__dfxtp_1
*I *3145:CLK I *D sky130_fd_sc_hd__dfxtp_1
*I *3144:CLK I *D sky130_fd_sc_hd__dfxtp_1
*I *3147:CLK I *D sky130_fd_sc_hd__dfxtp_1
*I *3146:CLK I *D sky130_fd_sc_hd__dfxtp_1
*I *3250:CLK I *D sky130_fd_sc_hd__dfxtp_1
*I *3295:X O *D sky130_fd_sc_hd__clkbuf_8
*CAP
1 *3139:CLK 0.000323863
2 *3211:CLK 1.77753e-05
3 *3210:CLK 0.000257112
4 *3145:CLK 0
5 *3144:CLK 1.52262e-05
6 *3147:CLK 1.36534e-05
7 *3146:CLK 0.000109477
8 *3250:CLK 0.000236998
9 *3295:X 0
10 *600:87 0.000915659
11 *600:64 0.000864196
12 *600:49 0.000521694
13 *600:38 0.000338676
14 *600:21 0.000298511
15 *600:8 0.000644811
16 *600:4 0.000584621
17 *3139:CLK *2787:B2 8.7152e-06
18 *3146:CLK *3440:A 1.08758e-05
19 *600:64 *874:8 3.45679e-05
20 *600:87 *2785:A 0.000188293
21 *600:87 *2786:A1 7.01303e-05
22 *600:87 *3366:A 1.39421e-05
23 *600:87 *874:8 0.000115306
24 *2567:A *3146:CLK 6.86857e-05
25 *2597:B *600:21 8.50701e-05
26 *2601:A *3250:CLK 0.000156882
27 *2734:B *3210:CLK 1.85674e-05
28 *2737:A3 *600:49 5.06382e-06
29 *2737:B1 *600:49 3.48384e-05
30 *2738:C1 *600:49 0.000191262
31 *2752:B *3144:CLK 2.69153e-05
32 *2752:B *600:49 0.00040539
33 *2753:B1 *600:21 6.30193e-05
34 *2753:B1 *600:38 0.000127373
35 *2753:B1 *600:49 6.56244e-05
36 *2753:B1 *600:64 0
37 *2786:A2 *600:87 2.39856e-05
38 *2786:A3 *600:87 0
39 *2786:B1 *600:87 0.000109386
40 *2904:A *600:21 0.000218124
41 *2904:A *600:38 0.000136877
42 *2904:A *600:49 0.000133177
43 *3082:A *3210:CLK 2.26891e-05
44 *3082:A *600:87 4.4901e-05
45 *3145:D *600:87 5.01066e-05
46 *3146:D *3146:CLK 4.66108e-05
47 *3146:D *600:8 2.49909e-05
48 *3147:D *3147:CLK 4.66108e-05
49 *3210:D *3210:CLK 0.000124007
50 *3211:D *3210:CLK 1.6816e-05
51 *3250:D *3250:CLK 0.00011029
52 *3295:A *600:8 4.66108e-05
53 *176:79 *3210:CLK 7.06865e-05
54 *177:102 *3210:CLK 7.23533e-05
55 *183:59 *3139:CLK 0.000208107
56 *183:61 *3139:CLK 8.7152e-06
57 *193:121 *3144:CLK 1.83756e-05
58 *197:143 *600:49 2.26441e-05
59 *197:143 *600:64 0.000133151
60 *212:73 *600:49 0.000111979
61 *215:147 *3147:CLK 4.66108e-05
62 *291:40 *3139:CLK 0.000174617
63 *291:40 *3146:CLK 0
64 *316:51 *3146:CLK 8.75238e-05
65 *391:64 *600:87 2.34005e-05
66 *419:67 *600:64 0.000148477
67 *528:47 *3139:CLK 0.000257524
68 *528:47 *600:8 0.000184834
69 *528:49 *3250:CLK 4.82919e-05
70 *528:49 *600:8 6.90876e-05
71 *528:67 *3250:CLK 0.000508809
*RES
1 *3295:X *600:4 1.6 
2 *600:4 *600:8 4.95 
3 *600:8 *3250:CLK 7.915 
4 *600:8 *600:21 5.105 
5 *600:21 *3146:CLK 6.255 
6 *600:21 *600:38 1.635 
7 *600:38 *3147:CLK 4.05 
8 *600:38 *600:49 8.265 
9 *600:49 *3144:CLK 4.05 
10 *600:49 *600:64 6.98 
11 *600:64 *3145:CLK 1.6 
12 *600:64 *600:87 14.8 
13 *600:87 *3210:CLK 10.07 
14 *600:87 *3211:CLK 1.96 
15 *600:4 *3139:CLK 12.185 
*END

*D_NET *601 0.012193
*CONN
*I *3183:CLK I *D sky130_fd_sc_hd__dfxtp_1
*I *3182:CLK I *D sky130_fd_sc_hd__dfxtp_1
*I *3215:CLK I *D sky130_fd_sc_hd__dfxtp_1
*I *3224:CLK I *D sky130_fd_sc_hd__dfxtp_1
*I *3225:CLK I *D sky130_fd_sc_hd__dfxtp_1
*I *3214:CLK I *D sky130_fd_sc_hd__dfxtp_1
*I *3218:CLK I *D sky130_fd_sc_hd__dfxtp_1
*I *3217:CLK I *D sky130_fd_sc_hd__dfxtp_1
*I *3219:CLK I *D sky130_fd_sc_hd__dfxtp_1
*I *3221:CLK I *D sky130_fd_sc_hd__dfxtp_1
*I *3220:CLK I *D sky130_fd_sc_hd__dfxtp_1
*I *3296:X O *D sky130_fd_sc_hd__clkbuf_8
*CAP
1 *3183:CLK 8.06072e-05
2 *3182:CLK 0.000136237
3 *3215:CLK 0
4 *3224:CLK 0
5 *3225:CLK 0.00020545
6 *3214:CLK 0
7 *3218:CLK 0
8 *3217:CLK 0.000582367
9 *3219:CLK 0
10 *3221:CLK 0
11 *3220:CLK 0.000160759
12 *3296:X 0
13 *601:121 0.00044302
14 *601:90 0.000589535
15 *601:79 0.00053794
16 *601:71 0.000612274
17 *601:43 0.000582367
18 *601:18 0.000583568
19 *601:16 0.000533148
20 *601:10 0.000324862
21 *601:8 0.000861137
22 *601:4 0.000414372
23 *3183:CLK *3008:A0 0.000235378
24 *3217:CLK *2701:A 0.000278111
25 *3217:CLK *726:32 0.000129942
26 *3217:CLK *830:12 0.000167769
27 *601:10 *2763:A 0.000367941
28 *601:10 *828:12 2.30797e-05
29 *601:16 *828:12 0.00012354
30 *601:18 *828:12 0.000159009
31 *601:71 *3094:A0 0.000196073
32 *601:71 *3391:A 8.06843e-05
33 *601:71 *834:6 8.73525e-05
34 *601:79 *2704:A1 2.01504e-05
35 *601:79 *3353:A 3.6227e-05
36 *601:90 *2704:A1 5.51001e-05
37 *601:90 *823:6 0.000236538
38 *2701:C *3217:CLK 3.4259e-05
39 *2702:B1 *3217:CLK 3.00381e-05
40 *3008:A1 *3183:CLK 7.76162e-05
41 *3008:A1 *601:121 5.35788e-05
42 *3009:A *601:121 0.000127392
43 *3095:A *601:71 7.38695e-05
44 *3108:S *601:18 8.49205e-05
45 *3109:A *3220:CLK 3.30017e-05
46 *3109:A *601:18 0.000216918
47 *3118:A0 *3217:CLK 0
48 *3182:D *3182:CLK 4.66108e-05
49 *3182:D *601:121 4.66108e-05
50 *3183:D *3183:CLK 0.000122817
51 *3214:D *601:79 3.87166e-05
52 *3215:D *601:71 5.01066e-05
53 *3220:D *3220:CLK 7.14241e-05
54 *3221:D *601:18 5.14416e-05
55 *3224:D *601:90 0.000574942
56 *3296:A *601:121 4.77807e-05
57 *218:144 *601:8 0.000180051
58 *218:144 *601:10 0.000274779
59 *218:144 *601:16 9.91098e-05
60 *358:93 *3217:CLK 4.99619e-05
61 *430:10 *3217:CLK 0
62 *430:46 *3217:CLK 0
63 *445:12 *601:10 2.69079e-05
64 *445:12 *601:16 2.54779e-05
65 *445:14 *601:71 1.91597e-05
66 *445:20 *601:71 8.06306e-05
67 *445:88 *3182:CLK 0.000154863
68 *445:88 *601:71 6.92161e-05
69 *476:46 *3217:CLK 0.000118513
70 *502:10 *601:71 0.000231815
71 *511:76 *3217:CLK 1.91597e-05
72 *511:76 *601:16 2.20014e-05
73 *511:76 *601:18 0.000148131
74 *511:80 *601:18 4.66108e-05
*RES
1 *3296:X *601:4 1.6 
2 *601:4 *601:8 5.93 
3 *601:8 *601:10 6.225 
4 *601:10 *601:16 4.595 
5 *601:16 *601:18 8.73 
6 *601:18 *3220:CLK 8.285 
7 *601:18 *3221:CLK 1.6 
8 *601:16 *3219:CLK 1.6 
9 *601:10 *601:43 2 
10 *601:43 *3217:CLK 16.1 
11 *601:43 *3218:CLK 1.6 
12 *601:8 *601:71 12.11 
13 *601:71 *601:79 6.34 
14 *601:79 *3214:CLK 1.6 
15 *601:79 *601:90 8.415 
16 *601:90 *3225:CLK 9.095 
17 *601:90 *3224:CLK 1.6 
18 *601:71 *3215:CLK 1.6 
19 *601:4 *601:121 3.915 
20 *601:121 *3182:CLK 7.94 
21 *601:121 *3183:CLK 4.465 
*END

*D_NET *602 0.0095084
*CONN
*I *3203:CLK I *D sky130_fd_sc_hd__dfxtp_1
*I *3202:CLK I *D sky130_fd_sc_hd__dfxtp_1
*I *3205:CLK I *D sky130_fd_sc_hd__dfxtp_1
*I *3204:CLK I *D sky130_fd_sc_hd__dfxtp_1
*I *3208:CLK I *D sky130_fd_sc_hd__dfxtp_1
*I *3209:CLK I *D sky130_fd_sc_hd__dfxtp_1
*I *3198:CLK I *D sky130_fd_sc_hd__dfxtp_1
*I *3199:CLK I *D sky130_fd_sc_hd__dfxtp_1
*I *3206:CLK I *D sky130_fd_sc_hd__dfxtp_1
*I *3207:CLK I *D sky130_fd_sc_hd__dfxtp_1
*I *3297:X O *D sky130_fd_sc_hd__clkbuf_8
*CAP
1 *3203:CLK 0.000173338
2 *3202:CLK 0.000143217
3 *3205:CLK 0
4 *3204:CLK 6.37197e-05
5 *3208:CLK 0
6 *3209:CLK 0.000104314
7 *3198:CLK 0.000272263
8 *3199:CLK 7.51951e-05
9 *3206:CLK 3.37585e-05
10 *3207:CLK 0.000168975
11 *3297:X 0.000126346
12 *602:116 0.000409825
13 *602:107 0.000387769
14 *602:94 0.000620007
15 *602:72 0.000165997
16 *602:40 0.000648787
17 *602:29 0.000541697
18 *602:16 0.000591359
19 *602:14 0.000674145
20 *602:8 0.000784823
21 *3198:CLK *3053:A0 0
22 *3204:CLK *2784:A1 3.26889e-05
23 *602:8 *3416:A 0.000159957
24 *602:14 *841:16 4.82863e-05
25 *602:16 *842:14 0.000122184
26 *602:29 *3073:A0 3.68426e-05
27 *602:29 *842:14 0
28 *602:40 *3073:A0 4.4073e-05
29 *602:40 *3438:A 0
30 *602:94 *2783:A1 0.000162325
31 *602:94 *3076:A0 3.86529e-05
32 *602:94 *3416:A 0.000219706
33 *602:107 *2731:A1 0.000185626
34 *602:107 *2731:B2 0
35 *602:107 *853:10 0
36 *602:116 *2731:A1 9.16237e-05
37 *2731:B1 *602:107 0.000133763
38 *2784:B1 *3204:CLK 5.87295e-05
39 *2784:C1 *602:94 3.42142e-05
40 *3051:S *602:107 0
41 *3052:A *3199:CLK 3.85642e-05
42 *3064:A *3203:CLK 2.99026e-05
43 *3072:A *3209:CLK 0.000154931
44 *3073:A1 *3209:CLK 6.98077e-05
45 *3073:A1 *602:14 5.22134e-06
46 *3073:A1 *602:16 3.08946e-05
47 *3073:A1 *602:72 3.85554e-05
48 *3073:S *3209:CLK 5.34884e-05
49 *3074:A *602:29 0
50 *3198:D *3198:CLK 4.81348e-05
51 *3199:D *3198:CLK 3.25831e-05
52 *3199:D *602:40 7.23602e-05
53 *3202:D *3202:CLK 0.000128642
54 *3202:D *3203:CLK 0.0001291
55 *3202:D *602:116 2.92496e-05
56 *3206:D *602:29 7.70938e-05
57 *3206:D *602:40 4.43871e-06
58 *3207:D *3207:CLK 0.000168621
59 *3207:D *602:16 7.49327e-05
60 *3208:D *602:14 0.000458028
61 *197:40 *3204:CLK 4.80285e-05
62 *197:48 *3204:CLK 1.19928e-05
63 *197:48 *602:94 5.4003e-05
64 *197:48 *602:107 7.63883e-05
65 *197:54 *602:94 0
66 *285:18 *602:8 5.93674e-05
67 *285:18 *602:94 0
68 *442:42 *602:8 7.88393e-05
69 *442:61 *602:8 4.40643e-05
70 *442:61 *602:94 2.75538e-05
71 *442:74 *602:94 0.000109412
72 *442:99 *602:107 0
73 *442:99 *602:116 0
74 *477:14 *602:94 0
75 *477:14 *602:107 0
*RES
1 *3297:X *602:8 7.275 
2 *602:8 *602:14 8.585 
3 *602:14 *602:16 3.9 
4 *602:16 *3207:CLK 4.48 
5 *602:16 *602:29 5.93 
6 *602:29 *3206:CLK 4.05 
7 *602:29 *602:40 5.46 
8 *602:40 *3199:CLK 5.01 
9 *602:40 *3198:CLK 7.5 
10 *602:14 *602:72 1.62 
11 *602:72 *3209:CLK 8.3 
12 *602:72 *3208:CLK 1.6 
13 *602:8 *602:94 6.225 
14 *602:94 *3204:CLK 5.1 
15 *602:94 *602:107 6.225 
16 *602:107 *3205:CLK 3.6 
17 *602:107 *602:116 2.145 
18 *602:116 *3202:CLK 6.12 
19 *602:116 *3203:CLK 6.645 
*END

*D_NET *603 0.016037
*CONN
*I *3181:CLK I *D sky130_fd_sc_hd__dfxtp_1
*I *3166:CLK I *D sky130_fd_sc_hd__dfxtp_1
*I *3176:CLK I *D sky130_fd_sc_hd__dfxtp_1
*I *3167:CLK I *D sky130_fd_sc_hd__dfxtp_1
*I *3216:CLK I *D sky130_fd_sc_hd__dfxtp_1
*I *3213:CLK I *D sky130_fd_sc_hd__dfxtp_1
*I *3223:CLK I *D sky130_fd_sc_hd__dfxtp_1
*I *3222:CLK I *D sky130_fd_sc_hd__dfxtp_1
*I *3212:CLK I *D sky130_fd_sc_hd__dfxtp_1
*I *3298:X O *D sky130_fd_sc_hd__clkbuf_8
*CAP
1 *3181:CLK 0.000283524
2 *3166:CLK 1.88301e-05
3 *3176:CLK 0.000361982
4 *3167:CLK 0
5 *3216:CLK 0.00116881
6 *3213:CLK 0.00019595
7 *3223:CLK 4.22946e-05
8 *3222:CLK 0.000151339
9 *3212:CLK 4.63012e-05
10 *3298:X 0.000101356
11 *603:92 0.000656307
12 *603:88 0.000559018
13 *603:35 0.000569646
14 *603:33 0.000929547
15 *603:18 0.000489433
16 *603:14 0.00145615
17 *603:12 0.000286662
18 *603:10 0.000186218
19 *3176:CLK *2991:A0 0.000196376
20 *3213:CLK *2762:A1 7.56215e-05
21 *3216:CLK *2702:A1 0.000116281
22 *3216:CLK *869:8 4.90291e-05
23 *3222:CLK *3081:A0 0
24 *603:10 *3401:A 5.05437e-05
25 *603:12 *2966:A0 8.7152e-06
26 *603:14 *2966:A0 0.000111012
27 *603:33 *2693:A 2.39856e-05
28 *603:33 *3089:A1 8.41307e-05
29 *603:33 *3370:A 2.25953e-05
30 *603:35 *3083:A0 0
31 *2702:B1 *3216:CLK 0.000155475
32 *2707:B1 *3176:CLK 0
33 *2708:B1 *3176:CLK 9.71067e-05
34 *2760:B1 *3216:CLK 2.05641e-05
35 *2767:A2 *603:10 5.72752e-05
36 *2767:A2 *603:12 8.31977e-06
37 *2768:B *3212:CLK 1.43187e-05
38 *2768:B *603:33 0.00010603
39 *2768:C *3212:CLK 3.09774e-05
40 *2991:A1 *3176:CLK 5.30711e-05
41 *2991:S *3166:CLK 0
42 *2991:S *3176:CLK 0.000198945
43 *2992:A *3176:CLK 0.000207407
44 *3065:A *3176:CLK 0.000134922
45 *3081:S *3222:CLK 0
46 *3086:S *603:35 7.899e-05
47 *3089:A0 *603:33 0.000196066
48 *3089:S *603:33 2.68526e-05
49 *3090:A *603:33 0.000446232
50 *3100:A *3216:CLK 4.66473e-05
51 *3166:D *3166:CLK 9.13949e-06
52 *3166:D *3176:CLK 2.86975e-05
53 *3166:D *603:92 9.18221e-05
54 *3211:D *3222:CLK 9.53994e-05
55 *3212:D *603:33 1.43717e-05
56 *3213:D *3213:CLK 0.000108401
57 *176:71 *3213:CLK 0.00013492
58 *181:24 *3181:CLK 4.66108e-05
59 *181:24 *603:10 0.000179015
60 *181:24 *603:12 0.000195573
61 *181:24 *603:14 0.000536023
62 *181:24 *603:18 0.000257889
63 *181:24 *603:92 1.91597e-05
64 *181:61 *3216:CLK 0
65 *193:40 *3216:CLK 0.000401707
66 *197:40 *3216:CLK 0.000100551
67 *207:26 *603:12 8.27857e-05
68 *207:26 *603:14 0.000421995
69 *207:26 *603:18 0.000257889
70 *207:94 *3176:CLK 5.16348e-05
71 *207:94 *603:10 8.65905e-05
72 *358:85 *3223:CLK 8.40269e-05
73 *365:58 *603:35 0.000129951
74 *370:32 *3213:CLK 0.000151474
75 *370:32 *3222:CLK 0.00032976
76 *370:32 *603:35 0.000712739
77 *380:10 *603:35 0
78 *380:12 *603:35 0
79 *395:24 *3176:CLK 9.43764e-06
80 *395:24 *3181:CLK 0.000538452
81 *395:24 *603:92 9.01463e-05
82 *395:30 *3176:CLK 1.48096e-05
83 *395:30 *3216:CLK 0.000239772
84 *395:40 *3216:CLK 0.000379027
85 *421:20 *3181:CLK 2.75229e-05
86 *433:10 *3176:CLK 0
87 *495:8 *603:35 0
88 *498:8 *3213:CLK 7.3727e-05
89 *498:8 *603:35 1.51628e-05
*RES
1 *3298:X *603:10 6.54 
2 *603:10 *603:12 2.4 
3 *603:12 *603:14 6.735 
4 *603:14 *603:18 5.165 
5 *603:18 *3212:CLK 2.41 
6 *603:18 *603:33 10.055 
7 *603:33 *603:35 8.52 
8 *603:35 *3222:CLK 7.53 
9 *603:35 *3223:CLK 4.395 
10 *603:33 *3213:CLK 8.7 
11 *603:14 *3216:CLK 26.245 
12 *603:12 *3167:CLK 3.6 
13 *603:10 *603:88 2 
14 *603:88 *603:92 4.605 
15 *603:92 *3176:CLK 14.15 
16 *603:92 *3166:CLK 1.96 
17 *603:88 *3181:CLK 7.69 
*END

*D_NET *604 0.0120303
*CONN
*I *3177:CLK I *D sky130_fd_sc_hd__dfxtp_1
*I *3188:CLK I *D sky130_fd_sc_hd__dfxtp_1
*I *3190:CLK I *D sky130_fd_sc_hd__dfxtp_1
*I *3194:CLK I *D sky130_fd_sc_hd__dfxtp_1
*I *3195:CLK I *D sky130_fd_sc_hd__dfxtp_1
*I *3191:CLK I *D sky130_fd_sc_hd__dfxtp_1
*I *3186:CLK I *D sky130_fd_sc_hd__dfxtp_1
*I *3187:CLK I *D sky130_fd_sc_hd__dfxtp_1
*I *3185:CLK I *D sky130_fd_sc_hd__dfxtp_1
*I *3184:CLK I *D sky130_fd_sc_hd__dfxtp_1
*I *3189:CLK I *D sky130_fd_sc_hd__dfxtp_1
*I *3173:CLK I *D sky130_fd_sc_hd__dfxtp_1
*I *3172:CLK I *D sky130_fd_sc_hd__dfxtp_1
*I *3299:X O *D sky130_fd_sc_hd__clkbuf_8
*CAP
1 *3177:CLK 0
2 *3188:CLK 0
3 *3190:CLK 0.000182111
4 *3194:CLK 2.51931e-05
5 *3195:CLK 0.00010042
6 *3191:CLK 0
7 *3186:CLK 0
8 *3187:CLK 0
9 *3185:CLK 0
10 *3184:CLK 0
11 *3189:CLK 0.00029351
12 *3173:CLK 6.32056e-05
13 *3172:CLK 0.000386811
14 *3299:X 0.00023723
15 *604:136 0.000252299
16 *604:134 0.000588235
17 *604:123 0.000377807
18 *604:116 0.000709026
19 *604:99 0.000949872
20 *604:92 0.000496693
21 *604:79 0.00054096
22 *604:71 0.000457255
23 *604:56 0.000740655
24 *604:37 0.000502664
25 *604:20 0.000592045
26 *604:14 0.000376379
27 *3194:CLK *3030:A0 4.66108e-05
28 *3195:CLK *3028:A0 0.000114492
29 *604:14 *2993:A0 0.000271574
30 *604:20 *2983:A1 0.000271303
31 *604:56 *2782:B2 0
32 *604:71 *2782:B2 0
33 *604:99 *866:8 2.75229e-05
34 *604:116 *3015:A0 7.89767e-05
35 *604:116 *865:8 0.000274947
36 *604:116 *866:8 2.30292e-05
37 *604:134 *3028:A0 1.56428e-05
38 *604:136 *3028:A0 0.000154488
39 *604:136 *3030:A0 0
40 *2981:A0 *604:20 2.05056e-05
41 *2981:S *604:20 4.21973e-05
42 *2982:A *3172:CLK 0.000117832
43 *2983:A0 *604:20 3.26889e-05
44 *2983:S *604:20 0.000232099
45 *2994:A *604:14 0
46 *3023:S *3189:CLK 8.40213e-05
47 *3024:A *3189:CLK 4.38278e-05
48 *3024:A *604:71 4.05363e-05
49 *3024:A *604:79 3.75882e-06
50 *3066:A0 *3172:CLK 0.000137269
51 *3172:D *3172:CLK 1.43717e-05
52 *3173:D *604:37 0.000141599
53 *3177:D *604:20 0.000197264
54 *3184:D *604:79 4.59586e-05
55 *3184:D *604:92 1.43521e-05
56 *3185:D *604:92 0.00022034
57 *3185:D *604:99 0.000102006
58 *3186:D *604:116 0.000102138
59 *3186:D *604:123 8.65905e-05
60 *3187:D *604:116 0.000130846
61 *3188:D *604:79 2.69153e-05
62 *3190:D *3190:CLK 0.000113663
63 *3191:D *604:134 0.000202686
64 *3191:D *604:136 0
65 *3194:D *3195:CLK 0
66 *3195:D *3195:CLK 9.50342e-06
67 *190:28 *604:14 4.40812e-05
68 *208:120 *3172:CLK 1.83847e-05
69 *208:139 *3172:CLK 0.000185405
70 *208:139 *3173:CLK 2.64421e-05
71 *208:139 *604:37 0.000153726
72 *208:139 *604:56 5.32745e-05
73 *215:28 *604:20 0.000104095
74 *432:102 *3172:CLK 0
75 *432:102 *604:37 0
76 *432:102 *604:56 0
77 *442:99 *604:56 7.11806e-05
78 *442:99 *604:71 5.9803e-05
79 *445:109 *604:14 0
*RES
1 *3299:X *604:14 9.86 
2 *604:14 *604:20 7.295 
3 *604:20 *3172:CLK 10.71 
4 *604:20 *604:37 2.2725 
5 *604:37 *3173:CLK 4.7325 
6 *604:37 *604:56 6.6525 
7 *604:56 *3189:CLK 8.205 
8 *604:56 *604:71 3.89 
9 *604:71 *604:79 8.465 
10 *604:79 *3184:CLK 3.6 
11 *604:79 *604:92 5.285 
12 *604:92 *3185:CLK 1.6 
13 *604:92 *604:99 5.625 
14 *604:99 *3187:CLK 1.6 
15 *604:99 *604:116 15.16 
16 *604:116 *3186:CLK 1.6 
17 *604:116 *604:123 1.83 
18 *604:123 *3191:CLK 1.6 
19 *604:123 *604:134 6.605 
20 *604:134 *604:136 2.655 
21 *604:136 *3195:CLK 5.49 
22 *604:136 *3194:CLK 4.05 
23 *604:134 *3190:CLK 6.825 
24 *604:71 *3188:CLK 1.6 
25 *604:14 *3177:CLK 1.6 
*END

*D_NET *605 0.0114356
*CONN
*I *3162:CLK I *D sky130_fd_sc_hd__dfxtp_1
*I *3151:CLK I *D sky130_fd_sc_hd__dfxtp_1
*I *3142:CLK I *D sky130_fd_sc_hd__dfxtp_1
*I *3159:CLK I *D sky130_fd_sc_hd__dfxtp_1
*I *3164:CLK I *D sky130_fd_sc_hd__dfxtp_1
*I *3165:CLK I *D sky130_fd_sc_hd__dfxtp_1
*I *3137:CLK I *D sky130_fd_sc_hd__dfxtp_1
*I *3158:CLK I *D sky130_fd_sc_hd__dfxtp_1
*I *3143:CLK I *D sky130_fd_sc_hd__dfxtp_1
*I *3150:CLK I *D sky130_fd_sc_hd__dfxtp_1
*I *3140:CLK I *D sky130_fd_sc_hd__dfxtp_1
*I *3300:X O *D sky130_fd_sc_hd__clkbuf_8
*CAP
1 *3162:CLK 3.16811e-05
2 *3151:CLK 1.63287e-05
3 *3142:CLK 9.13197e-05
4 *3159:CLK 0
5 *3164:CLK 0
6 *3165:CLK 0.000131712
7 *3137:CLK 7.43646e-05
8 *3158:CLK 0
9 *3143:CLK 0
10 *3150:CLK 0
11 *3140:CLK 0.000235869
12 *3300:X 0.000500224
13 *605:90 0.000681229
14 *605:86 0.000674408
15 *605:82 0.00023343
16 *605:52 0.000827829
17 *605:34 0.000820958
18 *605:32 0.000443332
19 *605:26 0.000326886
20 *605:24 0.000627407
21 *605:18 0.000669394
22 *605:16 0.000727261
23 *3165:CLK *889:10 4.39911e-06
24 *605:16 *759:93 0
25 *605:24 *2727:B2 0.000908008
26 *605:24 *2893:A0 0
27 *605:24 *912:8 0
28 *605:26 *2727:B2 0.000160658
29 *605:26 *912:8 0
30 *605:32 *2727:B2 0.000132096
31 *605:32 *3354:A 7.70828e-05
32 *605:32 *912:8 0
33 *605:52 *2938:A0 0
34 *605:52 *3436:A 5.07419e-05
35 *2805:A2 *605:24 0.000197778
36 *2807:A1 *3162:CLK 2.90558e-05
37 *2807:A1 *605:16 4.61338e-05
38 *2807:A1 *605:18 1.22248e-05
39 *2807:B1 *3151:CLK 1.90686e-05
40 *2807:B1 *605:18 0.000285012
41 *2807:B1 *605:24 3.00355e-05
42 *2891:A *605:86 5.53774e-05
43 *2894:A *605:52 0.000142015
44 *2915:A *3140:CLK 0.000139251
45 *2915:A *605:52 0
46 *2938:A1 *605:52 3.68682e-05
47 *2938:S *605:52 0
48 *2939:A *605:52 4.05358e-05
49 *2951:A *605:16 0.000107396
50 *2957:A *3137:CLK 1.20052e-05
51 *2959:A *3137:CLK 9.30717e-05
52 *3142:D *3142:CLK 0.00020525
53 *3143:D *605:34 0.000113663
54 *3143:D *605:52 0
55 *3150:D *3140:CLK 3.25831e-05
56 *3150:D *605:52 6.78808e-05
57 *3154:D *605:52 0
58 *3158:D *605:32 0.000102006
59 *3158:D *605:34 0.000416149
60 *3162:D *605:16 1.69392e-05
61 *3164:D *605:90 4.82319e-06
62 *3165:D *3137:CLK 3.67779e-05
63 *3165:D *3165:CLK 1.83847e-05
64 *3300:A *605:16 0.000122797
65 *328:18 *605:16 0
66 *350:40 *605:16 0.000179186
67 *350:40 *605:18 0.000253909
68 *351:34 *605:16 0
69 *359:39 *3140:CLK 0
70 *359:62 *3142:CLK 0.000127476
71 *359:62 *605:52 2.11344e-05
72 *372:12 *605:24 0
73 *385:16 *3140:CLK 0
74 *385:16 *605:52 2.42236e-05
*RES
1 *3300:X *605:16 14.4725 
2 *605:16 *605:18 4.7625 
3 *605:18 *605:24 13.265 
4 *605:24 *605:26 1.89 
5 *605:26 *605:32 6.575 
6 *605:32 *605:34 5.625 
7 *605:34 *605:52 17.75 
8 *605:52 *3140:CLK 9.785 
9 *605:52 *3150:CLK 1.6 
10 *605:34 *3143:CLK 1.6 
11 *605:32 *3158:CLK 1.6 
12 *605:26 *605:82 2.45 
13 *605:82 *605:86 3.225 
14 *605:86 *605:90 5.205 
15 *605:90 *3137:CLK 7.34 
16 *605:90 *3165:CLK 3.355 
17 *605:86 *3164:CLK 1.6 
18 *605:82 *3159:CLK 1.6 
19 *605:24 *3142:CLK 6.465 
20 *605:18 *3151:CLK 1.96 
21 *605:16 *3162:CLK 2.5825 
*END

*D_NET *606 0.0141033
*CONN
*I *3259:CLK I *D sky130_fd_sc_hd__dfxtp_1
*I *3261:CLK I *D sky130_fd_sc_hd__dfxtp_1
*I *3138:CLK I *D sky130_fd_sc_hd__dfxtp_1
*I *3175:CLK I *D sky130_fd_sc_hd__dfxtp_1
*I *3174:CLK I *D sky130_fd_sc_hd__dfxtp_1
*I *3245:CLK I *D sky130_fd_sc_hd__dfxtp_1
*I *3244:CLK I *D sky130_fd_sc_hd__dfxtp_1
*I *3156:CLK I *D sky130_fd_sc_hd__dfxtp_1
*I *3157:CLK I *D sky130_fd_sc_hd__dfxtp_1
*I *3301:X O *D sky130_fd_sc_hd__clkbuf_8
*CAP
1 *3259:CLK 0.000884949
2 *3261:CLK 1.57356e-05
3 *3138:CLK 0
4 *3175:CLK 0.000262603
5 *3174:CLK 0
6 *3245:CLK 0
7 *3244:CLK 0.000306584
8 *3156:CLK 0.000266984
9 *3157:CLK 0.000229718
10 *3301:X 0
11 *606:111 0.00119447
12 *606:92 0.000495802
13 *606:64 0.000566768
14 *606:58 0.00124247
15 *606:33 0.001132
16 *606:27 0.000347407
17 *606:8 0.000965837
18 *606:4 0.000798421
19 *3156:CLK *2801:B2 0
20 *3156:CLK *2922:A0 0
21 *3157:CLK *3327:A 2.75707e-05
22 *3157:CLK *748:38 0.000157602
23 *3175:CLK *608:46 0.000158175
24 *3175:CLK *608:82 8.60799e-05
25 *3259:CLK *2623:A1 2.95028e-05
26 *3259:CLK *2753:C1 1.60541e-05
27 *3259:CLK *759:47 4.89314e-05
28 *606:27 *3327:A 5.51245e-05
29 *606:27 *748:38 0.000132096
30 *606:58 *2878:A1 7.23602e-05
31 *2557:A *606:58 0.0001673
32 *2583:S *606:58 0.000262715
33 *2584:A *3244:CLK 0
34 *2586:A *606:64 0
35 *2620:S *3259:CLK 0.000131871
36 *2626:A *3259:CLK 7.96104e-06
37 *2747:B1 *606:58 4.59585e-05
38 *2751:C *3175:CLK 0.000169382
39 *2751:C *606:92 7.68414e-06
40 *2752:B *3244:CLK 2.74281e-05
41 *2753:B1 *3259:CLK 5.82477e-05
42 *2753:B2 *3259:CLK 1.88602e-05
43 *2801:B1 *3156:CLK 2.97004e-06
44 *2801:B1 *606:58 5.64695e-05
45 *2802:C1 *3156:CLK 3.86529e-05
46 *2876:A0 *606:8 0.000232111
47 *2878:S *606:58 0.000105416
48 *2902:B *3244:CLK 0.000185532
49 *2902:B *606:64 7.56583e-05
50 *2908:B *606:58 0.00014619
51 *2933:A *3157:CLK 5.58436e-05
52 *2949:B *3259:CLK 0
53 *2955:B *3259:CLK 0.000116158
54 *2987:A *606:92 8.40213e-05
55 *3138:D *606:27 1.43717e-05
56 *3156:D *3156:CLK 1.43717e-05
57 *3174:D *3175:CLK 8.73592e-05
58 *3174:D *606:92 5.68158e-05
59 *3244:D *3244:CLK 5.61943e-05
60 *3245:D *606:64 3.17463e-05
61 *3258:CLK *3259:CLK 0.000408411
62 *3261:D *3259:CLK 4.59748e-05
63 *3271:D *3259:CLK 5.39961e-05
64 *212:38 *606:92 0.000139593
65 *212:49 *606:64 0.000173018
66 *212:49 *606:92 6.52265e-05
67 *215:147 *606:58 6.08048e-05
68 *231:101 *3244:CLK 1.97429e-05
69 *299:34 *606:58 3.18207e-05
70 *325:100 *3157:CLK 5.85626e-05
71 *328:18 *3259:CLK 0
72 *328:58 *606:58 8.68075e-05
73 *351:34 *606:8 2.65086e-05
74 *359:35 *606:27 0.00012541
75 *359:35 *606:33 9.27326e-05
76 *359:37 *3156:CLK 0
77 *362:10 *606:58 5.7164e-05
78 *370:32 *3244:CLK 0
79 *370:32 *606:58 0.000321699
80 *374:107 *3244:CLK 0
81 *385:16 *3156:CLK 0
82 *385:16 *606:58 3.13916e-05
83 *400:12 *606:8 0.000128545
84 *403:22 *606:58 0
85 *415:41 *3259:CLK 0.000359686
86 *571:10 *3259:CLK 6.56614e-05
*RES
1 *3301:X *606:4 1.6 
2 *606:4 *606:8 9.695 
3 *606:8 *3157:CLK 7.59 
4 *606:8 *606:27 6.845 
5 *606:27 *606:33 3.935 
6 *606:33 *3156:CLK 7.53 
7 *606:33 *606:58 19.175 
8 *606:58 *606:64 6.755 
9 *606:64 *3244:CLK 9.33 
10 *606:64 *3245:CLK 3.6 
11 *606:58 *606:92 4.26 
12 *606:92 *3174:CLK 1.6 
13 *606:92 *3175:CLK 7.225 
14 *606:27 *3138:CLK 1.6 
15 *606:4 *606:111 3.555 
16 *606:111 *3261:CLK 1.96 
17 *606:111 *3259:CLK 23.0225 
*END

*D_NET *607 0.0153225
*CONN
*I *3306:A I *D sky130_fd_sc_hd__clkbuf_2
*I *3304:A I *D sky130_fd_sc_hd__clkbuf_4
*I *3305:A I *D sky130_fd_sc_hd__buf_4
*I *3453:X O *D sky130_fd_sc_hd__dlymetal6s2s_1
*CAP
1 *3306:A 0.000945256
2 *3304:A 0.00193723
3 *3305:A 0
4 *3453:X 0.00156646
5 *607:33 0.00396404
6 *607:14 0.00264801
7 *3304:A *759:47 0.00035641
8 *3304:A *774:83 0.000198013
9 *607:14 *3427:A 0
10 *607:14 *855:12 0.000114524
11 *607:33 *2709:D 0
12 *607:33 *3265:D 6.10014e-05
13 *607:33 *652:8 0
14 *607:33 *773:60 5.05716e-06
15 *2823:B *607:33 0.000275235
16 *2853:A1_N *3306:A 0.000136435
17 *2853:A2_N *3306:A 4.66108e-05
18 *2853:B1 *3306:A 0.000141822
19 *3131:CLK *3306:A 3.89775e-05
20 *3131:CLK *607:33 8.66375e-05
21 *3263:CLK *607:33 0
22 *3290:A *607:33 0.000292221
23 *186:14 *607:14 0
24 *211:18 *3306:A 3.93775e-05
25 *211:18 *607:33 0.000818725
26 *320:10 *607:33 0.000262575
27 *361:33 *3304:A 0.000527896
28 *415:41 *3304:A 0.000366835
29 *419:43 *3304:A 0
30 *590:222 *3304:A 0.000476158
31 *595:10 *607:33 1.69508e-05
32 *595:12 *607:33 0
*RES
1 *3453:X *607:14 30.95 
2 *607:14 *3305:A 1.6 
3 *607:14 *607:33 24.0229 
4 *607:33 *3304:A 12.887 
5 *607:33 *3306:A 17.5829 
*END

*D_NET *608 0.0170539
*CONN
*I *2777:B I *D sky130_fd_sc_hd__and3_1
*I *2769:B I *D sky130_fd_sc_hd__and3_1
*I *2740:A2 I *D sky130_fd_sc_hd__a31o_1
*I *2727:A2 I *D sky130_fd_sc_hd__a22o_1
*I *2800:A2 I *D sky130_fd_sc_hd__a221o_1
*I *3455:X O *D sky130_fd_sc_hd__clkbuf_2
*CAP
1 *2777:B 0.000124336
2 *2769:B 0.000236432
3 *2740:A2 0
4 *2727:A2 4.0006e-05
5 *2800:A2 0.000994661
6 *3455:X 0.000626303
7 *608:82 0.000774436
8 *608:46 0.00218568
9 *608:24 0.00213968
10 *608:16 0.0012013
11 *2727:A2 *2727:A1 4.00541e-06
12 *2769:B *2740:A1 8.04972e-05
13 *2777:B *3115:A0 6.38291e-05
14 *2800:A2 *2800:B1 0.000102006
15 *2800:A2 *737:30 0.00031294
16 *608:16 *2538:A1 7.23602e-05
17 *608:16 *2699:A2 1.55253e-05
18 *608:16 *2777:A 5.55694e-05
19 *608:16 *678:16 9.83921e-06
20 *608:24 *2741:A 0.000368586
21 *608:24 *3115:A0 8.53113e-06
22 *608:46 *2749:A 0.000137894
23 *608:46 *2750:A1 0.000205223
24 *608:46 *2802:B2 6.14689e-05
25 *608:46 *3327:A 0.000206123
26 *608:46 *3433:A 0.000198051
27 *608:46 *748:28 1.62834e-05
28 *608:46 *748:38 0
29 *608:46 *919:10 0.000134236
30 *608:82 *2740:A1 3.13354e-05
31 *608:82 *878:10 2.31329e-05
32 *2537:A *608:16 5.87261e-05
33 *2728:C *608:46 4.21973e-05
34 *2740:A3 *2769:B 4.27523e-05
35 *2740:A3 *608:82 1.16854e-05
36 *2742:B1 *608:82 0.000119251
37 *2743:C *608:16 4.38051e-05
38 *2744:C *2769:B 3.12419e-05
39 *2751:A *608:16 0.000245212
40 *2751:C *608:24 4.79442e-05
41 *2751:C *608:46 0.000146711
42 *2751:D *608:46 0.000305415
43 *2752:A *2800:A2 0.000361055
44 *2769:C *2769:B 5.73568e-06
45 *2773:A *2769:B 4.94457e-05
46 *2805:B1 *2800:A2 3.05529e-05
47 *2806:B *2727:A2 4.66108e-05
48 *2806:B *608:46 0.000307054
49 *2908:C *608:46 3.05733e-05
50 *2931:B *608:16 0.000245943
51 *2951:A *2800:A2 7.58543e-05
52 *2986:A1 *608:46 1.88602e-05
53 *2988:A1 *608:24 1.88656e-05
54 *3123:A0 *2777:B 4.49328e-05
55 *3123:A0 *608:24 7.21296e-06
56 *3175:CLK *608:46 0.000158175
57 *3175:CLK *608:82 8.60799e-05
58 *3175:D *608:24 0
59 *3175:D *608:82 1.54049e-05
60 *174:40 *608:46 0
61 *187:53 *608:46 0.000117664
62 *192:44 *608:16 0.000117832
63 *212:18 *2777:B 0.000179015
64 *212:18 *608:24 0.000151403
65 *212:38 *608:24 0.000115906
66 *215:102 *608:46 8.16666e-05
67 *218:55 *2769:B 8.49205e-05
68 *231:59 *608:46 0
69 *322:76 *608:46 0.000123046
70 *325:58 *608:46 0
71 *351:52 *608:46 5.73518e-05
72 *358:20 *608:46 0.000146115
73 *358:67 *608:24 0.000656334
74 *358:67 *608:46 0.000593887
75 *359:10 *608:46 0.000117832
76 *359:35 *608:46 0.000505589
77 *372:12 *2800:A2 0.000170543
78 *374:16 *2727:A2 0
79 *374:16 *2800:A2 6.86133e-05
80 *399:16 *608:16 0.000234354
81 *430:24 *2777:B 8.23457e-05
82 *476:16 *608:16 5.00903e-05
83 *476:26 *608:16 8.34462e-05
84 *511:38 *608:16 0.000267846
85 *511:70 *608:24 2.05573e-05
*RES
1 *3455:X *608:16 21.985 
2 *608:16 *608:24 13.88 
3 *608:24 *608:46 34.09 
4 *608:46 *2800:A2 26.7675 
5 *608:46 *2727:A2 2.41 
6 *608:24 *608:82 8.055 
7 *608:82 *2740:A2 1.6 
8 *608:82 *2769:B 5.785 
9 *608:16 *2777:B 6.54 
*END

*D_NET *609 0.00114472
*CONN
*I *2615:A1 I *D sky130_fd_sc_hd__mux2_1
*I *3437:X O *D sky130_fd_sc_hd__dlygate4sd3_1
*CAP
1 *2615:A1 0.000289059
2 *3437:X 0.000289059
3 *2613:S *2615:A1 5.11729e-05
4 *2615:A0 *2615:A1 4.82863e-05
5 *2797:C1 *2615:A1 0.000306155
6 *528:87 *2615:A1 2.30292e-05
7 *535:6 *2615:A1 8.49205e-05
8 *568:10 *2615:A1 9.82856e-06
9 *591:12 *2615:A1 4.32126e-05
*RES
1 *3437:X *2615:A1 12.24 
*END

*D_NET *610 0.000965652
*CONN
*I *3073:A0 I *D sky130_fd_sc_hd__mux2_1
*I *3438:X O *D sky130_fd_sc_hd__dlygate4sd3_1
*CAP
1 *3073:A0 0.000201357
2 *3438:X 0.000201357
3 *3073:A0 *3438:A 0.000134784
4 *3073:A0 *842:14 0.000207307
5 *3206:D *3073:A0 0.000139933
6 *602:29 *3073:A0 3.68426e-05
7 *602:40 *3073:A0 4.4073e-05
*RES
1 *3438:X *3073:A0 12.27 
*END

*D_NET *611 0.000458236
*CONN
*I *2884:A1 I *D sky130_fd_sc_hd__mux2_1
*I *3439:X O *D sky130_fd_sc_hd__dlygate4sd3_1
*CAP
1 *2884:A1 0.000118868
2 *3439:X 0.000118868
3 *2884:A1 *2804:B2 0.000121437
4 *359:37 *2884:A1 2.67022e-05
5 *366:10 *2884:A1 7.23602e-05
*RES
1 *3439:X *2884:A1 9.21 
*END

*D_NET *612 0.000256388
*CONN
*I *2598:A1 I *D sky130_fd_sc_hd__mux2_1
*I *3440:X O *D sky130_fd_sc_hd__dlygate4sd3_1
*CAP
1 *2598:A1 5.44817e-05
2 *3440:X 5.44817e-05
3 *2567:A *2598:A1 8.88715e-05
4 *316:51 *2598:A1 5.85534e-05
*RES
1 *3440:X *2598:A1 4.685 
*END

*D_NET *613 0.000272915
*CONN
*I *2890:A0 I *D sky130_fd_sc_hd__mux2_1
*I *3441:X O *D sky130_fd_sc_hd__dlygate4sd3_1
*CAP
1 *2890:A0 0.000136458
2 *3441:X 0.000136458
*RES
1 *3441:X *2890:A0 5.03 
*END

*D_NET *614 0.000379462
*CONN
*I *2578:A1 I *D sky130_fd_sc_hd__mux2_1
*I *3443:X O *D sky130_fd_sc_hd__dlygate4sd3_1
*CAP
1 *2578:A1 0.000109413
2 *3443:X 0.000109413
3 *511:101 *2578:A1 0.000160635
*RES
1 *3443:X *2578:A1 4.685 
*END

*D_NET *615 0.000305366
*CONN
*I *3038:A1 I *D sky130_fd_sc_hd__mux2_1
*I *3444:X O *D sky130_fd_sc_hd__dlygate4sd3_1
*CAP
1 *3038:A1 5.7819e-05
2 *3444:X 5.7819e-05
3 *3038:A1 *2686:B2 7.03276e-05
4 *2688:C1 *3038:A1 4.77769e-05
5 *432:94 *3038:A1 7.1624e-05
*RES
1 *3444:X *3038:A1 8.52 
*END

*D_NET *616 0.000708037
*CONN
*I *3018:A0 I *D sky130_fd_sc_hd__mux2_1
*I *3445:X O *D sky130_fd_sc_hd__dlygate4sd3_1
*CAP
1 *3018:A0 0.000256676
2 *3445:X 0.000256676
3 *3018:A1 *3018:A0 8.65961e-05
4 *3018:S *3018:A0 3.26328e-05
5 *3186:D *3018:A0 7.54567e-05
*RES
1 *3445:X *3018:A0 11.67 
*END

*D_NET *617 0.000481494
*CONN
*I *3061:A1 I *D sky130_fd_sc_hd__mux2_1
*I *3446:X O *D sky130_fd_sc_hd__dlygate4sd3_1
*CAP
1 *3061:A1 0.00018537
2 *3446:X 0.00018537
3 *3061:A1 *2731:A1 4.05674e-06
4 *3061:A1 *3446:A 1.7386e-05
5 *3061:S *3061:A1 3.12983e-05
6 *483:10 *3061:A1 5.80139e-05
*RES
1 *3446:X *3061:A1 10.56 
*END

*D_NET *618 0.000224219
*CONN
*I *2550:A1 I *D sky130_fd_sc_hd__mux2_1
*I *3447:X O *D sky130_fd_sc_hd__dlygate4sd3_1
*CAP
1 *2550:A1 0.000108762
2 *3447:X 0.000108762
3 *2550:A0 *2550:A1 6.69608e-06
4 *500:39 *2550:A1 0
*RES
1 *3447:X *2550:A1 8.52 
*END

*D_NET *619 0.0112185
*CONN
*I *3134:RESET_B I *D sky130_fd_sc_hd__dfrtp_1
*I *3276:RESET_B I *D sky130_fd_sc_hd__dfrtp_1
*I *3277:RESET_B I *D sky130_fd_sc_hd__dfrtp_1
*I *3283:SET_B I *D sky130_fd_sc_hd__dfstp_1
*I *3262:RESET_B I *D sky130_fd_sc_hd__dfrtp_1
*I *3272:RESET_B I *D sky130_fd_sc_hd__dfrtp_4
*I *3273:RESET_B I *D sky130_fd_sc_hd__dfrtp_1
*I *3284:RESET_B I *D sky130_fd_sc_hd__dfrtp_1
*I *3280:RESET_B I *D sky130_fd_sc_hd__dfrtp_1
*I *3274:RESET_B I *D sky130_fd_sc_hd__dfrtp_1
*I *3302:X O *D sky130_fd_sc_hd__clkbuf_4
*CAP
1 *3134:RESET_B 5.23e-06
2 *3276:RESET_B 0
3 *3277:RESET_B 1.45779e-05
4 *3283:SET_B 8.2117e-05
5 *3262:RESET_B 4.26074e-05
6 *3272:RESET_B 0.000141426
7 *3273:RESET_B 0.000121788
8 *3284:RESET_B 1.33538e-05
9 *3280:RESET_B 0.000831604
10 *3274:RESET_B 0.0011235
11 *3302:X 0.00043107
12 *619:80 0.000786359
13 *619:64 0.00106404
14 *619:56 0.000646431
15 *619:54 0.000311742
16 *619:52 0.000232752
17 *619:50 0.000729385
18 *619:8 0.00139275
19 *3272:RESET_B *797:12 0.000230932
20 *3273:RESET_B *797:12 9.23578e-05
21 *3274:RESET_B *2646:A_N 9.09136e-05
22 *3274:RESET_B *2825:D_N 0.000411441
23 *3274:RESET_B *3267:D 0
24 *3274:RESET_B *3274:D 3.20382e-05
25 *3274:RESET_B *3361:A 0.000111066
26 *3274:RESET_B *679:8 5.73375e-05
27 *3274:RESET_B *682:20 0
28 *3277:RESET_B *2644:A0 2.20753e-05
29 *3280:RESET_B *682:20 6.95945e-05
30 *619:50 *2637:A 0
31 *619:50 *2655:B 7.04759e-05
32 *619:50 *2655:C_N 4.66108e-05
33 *619:50 *2664:A2 0
34 *619:50 *2665:A 0
35 *619:50 *682:20 0
36 *619:50 *782:10 0
37 *619:50 *787:16 0.000258665
38 *619:50 *794:6 8.43255e-05
39 *619:50 *795:97 8.40213e-05
40 *619:52 *2644:S 0
41 *619:52 *787:16 0.000116158
42 *619:54 *2644:S 0
43 *619:54 *783:10 3.38982e-05
44 *619:54 *787:16 7.30547e-05
45 *2635:A *619:50 0.000116158
46 *2636:B2 *619:50 3.47668e-05
47 *3134:D *3134:RESET_B 1.95248e-05
48 *3134:D *3274:RESET_B 2.75229e-05
49 *3134:D *619:8 0.000159324
50 *3262:D *3262:RESET_B 4.70477e-05
51 *3262:D *619:56 3.68769e-05
52 *3262:D *619:64 2.03578e-05
53 *3277:CLK *3277:RESET_B 4.11729e-05
54 *3284:CLK *619:64 7.29836e-05
55 *3284:D *619:64 2.84514e-05
56 *10:25 *619:50 9.37731e-05
57 *157:16 *619:50 5.79405e-05
58 *163:20 *619:50 0.000108516
59 *590:226 *3274:RESET_B 0
60 *592:88 *3272:RESET_B 4.70393e-05
61 *592:114 *619:54 0
62 *592:114 *619:56 0
63 *592:127 *619:54 0
64 *593:29 *3280:RESET_B 0.000230135
65 *593:29 *619:50 6.16472e-05
66 *593:57 *3274:RESET_B 7.73272e-05
67 *593:57 *3280:RESET_B 7.78212e-05
68 *596:16 *3274:RESET_B 4.43871e-06
69 *596:16 *619:8 0
*RES
1 *3302:X *619:8 6.895 
2 *619:8 *3274:RESET_B 24.4225 
3 *3274:RESET_B *3280:RESET_B 8.3125 
4 *3280:RESET_B *619:50 19.965 
5 *619:50 *619:52 1.38 
6 *619:52 *619:54 2.91 
7 *619:54 *619:56 1.38 
8 *619:56 *619:64 10.295 
9 *619:64 *3284:RESET_B 0.3975 
10 *619:64 *619:80 8.45 
11 *619:80 *3273:RESET_B 4.1225 
12 *619:80 *3272:RESET_B 5.3975 
13 *619:56 *3262:RESET_B 2.7425 
14 *619:54 *3283:SET_B 3.0875 
15 *619:52 *3277:RESET_B 2.3975 
16 *619:50 *3276:RESET_B 2 
17 *619:8 *3134:RESET_B 0.3975 
*END

*D_NET *620 0.00177777
*CONN
*I *3030:A0 I *D sky130_fd_sc_hd__mux2_1
*I *3448:X O *D sky130_fd_sc_hd__dlygate4sd3_1
*CAP
1 *3030:A0 0.000583549
2 *3448:X 0.000583549
3 *3030:A0 *2686:B2 0
4 *3030:A0 *3342:A 4.99619e-05
5 *3030:A0 *860:8 0.00013566
6 *3030:S *3030:A0 0.000124895
7 *3031:A *3030:A0 0.000163204
8 *3194:CLK *3030:A0 4.66108e-05
9 *3194:D *3030:A0 9.03376e-05
10 *604:136 *3030:A0 0
*RES
1 *3448:X *3030:A0 17.355 
*END

*D_NET *621 0.00042085
*CONN
*I *2608:A1 I *D sky130_fd_sc_hd__mux2_1
*I *3449:X O *D sky130_fd_sc_hd__dlygate4sd3_1
*CAP
1 *2608:A1 7.87115e-05
2 *3449:X 7.87115e-05
3 *2608:A1 *2717:B2 1.54665e-05
4 *2608:A0 *2608:A1 0.000199021
5 *2609:A *2608:A1 4.89395e-05
*RES
1 *3449:X *2608:A1 5.375 
*END

*D_NET *622 0.000392523
*CONN
*I *2956:A1 I *D sky130_fd_sc_hd__mux2_1
*I *3450:X O *D sky130_fd_sc_hd__dlygate4sd3_1
*CAP
1 *2956:A1 0.00011268
2 *3450:X 0.00011268
3 *2956:A1 *889:10 7.4027e-05
4 *2956:A0 *2956:A1 3.79351e-05
5 *2956:S *2956:A1 1.16578e-05
6 *359:62 *2956:A1 4.35432e-05
7 *416:12 *2956:A1 0
*RES
1 *3450:X *2956:A1 9.585 
*END

*D_NET *623 0.00172046
*CONN
*I *2944:A1 I *D sky130_fd_sc_hd__mux2_1
*I *3451:X O *D sky130_fd_sc_hd__dlygate4sd3_1
*CAP
1 *2944:A1 0.000269582
2 *3451:X 0.000269582
3 *2944:A1 *2721:B2 3.83194e-05
4 *2944:A1 *2800:B2 4.34202e-05
5 *2944:A1 *3451:A 0.000345546
6 *2945:A *2944:A1 0.000419417
7 *3161:CLK *2944:A1 0.000158564
8 *3161:D *2944:A1 9.36823e-05
9 *351:123 *2944:A1 8.23457e-05
*RES
1 *3451:X *2944:A1 10.895 
*END

*D_NET *624 0.000887819
*CONN
*I *2966:A0 I *D sky130_fd_sc_hd__mux2_1
*I *3452:X O *D sky130_fd_sc_hd__dlygate4sd3_1
*CAP
1 *2966:A0 0.000213539
2 *3452:X 0.000213539
3 *207:26 *2966:A0 0.000111012
4 *421:28 *2966:A0 0.000230002
5 *603:12 *2966:A0 8.7152e-06
6 *603:14 *2966:A0 0.000111012
*RES
1 *3452:X *2966:A0 10.755 
*END

*D_NET *625 0.00153289
*CONN
*I *2969:A1 I *D sky130_fd_sc_hd__mux2_1
*I *3309:X O *D sky130_fd_sc_hd__dlygate4sd3_1
*CAP
1 *2969:A1 0.000616968
2 *3309:X 0.000616968
3 *2969:A1 *3309:A 6.50814e-05
4 *2969:S *2969:A1 0.00016254
5 *3168:D *2969:A1 7.13325e-05
*RES
1 *3309:X *2969:A1 11.72 
*END

*D_NET *626 0.000248759
*CONN
*I *2575:A1 I *D sky130_fd_sc_hd__mux2_1
*I *3310:X O *D sky130_fd_sc_hd__dlygate4sd3_1
*CAP
1 *2575:A1 5.20716e-05
2 *3310:X 5.20716e-05
3 *2575:A1 *806:14 7.23602e-05
4 *2575:A1 *807:20 0
5 *2575:S *2575:A1 7.22551e-05
*RES
1 *3310:X *2575:A1 8.685 
*END

*D_NET *627 0.00115625
*CONN
*I *3023:A1 I *D sky130_fd_sc_hd__mux2_1
*I *3311:X O *D sky130_fd_sc_hd__dlygate4sd3_1
*CAP
1 *3023:A1 0.000448261
2 *3311:X 0.000448261
3 *3023:A1 *863:8 0.000136435
4 *3023:S *3023:A1 0
5 *432:94 *3023:A1 2.75411e-05
6 *432:96 *3023:A1 7.1624e-05
7 *445:109 *3023:A1 2.41231e-05
*RES
1 *3311:X *3023:A1 13.275 
*END

*D_NET *628 0.000188969
*CONN
*I *2952:A1 I *D sky130_fd_sc_hd__mux2_1
*I *3312:X O *D sky130_fd_sc_hd__dlygate4sd3_1
*CAP
1 *2952:A1 2.04575e-05
2 *3312:X 2.04575e-05
3 *3163:D *2952:A1 7.4027e-05
4 *351:109 *2952:A1 7.4027e-05
*RES
1 *3312:X *2952:A1 8.07 
*END

*D_NET *629 0.000342572
*CONN
*I *3063:A1 I *D sky130_fd_sc_hd__mux2_1
*I *3313:X O *D sky130_fd_sc_hd__dlygate4sd3_1
*CAP
1 *3063:A1 0.000147464
2 *3313:X 0.000147464
3 *3063:S *3063:A1 4.76437e-05
*RES
1 *3313:X *3063:A1 9.21 
*END

*D_NET *630 0.00338732
*CONN
*I *3282:RESET_B I *D sky130_fd_sc_hd__dfrtp_1
*I *3278:RESET_B I *D sky130_fd_sc_hd__dfrtp_1
*I *3281:RESET_B I *D sky130_fd_sc_hd__dfrtp_4
*I *3279:RESET_B I *D sky130_fd_sc_hd__dfrtp_1
*I *3135:RESET_B I *D sky130_fd_sc_hd__dfrtp_1
*I *3303:X O *D sky130_fd_sc_hd__clkbuf_2
*CAP
1 *3282:RESET_B 8.45327e-05
2 *3278:RESET_B 0
3 *3281:RESET_B 0
4 *3279:RESET_B 5.2459e-05
5 *3135:RESET_B 0.000105984
6 *3303:X 0
7 *630:36 0.000325494
8 *630:18 0.000308329
9 *630:6 0.000402866
10 *630:4 0.000281974
11 *3135:RESET_B *3303:A 0.000161529
12 *3279:RESET_B *795:69 6.02202e-05
13 *630:18 *3303:A 0
14 *630:18 *786:12 0.000138807
15 *630:18 *795:69 2.47269e-05
16 *2638:S *630:36 0.000161529
17 *2639:A *3135:RESET_B 4.70919e-05
18 *2639:A *630:6 4.66826e-05
19 *2639:A *630:36 4.47125e-05
20 *2660:C *3279:RESET_B 7.21296e-06
21 *2660:C *630:18 6.06432e-05
22 *2663:A1 *630:18 0.000199303
23 *3282:D *3282:RESET_B 0
24 *3282:D *630:18 0.000489486
25 *3282:D *630:36 0
26 *10:25 *3279:RESET_B 0.000138544
27 *10:25 *630:18 0.000245192
*RES
1 *3303:X *630:4 1.6 
2 *630:4 *630:6 0.795 
3 *630:6 *3135:RESET_B 2.4825 
4 *630:6 *630:18 10.775 
5 *630:18 *3279:RESET_B 3.635 
6 *630:18 *3281:RESET_B 2 
7 *630:4 *630:36 6.575 
8 *630:36 *3278:RESET_B 2 
9 *630:36 *3282:RESET_B 3.38 
*END

*D_NET *631 0.000258982
*CONN
*I *2909:A1 I *D sky130_fd_sc_hd__mux2_1
*I *3314:X O *D sky130_fd_sc_hd__dlygate4sd3_1
*CAP
1 *2909:A1 5.91225e-05
2 *3314:X 5.91225e-05
3 *2909:A1 *901:10 7.23602e-05
4 *2909:A1 *907:8 4.05358e-05
5 *2909:A0 *2909:A1 1.16578e-05
6 *2909:S *2909:A1 1.61831e-05
*RES
1 *3314:X *2909:A1 8.52 
*END

*D_NET *632 0.00121784
*CONN
*I *3035:A1 I *D sky130_fd_sc_hd__mux2_1
*I *3315:X O *D sky130_fd_sc_hd__dlygate4sd3_1
*CAP
1 *3035:A1 0.000246772
2 *3315:X 0.000246772
3 *3035:A1 *3033:A1 0.000126927
4 *3035:A1 *3043:A1 0
5 *3033:S *3035:A1 1.91597e-05
6 *3034:A *3035:A1 0.00012657
7 *3043:A0 *3035:A1 0.000201508
8 *3045:A0 *3035:A1 1.19928e-05
9 *432:171 *3035:A1 0.000238137
*RES
1 *3315:X *3035:A1 13.02 
*END

*D_NET *633 0.000572401
*CONN
*I *2560:A1 I *D sky130_fd_sc_hd__mux2_1
*I *3316:X O *D sky130_fd_sc_hd__dlygate4sd3_1
*CAP
1 *2560:A1 0.000115285
2 *3316:X 0.000115285
3 *2560:A1 *2796:A1 6.00027e-05
4 *2560:A1 *816:12 4.66108e-05
5 *2558:S *2560:A1 0.000120655
6 *2560:S *2560:A1 0
7 *2561:A *2560:A1 7.4027e-05
8 *511:127 *2560:A1 4.05358e-05
*RES
1 *3316:X *2560:A1 10.17 
*END

*D_NET *634 0.000550497
*CONN
*I *2605:A1 I *D sky130_fd_sc_hd__mux2_1
*I *3317:X O *D sky130_fd_sc_hd__dlygate4sd3_1
*CAP
1 *2605:A1 0.000156627
2 *3317:X 0.000156627
3 *328:102 *2605:A1 0.000237243
*RES
1 *3317:X *2605:A1 5.375 
*END

*D_NET *635 0.00105964
*CONN
*I *3110:A1 I *D sky130_fd_sc_hd__mux2_1
*I *3318:X O *D sky130_fd_sc_hd__dlygate4sd3_1
*CAP
1 *3110:A1 0.000132861
2 *3318:X 0.000132861
3 *3110:A1 *726:38 0.000313764
4 *3110:S *3110:A1 4.82919e-05
5 *3118:A0 *3110:A1 0.000152134
6 *3120:A0 *3110:A1 8.23457e-05
7 *500:87 *3110:A1 3.74161e-05
8 *511:86 *3110:A1 0.000159964
*RES
1 *3318:X *3110:A1 12.015 
*END

*D_NET *636 0.000232567
*CONN
*I *2565:A1 I *D sky130_fd_sc_hd__mux2_1
*I *3320:X O *D sky130_fd_sc_hd__dlygate4sd3_1
*CAP
1 *2565:A1 5.61903e-05
2 *3320:X 5.61903e-05
3 *2565:A1 *810:12 0
4 *2565:A0 *2565:A1 0.000120186
*RES
1 *3320:X *2565:A1 8.58 
*END

*D_NET *637 0.00167316
*CONN
*I *3071:A0 I *D sky130_fd_sc_hd__mux2_1
*I *3321:X O *D sky130_fd_sc_hd__dlygate4sd3_1
*CAP
1 *3071:A0 0.000346834
2 *3321:X 0.000346834
3 *3071:A0 *2783:B2 0.000158536
4 *3071:A0 *842:14 0
5 *3071:A0 *843:6 2.86975e-05
6 *3053:A1 *3071:A0 0.00011852
7 *3072:A *3071:A0 0.000340242
8 *3074:A *3071:A0 0
9 *3209:D *3071:A0 0.000333496
10 *477:14 *3071:A0 0
*RES
1 *3321:X *3071:A0 15.705 
*END

*D_NET *638 0.000403581
*CONN
*I *2882:A1 I *D sky130_fd_sc_hd__mux2_1
*I *3322:X O *D sky130_fd_sc_hd__dlygate4sd3_1
*CAP
1 *2882:A1 9.81617e-05
2 *3322:X 9.81617e-05
3 *2883:A *2882:A1 4.89395e-05
4 *2909:A0 *2882:A1 4.77807e-05
5 *351:52 *2882:A1 0.000110537
*RES
1 *3322:X *2882:A1 5.375 
*END

*D_NET *639 0.000732296
*CONN
*I *2964:A0 I *D sky130_fd_sc_hd__mux2_1
*I *3323:X O *D sky130_fd_sc_hd__dlygate4sd3_1
*CAP
1 *2964:A0 0.000127623
2 *3323:X 0.000127623
3 *2964:A0 *3323:A 0.000352156
4 *2964:A1 *2964:A0 0.000124895
*RES
1 *3323:X *2964:A0 6.41 
*END

*D_NET *640 0.000874232
*CONN
*I *2613:A1 I *D sky130_fd_sc_hd__mux2_1
*I *3324:X O *D sky130_fd_sc_hd__dlygate4sd3_1
*CAP
1 *2613:A1 0.000313717
2 *3324:X 0.000313717
3 *2580:A0 *2613:A1 7.03276e-05
4 *2613:S *2613:A1 9.29545e-05
5 *212:77 *2613:A1 8.35157e-05
*RES
1 *3324:X *2613:A1 11.28 
*END

*D_NET *641 0.0124622
*CONN
*I *2824:C I *D sky130_fd_sc_hd__nand3_4
*I *3268:RESET_B I *D sky130_fd_sc_hd__dfrtp_1
*I *3302:A I *D sky130_fd_sc_hd__clkbuf_4
*I *3303:A I *D sky130_fd_sc_hd__clkbuf_2
*I *3267:RESET_B I *D sky130_fd_sc_hd__dfrtp_1
*I *3269:RESET_B I *D sky130_fd_sc_hd__dfrtp_1
*I *3271:RESET_B I *D sky130_fd_sc_hd__dfrtp_1
*I *3270:RESET_B I *D sky130_fd_sc_hd__dfrtp_1
*I *2545:C_N I *D sky130_fd_sc_hd__or3b_4
*I *3304:X O *D sky130_fd_sc_hd__clkbuf_4
*CAP
1 *2824:C 0
2 *3268:RESET_B 9.10543e-05
3 *3302:A 0.000300956
4 *3303:A 0.000245449
5 *3267:RESET_B 0.00122358
6 *3269:RESET_B 0
7 *3271:RESET_B 0.000122671
8 *3270:RESET_B 0.000778094
9 *2545:C_N 0.000110974
10 *3304:X 0.000199993
11 *641:79 0.00176998
12 *641:65 0.000186639
13 *641:33 0.00128099
14 *641:31 0.00167278
15 *641:21 0.00100439
16 *641:12 0.000363729
17 *2545:C_N *2545:A 2.16833e-05
18 *2545:C_N *2545:B 8.40269e-05
19 *3270:RESET_B *2640:A 1.54837e-05
20 *641:12 *2772:A 0.000188303
21 *641:21 *2545:B 0.000182143
22 *641:21 *775:97 8.3377e-05
23 *641:31 *2545:A 0.000192125
24 *641:31 *774:83 4.01778e-05
25 *641:33 *3348:A 0.000177142
26 *641:79 *3267:D 0.000311282
27 *641:79 *686:8 1.78115e-05
28 *2639:A *3303:A 0.000143266
29 *2772:C *641:12 7.06865e-05
30 *2773:A *641:12 0.000148881
31 *2971:A0 *3271:RESET_B 9.86707e-06
32 *2973:A *641:31 4.14882e-05
33 *3135:RESET_B *3303:A 0.000161529
34 *3170:CLK *641:33 0.000132821
35 *3275:D *3302:A 0.000139933
36 *3278:CLK *3302:A 0
37 *3278:CLK *3303:A 0
38 *3282:D *3303:A 0
39 *174:18 *2545:C_N 0.000254504
40 *174:18 *641:21 6.38781e-05
41 *174:26 *2545:C_N 4.77719e-05
42 *176:16 *641:12 8.49205e-05
43 *218:55 *641:12 4.76303e-05
44 *231:36 *641:31 7.13883e-05
45 *355:32 *641:31 7.06865e-05
46 *415:41 *641:12 1.80732e-05
47 *419:43 *641:31 4.65607e-05
48 *428:6 *641:31 1.0124e-05
49 *527:16 *2545:C_N 1.19928e-05
50 *590:226 *3268:RESET_B 0
51 *590:226 *3270:RESET_B 0
52 *590:226 *641:33 0
53 *590:226 *641:65 0
54 *592:12 *3271:RESET_B 0
55 *593:69 *3270:RESET_B 0
56 *593:106 *3270:RESET_B 0
57 *593:123 *3270:RESET_B 0
58 *593:123 *641:33 0
59 *593:127 *641:33 0.000221344
60 *630:18 *3303:A 0
*RES
1 *3304:X *641:12 10.01 
2 *641:12 *2545:C_N 4.465 
3 *641:12 *641:21 1.83 
4 *641:21 *641:31 17.67 
5 *641:31 *641:33 11.325 
6 *641:33 *3270:RESET_B 11.3075 
7 *3270:RESET_B *3271:RESET_B 6.19 
8 *641:33 *3269:RESET_B 2 
9 *641:31 *641:65 1.575 
10 *641:65 *3267:RESET_B 2 
11 *3267:RESET_B *641:79 15.8038 
12 *641:79 *3303:A 8.25 
13 *641:79 *3302:A 8.76 
14 *641:65 *3268:RESET_B 3.38 
15 *641:21 *2824:C 1.6 
*END

*D_NET *642 0.000601522
*CONN
*I *3033:A1 I *D sky130_fd_sc_hd__mux2_1
*I *3325:X O *D sky130_fd_sc_hd__dlygate4sd3_1
*CAP
1 *3033:A1 0.000188137
2 *3325:X 0.000188137
3 *3033:A1 *2687:B2 9.83202e-05
4 *3035:A1 *3033:A1 0.000126927
*RES
1 *3325:X *3033:A1 10.905 
*END

*D_NET *643 0.000459939
*CONN
*I *2946:A1 I *D sky130_fd_sc_hd__mux2_1
*I *3326:X O *D sky130_fd_sc_hd__dlygate4sd3_1
*CAP
1 *2946:A1 0.000168717
2 *3326:X 0.000168717
3 *2946:A0 *2946:A1 8.52972e-05
4 *359:88 *2946:A1 3.72081e-05
*RES
1 *3326:X *2946:A1 9.555 
*END

*D_NET *644 0.000162663
*CONN
*I *2932:A1 I *D sky130_fd_sc_hd__mux2_1
*I *3327:X O *D sky130_fd_sc_hd__dlygate4sd3_1
*CAP
1 *2932:A1 2.40502e-05
2 *3327:X 2.40502e-05
3 *231:59 *2932:A1 7.4027e-05
4 *359:35 *2932:A1 4.05358e-05
*RES
1 *3327:X *2932:A1 8.07 
*END

*D_NET *645 0.000855596
*CONN
*I *2958:A1 I *D sky130_fd_sc_hd__mux2_1
*I *3328:X O *D sky130_fd_sc_hd__dlygate4sd3_1
*CAP
1 *2958:A1 0.000213344
2 *3328:X 0.000213344
3 *2958:A1 *2872:A1 8.23457e-05
4 *2958:A1 *3328:A 8.40269e-05
5 *2873:A *2958:A1 3.1835e-05
6 *2956:S *2958:A1 1.16578e-05
7 *2958:S *2958:A1 3.83041e-05
8 *359:66 *2958:A1 0.00014825
9 *359:77 *2958:A1 3.24882e-05
*RES
1 *3328:X *2958:A1 7.79 
*END

*D_NET *646 0.001865
*CONN
*I *2618:A1 I *D sky130_fd_sc_hd__mux2_1
*I *3329:X O *D sky130_fd_sc_hd__dlygate4sd3_1
*CAP
1 *2618:A1 0.000724267
2 *3329:X 0.000724267
3 *2618:A1 *2740:A1 8.41384e-05
4 *2618:A1 *3329:A 4.77807e-05
5 *2618:A1 *759:47 0.000155601
6 *2618:S *2618:A1 5.79135e-05
7 *3258:CLK *2618:A1 7.10346e-05
*RES
1 *3329:X *2618:A1 11.855 
*END

*D_NET *647 0.000581702
*CONN
*I *2829:A0 I *D sky130_fd_sc_hd__mux2_1
*I *3331:X O *D sky130_fd_sc_hd__dlygate4sd3_1
*CAP
1 *2829:A0 0.000178798
2 *3331:X 0.000178798
3 *2829:A0 *2725:B2 0.000201079
4 *2830:A *2829:A0 0
5 *3152:CLK *2829:A0 2.30258e-05
*RES
1 *3331:X *2829:A0 9.9 
*END

*D_NET *648 0.000917761
*CONN
*I *2872:A1 I *D sky130_fd_sc_hd__mux2_1
*I *3332:X O *D sky130_fd_sc_hd__dlygate4sd3_1
*CAP
1 *2872:A1 0.000103659
2 *3332:X 0.000103659
3 *2872:A1 *2721:B2 0.000171165
4 *2872:A1 *921:10 9.71067e-05
5 *2958:A1 *2872:A1 8.23457e-05
6 *3137:D *2872:A1 0.000266605
7 *359:66 *2872:A1 4.66108e-05
8 *359:77 *2872:A1 4.66108e-05
*RES
1 *3332:X *2872:A1 11.16 
*END

*D_NET *649 0.000314232
*CONN
*I *2593:A1 I *D sky130_fd_sc_hd__mux2_1
*I *3333:X O *D sky130_fd_sc_hd__dlygate4sd3_1
*CAP
1 *2593:A1 0.000122541
2 *3333:X 0.000122541
3 *2593:A1 *3333:A 2.75145e-05
4 *2595:S *2593:A1 1.56428e-05
5 *556:6 *2593:A1 2.59926e-05
*RES
1 *3333:X *2593:A1 4.685 
*END

*D_NET *650 0.00102642
*CONN
*I *2981:A1 I *D sky130_fd_sc_hd__mux2_1
*I *3334:X O *D sky130_fd_sc_hd__dlygate4sd3_1
*CAP
1 *2981:A1 0.000201457
2 *3334:X 0.000201457
3 *2981:A1 *2983:A1 0.000321264
4 *433:10 *2981:A1 8.53113e-06
5 *445:109 *2981:A1 0.000293712
*RES
1 *3334:X *2981:A1 12.105 
*END

*D_NET *651 0.00023941
*CONN
*I *2553:A1 I *D sky130_fd_sc_hd__mux2_1
*I *3335:X O *D sky130_fd_sc_hd__dlygate4sd3_1
*CAP
1 *2553:A1 4.85751e-05
2 *3335:X 4.85751e-05
3 *2553:S *2553:A1 4.90227e-05
4 *511:127 *2553:A1 9.32375e-05
*RES
1 *3335:X *2553:A1 4.685 
*END

*D_NET *652 0.00930609
*CONN
*I *3266:RESET_B I *D sky130_fd_sc_hd__dfrtp_4
*I *3263:RESET_B I *D sky130_fd_sc_hd__dfrtp_4
*I *3128:RESET_B I *D sky130_fd_sc_hd__dfrtp_1
*I *3131:RESET_B I *D sky130_fd_sc_hd__dfrtp_4
*I *2960:C I *D sky130_fd_sc_hd__nand3b_4
*I *3047:B I *D sky130_fd_sc_hd__nand3b_4
*I *3130:RESET_B I *D sky130_fd_sc_hd__dfrtp_2
*I *3264:RESET_B I *D sky130_fd_sc_hd__dfrtp_4
*I *3129:RESET_B I *D sky130_fd_sc_hd__dfrtp_1
*I *3265:RESET_B I *D sky130_fd_sc_hd__dfrtp_4
*I *3305:X O *D sky130_fd_sc_hd__buf_4
*CAP
1 *3266:RESET_B 0.000245172
2 *3263:RESET_B 0
3 *3128:RESET_B 0.000228072
4 *3131:RESET_B 0
5 *2960:C 6.13365e-05
6 *3047:B 0.000216822
7 *3130:RESET_B 5.1271e-05
8 *3264:RESET_B 8.38736e-05
9 *3129:RESET_B 0
10 *3265:RESET_B 0.000497938
11 *3305:X 6.48175e-05
12 *652:63 0.00061658
13 *652:59 0.000594267
14 *652:53 0.000677959
15 *652:31 0.000259538
16 *652:27 0.000463007
17 *652:19 0.000813743
18 *652:10 0.000126667
19 *652:8 0.000322348
20 *2960:C *2960:B 3.5678e-06
21 *2960:C *775:76 3.57083e-05
22 *2960:C *775:80 3.0933e-05
23 *3047:B *2960:A_N 0.000196077
24 *3047:B *775:80 7.4793e-05
25 *3264:RESET_B *3263:D 0
26 *3265:RESET_B *2709:D 0.000120186
27 *3265:RESET_B *2713:A_N 0.000238511
28 *3265:RESET_B *799:54 5.20968e-05
29 *3266:RESET_B *798:69 0.000131168
30 *3266:RESET_B *799:8 4.21973e-05
31 *3266:RESET_B *799:10 0.000109377
32 *3266:RESET_B *800:89 0.00015829
33 *3266:RESET_B *801:54 0.000179099
34 *652:8 *2684:A 6.28765e-05
35 *652:8 *2709:D 0.000114492
36 *652:8 *799:54 2.42236e-05
37 *652:10 *2709:D 5.39961e-05
38 *652:10 *799:54 2.4997e-05
39 *652:19 *3265:D 3.00381e-05
40 *652:31 *3263:D 0
41 *652:53 *3263:D 0.00011379
42 *2840:B1 *652:59 0
43 *2844:A2_N *652:63 5.2419e-05
44 *2844:B1 *652:59 4.44927e-05
45 *2844:B1 *652:63 0.000201407
46 *2844:B2 *652:59 0
47 *2844:B2 *652:63 0
48 *2853:B1 *652:63 0
49 *3032:A *3266:RESET_B 4.38278e-05
50 *3042:A *3266:RESET_B 1.18308e-05
51 *3128:CLK *652:53 7.00066e-05
52 *3128:D *652:53 9.50342e-06
53 *3128:D *652:59 9.30787e-05
54 *3130:CLK *652:19 4.21973e-05
55 *3130:D *652:31 4.18603e-06
56 *3263:CLK *3265:RESET_B 1.79098e-05
57 *3264:CLK *3264:RESET_B 0
58 *3264:CLK *652:31 0
59 *318:14 *652:53 0.000216473
60 *318:14 *652:59 1.26626e-05
61 *318:16 *652:59 6.27014e-05
62 *319:10 *652:59 0.000114492
63 *319:16 *652:59 7.5416e-05
64 *334:34 *2960:C 3.03989e-05
65 *338:12 *2960:C 0.000235382
66 *338:12 *3047:B 4.00704e-05
67 *338:12 *652:63 0.000308058
68 *419:10 *2960:C 2.21074e-05
69 *419:10 *3047:B 8.42627e-05
70 *419:126 *652:63 1.28996e-05
71 *595:10 *3265:RESET_B 6.54478e-05
72 *595:12 *3265:RESET_B 5.11729e-05
73 *595:24 *3266:RESET_B 3.89172e-05
74 *595:105 *652:19 4.00796e-05
75 *595:112 *652:19 0.000184858
76 *607:33 *652:8 0
*RES
1 *3305:X *652:8 5.49 
2 *652:8 *652:10 0.615 
3 *652:10 *3265:RESET_B 6.185 
4 *3265:RESET_B *652:19 6.2625 
5 *652:19 *652:27 3 
6 *652:27 *652:31 4.91 
7 *652:31 *3129:RESET_B 2 
8 *652:31 *3264:RESET_B 3.38 
9 *652:27 *3130:RESET_B 0.7425 
10 *652:19 *652:53 6.185 
11 *652:53 *652:59 4.74 
12 *652:59 *652:63 9.5 
13 *652:63 *3047:B 6.325 
14 *652:63 *2960:C 4.39 
15 *652:59 *3131:RESET_B 2 
16 *652:53 *3128:RESET_B 4.9475 
17 *652:10 *3263:RESET_B 2 
18 *652:8 *3266:RESET_B 12.1875 
*END

*D_NET *653 0.000388745
*CONN
*I *2950:A1 I *D sky130_fd_sc_hd__mux2_1
*I *3336:X O *D sky130_fd_sc_hd__dlygate4sd3_1
*CAP
1 *2950:A1 0.000115786
2 *3336:X 0.000115786
3 *351:12 *2950:A1 0.000157172
*RES
1 *3336:X *2950:A1 4.685 
*END

*D_NET *654 0.000310677
*CONN
*I *3120:A1 I *D sky130_fd_sc_hd__mux2_1
*I *3337:X O *D sky130_fd_sc_hd__dlygate4sd3_1
*CAP
1 *3120:A1 0.000107138
2 *3337:X 0.000107138
3 *3120:A0 *3120:A1 9.63998e-05
*RES
1 *3337:X *3120:A1 4.685 
*END

*D_NET *655 0.000327489
*CONN
*I *2588:A0 I *D sky130_fd_sc_hd__mux2_1
*I *3338:X O *D sky130_fd_sc_hd__dlygate4sd3_1
*CAP
1 *2588:A0 6.85765e-05
2 *3338:X 6.85765e-05
3 *2588:A1 *2588:A0 0.0001615
4 *2588:S *2588:A0 2.88357e-05
*RES
1 *3338:X *2588:A0 5.03 
*END

*D_NET *656 0.000917185
*CONN
*I *2600:A1 I *D sky130_fd_sc_hd__mux2_1
*I *3339:X O *D sky130_fd_sc_hd__dlygate4sd3_1
*CAP
1 *2600:A1 0.000304046
2 *3339:X 0.000304046
3 *2600:A1 *3339:A 8.0259e-05
4 *2600:A1 *914:12 1.05984e-05
5 *181:76 *2600:A1 8.80056e-05
6 *328:84 *2600:A1 8.23457e-05
7 *528:47 *2600:A1 4.78847e-05
*RES
1 *3339:X *2600:A1 11.385 
*END

*D_NET *657 0.000199868
*CONN
*I *2573:A1 I *D sky130_fd_sc_hd__mux2_1
*I *3340:X O *D sky130_fd_sc_hd__dlygate4sd3_1
*CAP
1 *2573:A1 2.11553e-05
2 *3340:X 2.11553e-05
3 *2573:A1 *807:20 7.4027e-05
4 *2573:A0 *2573:A1 7.4027e-05
5 *511:86 *2573:A1 9.50342e-06
*RES
1 *3340:X *2573:A1 8.07 
*END

*D_NET *658 0.00116439
*CONN
*I *3028:A0 I *D sky130_fd_sc_hd__mux2_1
*I *3342:X O *D sky130_fd_sc_hd__dlygate4sd3_1
*CAP
1 *3028:A0 0.000368895
2 *3342:X 0.000368895
3 *3028:A0 *860:8 3.00381e-05
4 *3028:A1 *3028:A0 4.99619e-05
5 *3030:S *3028:A0 2.30292e-05
6 *3190:D *3028:A0 0
7 *3191:D *3028:A0 3.89528e-05
8 *3195:CLK *3028:A0 0.000114492
9 *604:134 *3028:A0 1.56428e-05
10 *604:136 *3028:A0 0.000154488
*RES
1 *3342:X *3028:A0 13.68 
*END

*D_NET *659 0.000871581
*CONN
*I *2558:A1 I *D sky130_fd_sc_hd__mux2_1
*I *3343:X O *D sky130_fd_sc_hd__dlygate4sd3_1
*CAP
1 *2558:A1 0.00028704
2 *3343:X 0.00028704
3 *2558:A1 *3343:A 0
4 *2558:A0 *2558:A1 5.30673e-05
5 *2558:S *2558:A1 0
6 *2561:A *2558:A1 2.11084e-05
7 *3235:CLK *2558:A1 6.10014e-05
8 *3235:D *2558:A1 0.000162325
*RES
1 *3343:X *2558:A1 12.045 
*END

*D_NET *660 0.000337624
*CONN
*I *3043:A1 I *D sky130_fd_sc_hd__mux2_1
*I *3344:X O *D sky130_fd_sc_hd__dlygate4sd3_1
*CAP
1 *3043:A1 0.000168812
2 *3344:X 0.000168812
3 *3043:A1 *3344:A 0
4 *3035:A1 *3043:A1 0
*RES
1 *3344:X *3043:A1 9.21 
*END

*D_NET *661 0.000386737
*CONN
*I *2570:A0 I *D sky130_fd_sc_hd__mux2_1
*I *3345:X O *D sky130_fd_sc_hd__dlygate4sd3_1
*CAP
1 *2570:A0 4.18667e-05
2 *3345:X 4.18667e-05
3 *2547:A *2570:A0 2.59835e-05
4 *2570:A1 *2570:A0 2.75229e-05
5 *2715:B1 *2570:A0 0.000198945
6 *541:14 *2570:A0 5.05521e-05
*RES
1 *3345:X *2570:A0 5.03 
*END

*D_NET *662 0.00188926
*CONN
*I *2983:A1 I *D sky130_fd_sc_hd__mux2_1
*I *3346:X O *D sky130_fd_sc_hd__dlygate4sd3_1
*CAP
1 *2983:A1 0.000296507
2 *3346:X 0.000296507
3 *2983:A1 *3334:A 0.000360604
4 *2981:A0 *2983:A1 8.40269e-05
5 *2981:A1 *2983:A1 0.000321264
6 *2982:A *2983:A1 0.0001249
7 *3012:B *2983:A1 7.60965e-05
8 *433:10 *2983:A1 4.9968e-05
9 *445:109 *2983:A1 8.08153e-06
10 *604:20 *2983:A1 0.000271303
*RES
1 *3346:X *2983:A1 16.425 
*END

*D_NET *663 0.00569561
*CONN
*I *3132:RESET_B I *D sky130_fd_sc_hd__dfrtp_4
*I *3127:RESET_B I *D sky130_fd_sc_hd__dfrtp_1
*I *3275:RESET_B I *D sky130_fd_sc_hd__dfrtp_1
*I *3126:SET_B I *D sky130_fd_sc_hd__dfstp_1
*I *3133:RESET_B I *D sky130_fd_sc_hd__dfrtp_4
*I *3306:X O *D sky130_fd_sc_hd__clkbuf_2
*CAP
1 *3132:RESET_B 0
2 *3127:RESET_B 0.000466639
3 *3275:RESET_B 0.000257351
4 *3126:SET_B 0.000289866
5 *3133:RESET_B 0.000286888
6 *3306:X 5.64928e-05
7 *663:25 0.000952647
8 *663:19 0.000683887
9 *3127:RESET_B *2815:B 1.75875e-05
10 *3127:RESET_B *779:12 7.4894e-05
11 *3127:RESET_B *780:6 9.71251e-06
12 *3127:RESET_B *780:14 0.000168711
13 *3275:RESET_B *2667:A 0.000293733
14 *3275:RESET_B *3308:A 0.000138551
15 *663:19 *775:12 0.000227891
16 *663:25 *2836:A 5.80021e-05
17 *663:25 *3308:A 0
18 *663:25 *774:64 0
19 *663:25 *775:30 8.92304e-05
20 *663:25 *779:12 2.76356e-05
21 *2632:B1 *3275:RESET_B 9.42224e-05
22 *2815:A *3127:RESET_B 1.91597e-05
23 *2816:A *3127:RESET_B 0.000123273
24 *2838:A2 *663:25 4.05358e-05
25 *2838:B1_N *663:25 0
26 *3127:CLK *3127:RESET_B 0.000157378
27 *3127:D *3127:RESET_B 3.00381e-05
28 *3134:D *3275:RESET_B 0
29 *159:58 *3275:RESET_B 0.000661802
30 *159:58 *663:25 6.55406e-05
31 *312:29 *663:19 8.34874e-05
32 *312:29 *663:25 5.01076e-05
33 *330:18 *3133:RESET_B 0.000115945
34 *330:18 *663:25 0
35 *332:12 *663:25 0.000154398
36 *337:20 *663:25 0
*RES
1 *3306:X *3133:RESET_B 6.98 
2 *3133:RESET_B *663:19 6.7775 
3 *663:19 *663:25 10.895 
4 *663:25 *3126:SET_B 0.5625 
5 *3126:SET_B *3275:RESET_B 12.5125 
6 *663:25 *3127:RESET_B 8.9775 
7 *663:19 *3132:RESET_B 2 
*END

*D_NET *664 0.000314863
*CONN
*I *2555:A1 I *D sky130_fd_sc_hd__mux2_1
*I *3347:X O *D sky130_fd_sc_hd__dlygate4sd3_1
*CAP
1 *2555:A1 0.000110949
2 *3347:X 0.000110949
3 *2555:A0 *2555:A1 5.83121e-06
4 *500:26 *2555:A1 8.71336e-05
*RES
1 *3347:X *2555:A1 4.685 
*END

*D_NET *665 0.000331642
*CONN
*I *2971:A1 I *D sky130_fd_sc_hd__mux2_1
*I *3348:X O *D sky130_fd_sc_hd__dlygate4sd3_1
*CAP
1 *2971:A1 0.000157128
2 *3348:X 0.000157128
3 *2972:A *2971:A1 1.7386e-05
*RES
1 *3348:X *2971:A1 5.375 
*END

*D_NET *666 0.000410446
*CONN
*I *2868:A1 I *D sky130_fd_sc_hd__mux2_1
*I *3349:X O *D sky130_fd_sc_hd__dlygate4sd3_1
*CAP
1 *2868:A1 7.39277e-05
2 *3349:X 7.39277e-05
3 *2868:A1 *3349:A 0.000241483
4 *2868:A0 *2868:A1 2.11084e-05
*RES
1 *3349:X *2868:A1 5.375 
*END

*D_NET *667 0.000299967
*CONN
*I *2563:A1 I *D sky130_fd_sc_hd__mux2_1
*I *3350:X O *D sky130_fd_sc_hd__dlygate4sd3_1
*CAP
1 *2563:A1 0.000122653
2 *3350:X 0.000122653
3 *2565:S *2563:A1 3.32037e-05
4 *538:16 *2563:A1 2.14569e-05
*RES
1 *3350:X *2563:A1 4.685 
*END

*D_NET *668 0.000212888
*CONN
*I *2911:A1 I *D sky130_fd_sc_hd__mux2_1
*I *3351:X O *D sky130_fd_sc_hd__dlygate4sd3_1
*CAP
1 *2911:A1 0.000106444
2 *3351:X 0.000106444
3 *2910:A *2911:A1 0
4 *3143:D *2911:A1 0
*RES
1 *3351:X *2911:A1 8.58 
*END

*D_NET *669 0.00087383
*CONN
*I *3118:A1 I *D sky130_fd_sc_hd__mux2_1
*I *3353:X O *D sky130_fd_sc_hd__dlygate4sd3_1
*CAP
1 *3118:A1 0.000345847
2 *3353:X 0.000345847
3 *3118:S *3118:A1 0.000141599
4 *3121:A *3118:A1 4.05358e-05
5 *3224:D *3118:A1 0
*RES
1 *3353:X *3118:A1 12.945 
*END

*D_NET *670 0.00105873
*CONN
*I *2938:A0 I *D sky130_fd_sc_hd__mux2_1
*I *3354:X O *D sky130_fd_sc_hd__dlygate4sd3_1
*CAP
1 *2938:A0 0.000354085
2 *3354:X 0.000354085
3 *2938:A0 *2805:A1 4.35348e-05
4 *2938:A0 *3436:A 3.00381e-05
5 *2938:A0 *912:8 0
6 *2938:S *2938:A0 0
7 *2941:A *2938:A0 8.8266e-05
8 *3159:D *2938:A0 0.000188719
9 *605:52 *2938:A0 0
*RES
1 *3354:X *2938:A0 13.74 
*END

*D_NET *671 0.00148657
*CONN
*I *2595:A1 I *D sky130_fd_sc_hd__mux2_1
*I *3355:X O *D sky130_fd_sc_hd__dlygate4sd3_1
*CAP
1 *2595:A1 0.000357931
2 *3355:X 0.000357931
3 *2595:A1 *2736:B2 6.93179e-05
4 *2595:A1 *2794:A2 4.19884e-05
5 *2595:A1 *925:12 0.00010919
6 *2595:S *2595:A1 0.000477978
7 *2830:A *2595:A1 0
8 *2832:A1 *2595:A1 7.22354e-05
9 *197:149 *2595:A1 0
*RES
1 *3355:X *2595:A1 15.33 
*END

*D_NET *672 0.00071943
*CONN
*I *2610:A1 I *D sky130_fd_sc_hd__mux2_1
*I *3356:X O *D sky130_fd_sc_hd__dlygate4sd3_1
*CAP
1 *2610:A1 0.000153718
2 *3356:X 0.000153718
3 *2610:S *2610:A1 4.66108e-05
4 *2718:C *2610:A1 0.000115582
5 *328:137 *2610:A1 0
6 *538:16 *2610:A1 4.82919e-05
7 *565:6 *2610:A1 0.000201508
*RES
1 *3356:X *2610:A1 10.755 
*END

*D_NET *673 0.000293911
*CONN
*I *2658:B I *D sky130_fd_sc_hd__or2_1
*I *3357:X O *D sky130_fd_sc_hd__dlygate4sd3_1
*CAP
1 *2658:B 0.000136402
2 *3357:X 0.000136402
3 *2658:B *2810:A 2.11084e-05
4 *2658:B *3461:A 0
*RES
1 *3357:X *2658:B 9.285 
*END

*D_NET *674 0.000225509
*CONN
*I *3264:D I *D sky130_fd_sc_hd__dfrtp_4
*I *3307:X O *D sky130_fd_sc_hd__dlygate4sd3_1
*CAP
1 *3264:D 0.000112755
2 *3307:X 0.000112755
*RES
1 *3307:X *3264:D 4.685 
*END

*D_NET *675 0.000412012
*CONN
*I *2638:A0 I *D sky130_fd_sc_hd__mux2_1
*I *3358:X O *D sky130_fd_sc_hd__dlygate4sd3_1
*CAP
1 *2638:A0 0.000170194
2 *3358:X 0.000170194
3 *2638:A1 *2638:A0 7.1624e-05
*RES
1 *3358:X *2638:A0 9.915 
*END

*D_NET *676 0.000238671
*CONN
*I *2603:A1 I *D sky130_fd_sc_hd__mux2_1
*I *3359:X O *D sky130_fd_sc_hd__dlygate4sd3_1
*CAP
1 *2603:A1 7.2965e-05
2 *3359:X 7.2965e-05
3 *2603:A0 *2603:A1 9.2741e-05
*RES
1 *3359:X *2603:A1 4.685 
*END

*D_NET *677 0.00784005
*CONN
*I *3457:A I *D sky130_fd_sc_hd__clkbuf_2
*I *2698:C I *D sky130_fd_sc_hd__and3_1
*I *2761:C I *D sky130_fd_sc_hd__and3_1
*I *2762:A3 I *D sky130_fd_sc_hd__a31o_1
*I *2693:C I *D sky130_fd_sc_hd__and3_1
*I *3462:X O *D sky130_fd_sc_hd__buf_1
*CAP
1 *3457:A 6.17636e-05
2 *2698:C 7.65698e-05
3 *2761:C 0
4 *2762:A3 0
5 *2693:C 0.000458894
6 *3462:X 0.000425518
7 *677:34 0.000569046
8 *677:30 0.00038442
9 *677:18 0.000428382
10 *677:12 0.000564826
11 *2693:C *2693:A 0.00025511
12 *2698:C *748:28 9.47962e-06
13 *3457:A *2699:A2 0.000192513
14 *3457:A *715:10 6.33849e-05
15 *677:18 *2699:A2 0.000157388
16 *677:18 *715:10 9.02029e-05
17 *677:30 *2761:A 3.69766e-05
18 *677:30 *748:28 5.18735e-06
19 *2703:C *2693:C 3.64285e-05
20 *2703:C *677:30 5.28255e-05
21 *2703:C *677:34 0.00044775
22 *2760:A2 *2693:C 1.29248e-05
23 *2768:B *2693:C 0.000303691
24 *2936:A *677:12 1.75721e-05
25 *2962:A *677:12 0.000302943
26 *3022:A *677:12 5.36384e-06
27 *3048:B *677:12 8.22285e-05
28 *3087:A *2693:C 4.16515e-05
29 *3089:A0 *2693:C 6.58955e-06
30 *3213:D *2693:C 5.20193e-05
31 *3463:A *677:30 0.000318072
32 *3464:A *2698:C 1.13178e-05
33 *3464:A *677:12 0.000464016
34 *3464:A *677:18 1.47446e-05
35 *176:59 *2698:C 4.98832e-05
36 *176:59 *677:18 5.75434e-05
37 *176:79 *2693:C 9.83319e-05
38 *187:24 *677:30 3.80608e-05
39 *192:81 *2693:C 0.000110219
40 *193:24 *677:34 0.000220188
41 *193:28 *2693:C 0.000121653
42 *193:28 *677:34 2.33973e-05
43 *197:20 *2693:C 4.77757e-05
44 *212:18 *677:12 3.36472e-05
45 *317:69 *677:12 7.1115e-05
46 *321:16 *677:30 0.000612907
47 *345:29 *677:30 9.55891e-05
48 *352:42 *2698:C 2.8323e-05
49 *371:12 *677:12 1.88602e-05
50 *380:10 *2693:C 2.19153e-05
51 *421:114 *677:12 3.67779e-05
52 *474:10 *677:12 4.72867e-05
53 *474:18 *677:30 4.31197e-05
54 *474:18 *677:34 0.000113659
*RES
1 *3462:X *677:12 15.59 
2 *677:12 *677:18 4.2275 
3 *677:18 *677:30 4.96777 
4 *677:30 *677:34 4.545 
5 *677:34 *2693:C 15.83 
6 *677:34 *2762:A3 1.6 
7 *677:30 *2761:C 1.6 
8 *677:18 *2698:C 4.8525 
9 *677:12 *3457:A 3.43 
*END

*D_NET *678 0.00536999
*CONN
*I *3455:A I *D sky130_fd_sc_hd__clkbuf_2
*I *2699:A2 I *D sky130_fd_sc_hd__a31o_1
*I *3456:X O *D sky130_fd_sc_hd__buf_1
*CAP
1 *3455:A 0
2 *2699:A2 0.000271461
3 *3456:X 0.00128508
4 *678:16 0.00155654
5 *2699:A2 *2699:A1 2.01934e-05
6 *2699:A2 *3389:A 4.22944e-05
7 *678:16 *2851:B 7.23943e-06
8 *2699:B1 *2699:A2 0.000192509
9 *2851:A *678:16 7.72123e-05
10 *2888:D_N *678:16 0.00013077
11 *3022:A *678:16 0.000186092
12 *3037:A *678:16 0
13 *3457:A *2699:A2 0.000192513
14 *193:18 *2699:A2 1.41095e-05
15 *318:92 *678:16 0
16 *343:8 *678:16 0.000125111
17 *343:31 *678:16 9.41588e-06
18 *399:16 *678:16 4.21103e-05
19 *411:33 *678:16 0.000167638
20 *419:126 *2699:A2 0.000195457
21 *419:126 *678:16 8.52972e-05
22 *471:10 *678:16 0
23 *474:18 *2699:A2 0.000586196
24 *595:24 *678:16 0
25 *608:16 *2699:A2 1.55253e-05
26 *608:16 *678:16 9.83921e-06
27 *677:18 *2699:A2 0.000157388
*RES
1 *3456:X *678:16 28.475 
2 *678:16 *2699:A2 10 
3 *678:16 *3455:A 1.6 
*END

*D_NET *679 0.00499552
*CONN
*I *2753:C1 I *D sky130_fd_sc_hd__o221a_1
*I *2808:B1 I *D sky130_fd_sc_hd__o21a_1
*I *3274:D I *D sky130_fd_sc_hd__dfrtp_1
*I *3365:X O *D sky130_fd_sc_hd__buf_1
*CAP
1 *2753:C1 4.054e-05
2 *2808:B1 0.000460122
3 *3274:D 6.49308e-05
4 *3365:X 5.80838e-05
5 *679:23 0.00191207
6 *679:8 0.00153443
7 *2808:B1 *2623:A1 5.97205e-05
8 *2808:B1 *2808:A1 1.12157e-05
9 *679:23 *2623:A1 9.25093e-05
10 *679:23 *2808:A1 7.43471e-05
11 *2673:B *2753:C1 1.62349e-05
12 *2753:B1 *2753:C1 3.15598e-05
13 *2753:B1 *679:23 1.35034e-05
14 *2753:B2 *2753:C1 9.23888e-06
15 *2753:B2 *2808:B1 0.000195787
16 *2753:B2 *679:23 2.38557e-05
17 *2931:B *2808:B1 0
18 *2949:B *2808:B1 0.000142516
19 *3259:CLK *2753:C1 1.60541e-05
20 *3271:D *2808:B1 4.66108e-05
21 *3274:RESET_B *3274:D 3.20382e-05
22 *3274:RESET_B *679:8 5.73375e-05
23 *175:6 *2753:C1 2.75229e-05
24 *316:33 *2808:B1 0
25 *574:14 *2808:B1 4.77719e-05
26 *590:226 *3274:D 0
27 *590:226 *679:8 0
28 *593:57 *3274:D 2.75145e-05
*RES
1 *3365:X *679:8 4.8525 
2 *679:8 *3274:D 4.7925 
3 *679:8 *679:23 3.62613 
4 *679:23 *2808:B1 6.99903 
5 *679:23 *2753:C1 5.1425 
*END

*D_NET *680 0.00150445
*CONN
*I *3266:D I *D sky130_fd_sc_hd__dfrtp_4
*I *3376:X O *D sky130_fd_sc_hd__dlygate4sd3_1
*CAP
1 *3266:D 0.000356959
2 *3376:X 0.000356959
3 *3266:D *2713:A_N 4.82863e-05
4 *3266:D *2713:B 0.00015639
5 *3266:D *2713:C 0.000163012
6 *3266:D *2713:D 0.000178563
7 *3266:D *798:69 0.000112409
8 *3266:D *800:89 0.000128346
9 *215:72 *3266:D 3.52139e-06
*RES
1 *3376:X *3266:D 13.83 
*END

*D_NET *681 0.00186896
*CONN
*I *3263:D I *D sky130_fd_sc_hd__dfrtp_4
*I *3387:X O *D sky130_fd_sc_hd__dlygate4sd3_1
*CAP
1 *3263:D 0.000740829
2 *3387:X 0.000740829
3 *3263:D *2820:A 9.78003e-05
4 *3263:D *799:8 5.062e-06
5 *3128:CLK *3263:D 1.73877e-05
6 *3129:D *3263:D 0
7 *3130:D *3263:D 0.000102508
8 *3263:CLK *3263:D 5.0751e-05
9 *3264:RESET_B *3263:D 0
10 *652:31 *3263:D 0
11 *652:53 *3263:D 0.00011379
*RES
1 *3387:X *3263:D 18.51 
*END

*D_NET *682 0.00630342
*CONN
*I *2660:B I *D sky130_fd_sc_hd__and3b_1
*I *2650:A_N I *D sky130_fd_sc_hd__and4bb_1
*I *3454:X O *D sky130_fd_sc_hd__buf_1
*CAP
1 *2660:B 0.000166159
2 *2650:A_N 0
3 *3454:X 0.00233978
4 *682:20 0.00250594
5 *2660:B *2646:C 9.94937e-05
6 *2660:B *2654:A2 9.03138e-05
7 *2660:B *795:6 4.89295e-05
8 *2660:B *795:10 4.77757e-05
9 *2660:B *795:27 1.08129e-05
10 *682:20 *2646:B 4.77769e-05
11 *682:20 *2646:C 8.82012e-05
12 *682:20 *2825:D_N 6.81315e-05
13 *682:20 *3280:D 0.00011852
14 *682:20 *693:10 1.80324e-05
15 *682:20 *693:12 4.10476e-05
16 *682:20 *793:24 5.26597e-05
17 *682:20 *796:12 0.000126725
18 *682:20 *797:12 0
19 *2643:A1 *682:20 0
20 *2644:A1 *682:20 0
21 *2651:B1 *2660:B 0.000116614
22 *2653:A2 *682:20 5.21545e-05
23 *2667:B *682:20 7.64339e-05
24 *2668:A *682:20 0.000118319
25 *3274:RESET_B *682:20 0
26 *3280:RESET_B *682:20 6.95945e-05
27 *3283:D *682:20 0
28 *3284:D *682:20 0
29 *163:20 *682:20 0
30 *593:10 *682:20 0
31 *593:29 *682:20 0
32 *593:57 *682:20 0
33 *619:50 *682:20 0
*RES
1 *3454:X *682:20 46.49 
2 *682:20 *2650:A_N 1.6 
3 *682:20 *2660:B 9.245 
*END

*D_NET *683 0.00234609
*CONN
*I *3265:D I *D sky130_fd_sc_hd__dfrtp_4
*I *3398:X O *D sky130_fd_sc_hd__dlygate4sd3_1
*CAP
1 *3265:D 0.000945267
2 *3398:X 0.000945267
3 *3265:D *2709:A_N 4.80285e-05
4 *3265:D *3307:A 1.83847e-05
5 *3129:CLK *3265:D 0.00010126
6 *3129:D *3265:D 9.66106e-05
7 *595:10 *3265:D 2.68721e-05
8 *595:12 *3265:D 2.69493e-05
9 *595:105 *3265:D 4.64133e-05
10 *607:33 *3265:D 6.10014e-05
11 *652:19 *3265:D 3.00381e-05
*RES
1 *3398:X *3265:D 20.205 
*END

*D_NET *684 0.00134995
*CONN
*I *2627:A I *D sky130_fd_sc_hd__clkbuf_1
*I *2636:C1 I *D sky130_fd_sc_hd__a221o_1
*I *3409:X O *D sky130_fd_sc_hd__dlygate4sd3_1
*CAP
1 *2627:A 1.58461e-05
2 *2636:C1 0.000483768
3 *3409:X 7.22852e-05
4 *684:6 0.0005719
5 *2636:C1 *2634:A 4.40725e-05
6 *2636:C1 *2636:A1 5.83121e-06
7 *2636:C1 *3277:D 0
8 *2636:C1 *781:8 0
9 *2636:C1 *783:10 5.4256e-05
10 *2636:C1 *787:16 7.28427e-05
11 *2628:A *2627:A 5.4155e-06
12 *2628:A *2636:C1 1.16578e-05
13 *2636:B2 *2636:C1 1.20741e-05
*RES
1 *3409:X *684:6 2.74 
2 *684:6 *2636:C1 14.315 
3 *684:6 *2627:A 1.96 
*END

*D_NET *685 0.000696309
*CONN
*I *3277:D I *D sky130_fd_sc_hd__dfrtp_1
*I *3420:X O *D sky130_fd_sc_hd__dlygate4sd3_1
*CAP
1 *3277:D 0.000303743
2 *3420:X 0.000303743
3 *2636:A2 *3277:D 4.05358e-05
4 *2636:C1 *3277:D 0
5 *3277:CLK *3277:D 4.82863e-05
*RES
1 *3420:X *3277:D 11.61 
*END

*D_NET *686 0.00330921
*CONN
*I *2814:A2 I *D sky130_fd_sc_hd__a32o_1
*I *2860:B1_N I *D sky130_fd_sc_hd__o21bai_1
*I *3431:X O *D sky130_fd_sc_hd__dlygate4sd3_1
*CAP
1 *2814:A2 0.000429081
2 *2860:B1_N 0.000521742
3 *3431:X 0.00013074
4 *686:8 0.00108156
5 *2860:B1_N *2667:A 0
6 *2860:B1_N *3135:D 0
7 *2814:B1 *2814:A2 6.90457e-05
8 *2860:A1 *2860:B1_N 7.06347e-05
9 *3135:CLK *2814:A2 0.00023575
10 *3135:CLK *2860:B1_N 0.000114201
11 *3442:A *2860:B1_N 0.00015658
12 *313:12 *2814:A2 0.000132586
13 *596:51 *2814:A2 0.000349475
14 *641:79 *686:8 1.78115e-05
*RES
1 *3431:X *686:8 5.085 
2 *686:8 *2860:B1_N 11.34 
3 *686:8 *2814:A2 13.185 
*END

*D_NET *687 0.000477889
*CONN
*I *3135:D I *D sky130_fd_sc_hd__dfrtp_1
*I *3442:X O *D sky130_fd_sc_hd__dlygate4sd3_1
*CAP
1 *3135:D 0.000129746
2 *3442:X 0.000129746
3 *3135:D *2667:A 9.44361e-05
4 *2860:A2 *3135:D 0.000123961
5 *2860:B1_N *3135:D 0
*RES
1 *3442:X *3135:D 9.465 
*END

*D_NET *688 0.00265473
*CONN
*I *3267:D I *D sky130_fd_sc_hd__dfrtp_1
*I *3308:X O *D sky130_fd_sc_hd__dlygate4sd3_1
*CAP
1 *3267:D 0.000594274
2 *3308:X 0.000594274
3 *3267:D *3268:D 0.000500756
4 *3267:CLK *3267:D 0.000190457
5 *3274:RESET_B *3267:D 0
6 *8:18 *3267:D 0.000311282
7 *596:16 *3267:D 0.000152405
8 *641:79 *3267:D 0.000311282
*RES
1 *3308:X *3267:D 20.52 
*END

*D_NET *689 0.000329345
*CONN
*I *2664:A2 I *D sky130_fd_sc_hd__a31o_1
*I *3319:X O *D sky130_fd_sc_hd__dlygate4sd3_1
*CAP
1 *2664:A2 0.000108249
2 *3319:X 0.000108249
3 *2657:A *2664:A2 0.000112846
4 *619:50 *2664:A2 0
*RES
1 *3319:X *2664:A2 9.03 
*END

*D_NET *690 0.00036349
*CONN
*I *3279:D I *D sky130_fd_sc_hd__dfrtp_1
*I *3330:X O *D sky130_fd_sc_hd__dlygate4sd3_1
*CAP
1 *3279:D 7.66441e-05
2 *3330:X 7.66441e-05
3 *3279:D *3281:D 0.000116158
4 *3279:D *794:39 3.39151e-05
5 *3279:D *794:56 1.01661e-05
6 *2657:A *3279:D 4.99619e-05
*RES
1 *3330:X *3279:D 9.03 
*END

*D_NET *691 0.00278856
*CONN
*I *3268:D I *D sky130_fd_sc_hd__dfrtp_1
*I *3341:X O *D sky130_fd_sc_hd__dlygate4sd3_1
*CAP
1 *3268:D 0.000633824
2 *3341:X 0.000633824
3 *2838:B1_N *3268:D 0.000108021
4 *3267:CLK *3268:D 3.09164e-05
5 *3267:D *3268:D 0.000500756
6 *3268:CLK *3268:D 6.97034e-05
7 *3292:A *3268:D 0.000165076
8 *8:18 *3268:D 0.000121152
9 *330:8 *3268:D 4.99619e-05
10 *330:18 *3268:D 6.90876e-05
11 *590:226 *3268:D 0.00010605
12 *590:242 *3268:D 9.62779e-05
13 *596:16 *3268:D 1.61461e-05
14 *596:20 *3268:D 0.000187766
*RES
1 *3341:X *3268:D 22.395 
*END

*D_NET *692 0.00110946
*CONN
*I *2753:A1 I *D sky130_fd_sc_hd__o221a_1
*I *2623:A1 I *D sky130_fd_sc_hd__mux2_1
*I *3352:X O *D sky130_fd_sc_hd__dlygate4sd3_1
*CAP
1 *2753:A1 0
2 *2623:A1 0.000200747
3 *3352:X 6.81923e-05
4 *692:6 0.000268939
5 *2623:A1 *2808:A1 0.000124854
6 *2808:A2 *692:6 3.83194e-05
7 *2808:B1 *2623:A1 5.97205e-05
8 *3258:CLK *2623:A1 5.63183e-05
9 *3259:CLK *2623:A1 2.95028e-05
10 *3270:D *692:6 4.66108e-05
11 *211:94 *2623:A1 6.10392e-05
12 *218:55 *2623:A1 6.2706e-05
13 *679:23 *2623:A1 9.25093e-05
*RES
1 *3352:X *692:6 2.74 
2 *692:6 *2623:A1 8.4726 
3 *692:6 *2753:A1 1.6 
*END

*D_NET *693 0.0146271
*CONN
*I *3460:A I *D sky130_fd_sc_hd__clkbuf_4
*I *3284:Q O *D sky130_fd_sc_hd__dfrtp_1
*CAP
1 *3460:A 0
2 *3284:Q 0.000954849
3 *693:12 0.00631618
4 *693:10 0.00727103
5 *693:10 *797:12 2.59285e-05
6 *3454:A *693:10 0
7 *682:20 *693:10 1.80324e-05
8 *682:20 *693:12 4.10476e-05
*RES
1 *3284:Q *693:10 21.77 
2 *693:10 *693:12 87.39 
3 *693:12 *3460:A 1.6 
*END

*D_NET *694 0.000421683
*CONN
*I *2814:B2 I *D sky130_fd_sc_hd__a32o_1
*I *3360:X O *D sky130_fd_sc_hd__dlygate4sd3_1
*CAP
1 *2814:B2 9.23769e-05
2 *3360:X 9.23769e-05
3 *2814:A3 *2814:B2 0.000121817
4 *2816:A *2814:B2 8.8266e-05
5 *310:16 *2814:B2 2.68464e-05
*RES
1 *3360:X *2814:B2 5.375 
*END

*D_NET *695 0.00328845
*CONN
*I *2633:A1 I *D sky130_fd_sc_hd__a22o_1
*I *2667:A I *D sky130_fd_sc_hd__and2_1
*I *3361:X O *D sky130_fd_sc_hd__dlygate4sd3_1
*CAP
1 *2633:A1 5.86047e-05
2 *2667:A 0.000866785
3 *3361:X 0
4 *695:4 0.000925389
5 *2633:A1 *2811:B 9.53743e-05
6 *2667:A *2811:B 9.16337e-05
7 *2667:A *3361:A 0.000123592
8 *2667:A *3431:A 0
9 *2667:B *2667:A 8.64565e-05
10 *2860:B1_N *2667:A 0
11 *3134:D *2667:A 0
12 *3135:CLK *2667:A 0
13 *3135:D *2667:A 9.44361e-05
14 *3275:D *2633:A1 0.000123886
15 *3275:RESET_B *2667:A 0.000293733
16 *159:58 *2667:A 0.000528562
17 *596:51 *2667:A 0
*RES
1 *3361:X *695:4 1.6 
2 *695:4 *2667:A 22.22 
3 *695:4 *2633:A1 3.445 
*END

*D_NET *696 0.0020254
*CONN
*I *2653:A1 I *D sky130_fd_sc_hd__a221o_1
*I *3362:X O *D sky130_fd_sc_hd__dlygate4sd3_1
*CAP
1 *2653:A1 0.000532568
2 *3362:X 0.000532568
3 *2653:A1 *2665:B 2.32615e-05
4 *2653:A1 *3281:D 5.83121e-06
5 *2653:A1 *3330:A 4.55864e-06
6 *2653:A1 *793:63 2.05277e-05
7 *2653:A1 *794:39 6.53209e-05
8 *2653:A2 *2653:A1 0.000133376
9 *2653:C1 *2653:A1 0.000118081
10 *2656:A *2653:A1 6.32125e-05
11 *2657:A *2653:A1 1.23015e-05
12 *3284:D *2653:A1 4.77719e-05
13 *11:23 *2653:A1 5.0176e-05
14 *11:31 *2653:A1 0.00041585
*RES
1 *3362:X *2653:A1 14.0222 
*END

*D_NET *697 0.000680118
*CONN
*I *2988:A0 I *D sky130_fd_sc_hd__mux2_1
*I *3363:X O *D sky130_fd_sc_hd__dlygate4sd3_1
*CAP
1 *2988:A0 0.000118849
2 *3363:X 0.000118849
3 *2989:A *2988:A0 0.000119756
4 *174:26 *2988:A0 0.000307929
5 *218:41 *2988:A0 1.47347e-05
*RES
1 *3363:X *2988:A0 6.425 
*END

*D_NET *698 0.000469612
*CONN
*I *2997:A0 I *D sky130_fd_sc_hd__mux2_1
*I *3364:X O *D sky130_fd_sc_hd__dlygate4sd3_1
*CAP
1 *2997:A0 0.000119415
2 *3364:X 0.000119415
3 *2753:B1 *2997:A0 7.23602e-05
4 *380:45 *2997:A0 0.000119762
5 *419:67 *2997:A0 3.86607e-05
*RES
1 *3364:X *2997:A0 9.21 
*END

*D_NET *699 0.000618686
*CONN
*I *2899:A0 I *D sky130_fd_sc_hd__mux2_1
*I *3366:X O *D sky130_fd_sc_hd__dlygate4sd3_1
*CAP
1 *2899:A0 0.000163376
2 *3366:X 0.000163376
3 *2899:A0 *2734:A 6.41532e-05
4 *207:43 *2899:A0 7.23602e-05
5 *380:45 *2899:A0 8.52845e-05
6 *391:64 *2899:A0 7.01359e-05
*RES
1 *3366:X *2899:A0 9.9 
*END

*D_NET *700 0.000756949
*CONN
*I *2977:A1 I *D sky130_fd_sc_hd__mux2_1
*I *3367:X O *D sky130_fd_sc_hd__dlygate4sd3_1
*CAP
1 *2977:A1 0.000189226
2 *3367:X 0.000189226
3 *2977:A1 *774:83 7.23602e-05
4 *2977:S *2977:A1 7.4027e-05
5 *191:20 *2977:A1 0.000232111
*RES
1 *3367:X *2977:A1 10.245 
*END

*D_NET *701 0.000689164
*CONN
*I *2538:A1 I *D sky130_fd_sc_hd__mux2_1
*I *3368:X O *D sky130_fd_sc_hd__dlygate4sd3_1
*CAP
1 *2538:A1 0.000209299
2 *3368:X 0.000209299
3 *2538:A1 *2777:A 7.23602e-05
4 *2543:A0 *2538:A1 0.000125845
5 *608:16 *2538:A1 7.23602e-05
*RES
1 *3368:X *2538:A1 10.245 
*END

*D_NET *702 0.000466161
*CONN
*I *3113:A0 I *D sky130_fd_sc_hd__mux2_1
*I *3369:X O *D sky130_fd_sc_hd__dlygate4sd3_1
*CAP
1 *3113:A0 0.000117689
2 *3369:X 0.000117689
3 *2790:C1 *3113:A0 0.000119762
4 *3113:S *3113:A0 3.86607e-05
5 *358:67 *3113:A0 7.23602e-05
*RES
1 *3369:X *3113:A0 9.21 
*END

*D_NET *703 0.000783172
*CONN
*I *3086:A1 I *D sky130_fd_sc_hd__mux2_1
*I *3370:X O *D sky130_fd_sc_hd__dlygate4sd3_1
*CAP
1 *3086:A1 0.00022815
2 *3370:X 0.00022815
3 *3086:A1 *3370:A 0.000228855
4 *3086:S *3086:A1 5.8196e-05
5 *380:10 *3086:A1 3.98198e-05
*RES
1 *3370:X *3086:A1 10.755 
*END

*D_NET *704 0.00277025
*CONN
*I *3461:A I *D sky130_fd_sc_hd__buf_2
*I *3358:A I *D sky130_fd_sc_hd__dlygate4sd3_1
*I *3278:Q O *D sky130_fd_sc_hd__dfrtp_1
*CAP
1 *3461:A 0.0010616
2 *3358:A 0.00027917
3 *3278:Q 4.43494e-05
4 *704:8 0.00138512
5 *3461:A *778:10 0
6 *2658:B *3461:A 0
*RES
1 *3278:Q *704:8 4.05 
2 *704:8 *3358:A 8.295 
3 *704:8 *3461:A 21.3 
*END

*D_NET *705 0.000606515
*CONN
*I *3115:A0 I *D sky130_fd_sc_hd__mux2_1
*I *3371:X O *D sky130_fd_sc_hd__dlygate4sd3_1
*CAP
1 *3115:A0 0.000169343
2 *3371:X 0.000169343
3 *2777:B *3115:A0 6.38291e-05
4 *3123:A0 *3115:A0 3.86607e-05
5 *358:67 *3115:A0 4.0843e-05
6 *358:85 *3115:A0 2.937e-05
7 *511:38 *3115:A0 8.65961e-05
8 *608:24 *3115:A0 8.53113e-06
*RES
1 *3371:X *3115:A0 9.9 
*END

*D_NET *706 0.00186558
*CONN
*I *3099:A0 I *D sky130_fd_sc_hd__mux2_1
*I *3372:X O *D sky130_fd_sc_hd__dlygate4sd3_1
*CAP
1 *3099:A0 0.000547588
2 *3372:X 0.000547588
3 *3099:A0 *726:32 9.70528e-05
4 *3099:A1 *3099:A0 6.95753e-05
5 *192:109 *3099:A0 0.000229536
6 *197:143 *3099:A0 0.000304665
7 *419:88 *3099:A0 6.95753e-05
*RES
1 *3372:X *3099:A0 14.73 
*END

*D_NET *707 0.000382098
*CONN
*I *2541:A1 I *D sky130_fd_sc_hd__mux2_1
*I *3373:X O *D sky130_fd_sc_hd__dlygate4sd3_1
*CAP
1 *2541:A1 0.000111461
2 *3373:X 0.000111461
3 *2541:A1 *759:12 0.000159176
*RES
1 *3373:X *2541:A1 4.685 
*END

*D_NET *708 0.000359047
*CONN
*I *3000:A0 I *D sky130_fd_sc_hd__mux2_1
*I *3374:X O *D sky130_fd_sc_hd__dlygate4sd3_1
*CAP
1 *3000:A0 8.89491e-05
2 *3374:X 8.89491e-05
3 *2789:A2 *3000:A0 2.0514e-05
4 *3083:A1 *3000:A0 0.000160635
*RES
1 *3374:X *3000:A0 5.03 
*END

*D_NET *709 0.00077551
*CONN
*I *2876:A1 I *D sky130_fd_sc_hd__mux2_1
*I *3375:X O *D sky130_fd_sc_hd__dlygate4sd3_1
*CAP
1 *2876:A1 0.000153792
2 *3375:X 0.000153792
3 *2876:A1 *2749:A 9.44681e-05
4 *2876:A1 *748:38 5.0651e-05
5 *2876:A0 *2876:A1 8.41307e-05
6 *528:47 *2876:A1 0.000238677
*RES
1 *3375:X *2876:A1 10.845 
*END

*D_NET *710 0.00039233
*CONN
*I *2986:A0 I *D sky130_fd_sc_hd__mux2_1
*I *3377:X O *D sky130_fd_sc_hd__dlygate4sd3_1
*CAP
1 *2986:A0 6.6111e-05
2 *3377:X 6.6111e-05
3 *2986:A0 *879:14 4.89362e-05
4 *2986:A1 *2986:A0 2.68464e-05
5 *2986:S *2986:A0 8.35068e-05
6 *177:102 *2986:A0 0.000100819
*RES
1 *3377:X *2986:A0 5.03 
*END

*D_NET *711 0.000989433
*CONN
*I *3104:A0 I *D sky130_fd_sc_hd__mux2_1
*I *3378:X O *D sky130_fd_sc_hd__dlygate4sd3_1
*CAP
1 *3104:A0 0.000173436
2 *3378:X 0.000173436
3 *2701:B *3104:A0 0.000137894
4 *3104:A1 *3104:A0 0.000190228
5 *3104:S *3104:A0 1.17666e-05
6 *358:99 *3104:A0 0.000179467
7 *430:10 *3104:A0 3.75738e-05
8 *430:46 *3104:A0 1.49438e-05
9 *511:70 *3104:A0 7.06865e-05
*RES
1 *3378:X *3104:A0 11.67 
*END

*D_NET *712 0.000385687
*CONN
*I *2897:A0 I *D sky130_fd_sc_hd__mux2_1
*I *3379:X O *D sky130_fd_sc_hd__dlygate4sd3_1
*CAP
1 *2897:A0 0.000106527
2 *3379:X 0.000106527
3 *2897:A0 *3379:A 1.19928e-05
4 *2897:A1 *2897:A0 0.000123225
5 *369:107 *2897:A0 3.74161e-05
*RES
1 *3379:X *2897:A0 5.03 
*END

*D_NET *713 0.000473914
*CONN
*I *3058:A1 I *D sky130_fd_sc_hd__mux2_1
*I *3380:X O *D sky130_fd_sc_hd__dlygate4sd3_1
*CAP
1 *3058:A1 0.000181447
2 *3380:X 0.000181447
3 *3058:A1 *3380:A 3.86607e-05
4 *323:55 *3058:A1 7.23602e-05
*RES
1 *3380:X *3058:A1 9.555 
*END

*D_NET *714 0.000372574
*CONN
*I *3076:A0 I *D sky130_fd_sc_hd__mux2_1
*I *3381:X O *D sky130_fd_sc_hd__dlygate4sd3_1
*CAP
1 *3076:A0 8.83237e-05
2 *3381:X 8.83237e-05
3 *3076:A0 *841:16 8.49205e-05
4 *442:61 *3076:A0 9.50342e-06
5 *442:74 *3076:A0 6.28498e-05
6 *602:94 *3076:A0 3.86529e-05
*RES
1 *3381:X *3076:A0 8.865 
*END

*D_NET *715 0.0140422
*CONN
*I *2774:C I *D sky130_fd_sc_hd__and3_1
*I *2723:B1 I *D sky130_fd_sc_hd__a22o_1
*I *2803:B1 I *D sky130_fd_sc_hd__a22o_1
*I *2746:C I *D sky130_fd_sc_hd__and3_1
*I *3457:X O *D sky130_fd_sc_hd__clkbuf_2
*CAP
1 *2774:C 6.16263e-05
2 *2723:B1 0
3 *2803:B1 0.000275563
4 *2746:C 3.84027e-05
5 *3457:X 0.000922473
6 *715:41 0.00173176
7 *715:20 0.00179475
8 *715:10 0.00128425
9 *2774:C *2774:A 9.48147e-06
10 *2803:B1 *2723:A1 2.82864e-05
11 *2803:B1 *2723:B2 2.49909e-05
12 *2803:B1 *2803:A1 3.11381e-05
13 *715:10 *2779:A 3.24923e-05
14 *715:41 *2723:A1 4.66108e-05
15 *715:41 *2746:A 0.000332478
16 *715:41 *2802:A1 9.30717e-05
17 *715:41 *3399:A 0.000157394
18 *715:41 *748:38 0.000711098
19 *715:41 *748:44 5.16418e-05
20 *2723:A2 *2803:B1 7.75319e-05
21 *2723:A2 *715:41 2.10905e-05
22 *2724:A2 *715:41 9.78725e-05
23 *2724:B1 *715:41 7.59067e-05
24 *2778:A *715:10 0.00043444
25 *2778:A *715:20 8.53113e-06
26 *2876:A0 *715:41 0.000463931
27 *2889:B *715:41 0.000200612
28 *2913:B *715:41 3.96153e-05
29 *2914:A1 *715:41 4.77807e-05
30 *2915:A *715:41 0.000417642
31 *2937:A *715:41 7.00632e-05
32 *2986:S *715:20 0.000245517
33 *2987:A *2746:C 5.83121e-06
34 *2987:A *715:20 0.000182272
35 *2988:S *2774:C 2.09321e-05
36 *3113:S *715:10 9.24119e-05
37 *3114:A *2774:C 8.65825e-06
38 *3123:A0 *715:10 0
39 *3457:A *715:10 6.33849e-05
40 *3464:A *715:10 4.68984e-05
41 *176:59 *715:10 2.98644e-05
42 *177:102 *2746:C 6.62632e-05
43 *177:102 *715:20 0.000108317
44 *193:18 *715:10 0.000369106
45 *193:89 *715:10 0.000786555
46 *202:24 *715:41 0.000501788
47 *325:58 *715:41 9.38244e-05
48 *358:67 *715:20 0.000328202
49 *369:33 *715:41 0.000305454
50 *371:51 *715:41 0.000277231
51 *384:30 *715:10 3.6195e-06
52 *388:12 *715:41 0.000153619
53 *404:10 *715:41 0.000494605
54 *436:10 *715:10 6.28498e-05
55 *436:10 *715:20 7.22242e-05
56 *515:10 *715:10 5.00612e-05
57 *677:18 *715:10 9.02029e-05
*RES
1 *3457:X *715:10 25.605 
2 *715:10 *715:20 9.77 
3 *715:20 *2746:C 2.455 
4 *715:20 *715:41 43.465 
5 *715:41 *2803:B1 5.185 
6 *715:41 *2723:B1 1.6 
7 *715:10 *2774:C 4.905 
*END

*D_NET *716 0.000488249
*CONN
*I *2543:A1 I *D sky130_fd_sc_hd__mux2_1
*I *3382:X O *D sky130_fd_sc_hd__dlygate4sd3_1
*CAP
1 *2543:A1 0.000163391
2 *3382:X 0.000163391
3 *2543:A1 *2743:A 0.000161467
4 *411:47 *2543:A1 0
5 *524:10 *2543:A1 0
*RES
1 *3382:X *2543:A1 9.555 
*END

*D_NET *717 0.00131584
*CONN
*I *3003:A1 I *D sky130_fd_sc_hd__mux2_1
*I *3383:X O *D sky130_fd_sc_hd__dlygate4sd3_1
*CAP
1 *3003:A1 0.000373558
2 *3383:X 0.000373558
3 *3003:A1 *3383:A 0
4 *3005:S *3003:A1 2.98168e-05
5 *218:14 *3003:A1 0.00012471
6 *317:69 *3003:A1 9.0751e-05
7 *340:43 *3003:A1 2.72392e-05
8 *403:10 *3003:A1 0.000117297
9 *403:12 *3003:A1 0.000169564
10 *432:72 *3003:A1 9.34171e-06
*RES
1 *3383:X *3003:A1 13.725 
*END

*D_NET *718 0.000331906
*CONN
*I *2928:A0 I *D sky130_fd_sc_hd__mux2_1
*I *3384:X O *D sky130_fd_sc_hd__dlygate4sd3_1
*CAP
1 *2928:A0 6.8101e-05
2 *3384:X 6.8101e-05
3 *2928:A1 *2928:A0 9.91257e-05
4 *2928:S *2928:A0 4.82863e-05
5 *396:12 *2928:A0 4.82919e-05
*RES
1 *3384:X *2928:A0 5.03 
*END

*D_NET *719 0.000873627
*CONN
*I *2922:A0 I *D sky130_fd_sc_hd__mux2_1
*I *3385:X O *D sky130_fd_sc_hd__dlygate4sd3_1
*CAP
1 *2922:A0 0.000301434
2 *3385:X 0.000301434
3 *3156:CLK *2922:A0 0
4 *359:37 *2922:A0 2.87867e-05
5 *366:10 *2922:A0 7.4027e-05
6 *374:84 *2922:A0 0.000167946
*RES
1 *3385:X *2922:A0 11.985 
*END

*D_NET *720 0.000798036
*CONN
*I *3005:A1 I *D sky130_fd_sc_hd__mux2_1
*I *3386:X O *D sky130_fd_sc_hd__dlygate4sd3_1
*CAP
1 *3005:A1 0.000102689
2 *3386:X 0.000102689
3 *3005:A1 *2761:A 0.000221906
4 *3005:A1 *3386:A 4.66108e-05
5 *3005:A0 *3005:A1 9.387e-06
6 *187:24 *3005:A1 0.000158365
7 *395:24 *3005:A1 0.00015639
*RES
1 *3386:X *3005:A1 10.575 
*END

*D_NET *721 0.00043717
*CONN
*I *2974:A1 I *D sky130_fd_sc_hd__mux2_1
*I *3388:X O *D sky130_fd_sc_hd__dlygate4sd3_1
*CAP
1 *2974:A1 9.36876e-05
2 *3388:X 9.36876e-05
3 *2974:A1 *2744:A 0.000124895
4 *2974:A1 *3388:A 0.0001249
*RES
1 *3388:X *2974:A1 5.375 
*END

*D_NET *722 0.000762759
*CONN
*I *3123:A1 I *D sky130_fd_sc_hd__mux2_1
*I *3389:X O *D sky130_fd_sc_hd__dlygate4sd3_1
*CAP
1 *3123:A1 0.000181117
2 *3389:X 0.000181117
3 *3123:S *3123:A1 4.417e-05
4 *3464:A *3123:A1 0.00015577
5 *212:18 *3123:A1 0.000130257
6 *474:10 *3123:A1 7.03276e-05
*RES
1 *3389:X *3123:A1 11.25 
*END

*D_NET *723 0.000683501
*CONN
*I *2905:A0 I *D sky130_fd_sc_hd__mux2_1
*I *3390:X O *D sky130_fd_sc_hd__dlygate4sd3_1
*CAP
1 *2905:A0 0.000108137
2 *3390:X 0.000108137
3 *2905:A1 *2905:A0 5.35064e-05
4 *215:147 *2905:A0 0.000114433
5 *321:61 *2905:A0 0.000133237
6 *322:89 *2905:A0 2.49909e-05
7 *322:91 *2905:A0 3.02745e-05
8 *322:115 *2905:A0 0.000110785
*RES
1 *3390:X *2905:A0 10.665 
*END

*D_NET *724 0.000473998
*CONN
*I *3094:A0 I *D sky130_fd_sc_hd__mux2_1
*I *3391:X O *D sky130_fd_sc_hd__dlygate4sd3_1
*CAP
1 *3094:A0 3.52167e-05
2 *3391:X 3.52167e-05
3 *445:14 *3094:A0 0.000158552
4 *445:20 *3094:A0 4.89395e-05
5 *601:71 *3094:A0 0.000196073
*RES
1 *3391:X *3094:A0 5.03 
*END

*D_NET *725 0.000496495
*CONN
*I *3102:A0 I *D sky130_fd_sc_hd__mux2_1
*I *3392:X O *D sky130_fd_sc_hd__dlygate4sd3_1
*CAP
1 *3102:A0 0.000144199
2 *3392:X 0.000144199
3 *2708:A2 *3102:A0 3.43427e-05
4 *3102:A1 *3102:A0 4.82919e-05
5 *3102:S *3102:A0 7.60965e-05
6 *3104:S *3102:A0 4.35348e-05
7 *476:52 *3102:A0 5.83121e-06
*RES
1 *3392:X *3102:A0 6.065 
*END

*D_NET *726 0.0158154
*CONN
*I *2766:A2 I *D sky130_fd_sc_hd__a22o_1
*I *2704:A2 I *D sky130_fd_sc_hd__a22o_1
*I *2792:A2 I *D sky130_fd_sc_hd__a21o_1
*I *2711:A2 I *D sky130_fd_sc_hd__a22o_1
*I *3458:X O *D sky130_fd_sc_hd__clkbuf_2
*CAP
1 *2766:A2 9.94454e-05
2 *2704:A2 2.12116e-05
3 *2792:A2 0.00113259
4 *2711:A2 7.78356e-05
5 *3458:X 0.00185115
6 *726:74 0.000185646
7 *726:38 0.00198748
8 *726:32 0.00269319
9 *2711:A2 *2711:A1 2.49909e-05
10 *2711:A2 *3324:A 5.83273e-05
11 *2766:A2 *2766:A1 0.00020151
12 *2766:A2 *3415:A 3.12855e-05
13 *2792:A2 *2791:A1 0
14 *726:32 *2694:A1 4.82863e-05
15 *726:32 *831:20 0.000229336
16 *726:32 *833:8 0.000306346
17 *726:38 *3443:A 6.28843e-05
18 *726:38 *807:20 0
19 *726:74 *2704:A1 4.55864e-06
20 *726:74 *2766:A1 4.76263e-05
21 *2612:A *2792:A2 5.42425e-05
22 *2612:A *726:38 0.000450604
23 *2613:A0 *2792:A2 2.72392e-05
24 *2613:S *2792:A2 0.000136531
25 *2614:A *2792:A2 0.000342601
26 *2708:A2 *2766:A2 1.56428e-05
27 *2711:B1 *2711:A2 1.54665e-05
28 *2712:C1 *726:38 0
29 *2717:A2 *2792:A2 0.000154708
30 *2717:B1 *2792:A2 0.00011312
31 *2720:D1 *726:32 0.000132316
32 *3080:A *726:32 4.66108e-05
33 *3080:B *726:32 0.000308113
34 *3099:A0 *726:32 9.70528e-05
35 *3100:A *726:32 4.66826e-05
36 *3105:A *726:32 0.000460258
37 *3110:A1 *726:38 0.000313764
38 *3111:A *726:38 0.000297417
39 *3117:B *2704:A2 4.82863e-05
40 *3117:B *2766:A2 7.3151e-05
41 *3118:A0 *726:32 2.11084e-05
42 *3216:D *726:32 1.86443e-05
43 *3217:CLK *726:32 0.000129942
44 *3218:D *726:32 1.54049e-05
45 *174:134 *2792:A2 0.000215146
46 *192:81 *726:32 0.000478928
47 *192:91 *726:32 0.000114513
48 *192:109 *726:32 0.000629203
49 *197:143 *726:32 0.000306346
50 *202:24 *726:32 0.000240861
51 *202:120 *726:38 0
52 *212:77 *2792:A2 1.48096e-05
53 *285:18 *726:38 0.000242086
54 *285:18 *726:74 4.13569e-05
55 *391:42 *726:32 0.000100141
56 *403:12 *726:32 0.000127452
57 *442:16 *2766:A2 9.2005e-05
58 *500:14 *726:38 0
59 *500:26 *2711:A2 0.000157401
60 *500:155 *726:32 0.000240666
61 *511:86 *726:38 0.000287204
62 *512:8 *726:38 4.54264e-05
63 *512:8 *726:74 4.5783e-05
64 *591:12 *2792:A2 5.34461e-05
*RES
1 *3458:X *726:32 48.025 
2 *726:32 *726:38 19.53 
3 *726:38 *2711:A2 5.805 
4 *726:38 *2792:A2 24.235 
5 *726:32 *726:74 3.635 
6 *726:74 *2704:A2 2.05 
7 *726:74 *2766:A2 8.795 
*END

*D_NET *727 0.00122768
*CONN
*I *3056:A1 I *D sky130_fd_sc_hd__mux2_1
*I *3393:X O *D sky130_fd_sc_hd__dlygate4sd3_1
*CAP
1 *3056:A1 0.000361991
2 *3393:X 0.000361991
3 *3056:A1 *3380:A 5.22973e-05
4 *3055:A *3056:A1 5.88334e-05
5 *3055:B *3056:A1 4.66108e-05
6 *3056:S *3056:A1 0.000118081
7 *323:55 *3056:A1 0
8 *419:16 *3056:A1 0.000118991
9 *480:6 *3056:A1 0.000108886
*RES
1 *3393:X *3056:A1 13.875 
*END

*D_NET *728 0.000719924
*CONN
*I *2583:A1 I *D sky130_fd_sc_hd__mux2_1
*I *3394:X O *D sky130_fd_sc_hd__dlygate4sd3_1
*CAP
1 *2583:A1 0.000116084
2 *3394:X 0.000116084
3 *316:39 *2583:A1 0.000198051
4 *322:89 *2583:A1 0.000119623
5 *328:58 *2583:A1 5.79947e-05
6 *403:22 *2583:A1 0.000112087
*RES
1 *3394:X *2583:A1 10.77 
*END

*D_NET *729 0.000611476
*CONN
*I *3053:A0 I *D sky130_fd_sc_hd__mux2_1
*I *3395:X O *D sky130_fd_sc_hd__dlygate4sd3_1
*CAP
1 *3053:A0 0.000281015
2 *3395:X 0.000281015
3 *3053:A0 *853:10 4.94457e-05
4 *3198:CLK *3053:A0 0
5 *3199:D *3053:A0 0
*RES
1 *3395:X *3053:A0 11.505 
*END

*D_NET *730 0.000381847
*CONN
*I *2585:A1 I *D sky130_fd_sc_hd__mux2_1
*I *3396:X O *D sky130_fd_sc_hd__dlygate4sd3_1
*CAP
1 *2585:A1 0.000112227
2 *3396:X 0.000112227
3 *527:44 *2585:A1 0.000157394
*RES
1 *3396:X *2585:A1 4.685 
*END

*D_NET *731 0.000600491
*CONN
*I *3097:A0 I *D sky130_fd_sc_hd__mux2_1
*I *3397:X O *D sky130_fd_sc_hd__dlygate4sd3_1
*CAP
1 *3097:A0 0.000103398
2 *3397:X 0.000103398
3 *3097:A0 *832:8 0.000124007
4 *2759:C *3097:A0 4.76263e-05
5 *2760:C1 *3097:A0 7.06865e-05
6 *3099:S *3097:A0 8.57024e-05
7 *177:75 *3097:A0 0
8 *183:42 *3097:A0 0
9 *197:143 *3097:A0 2.90456e-05
10 *505:6 *3097:A0 3.66286e-05
*RES
1 *3397:X *3097:A0 9.975 
*END

*D_NET *732 0.000407157
*CONN
*I *2914:A0 I *D sky130_fd_sc_hd__mux2_1
*I *3399:X O *D sky130_fd_sc_hd__dlygate4sd3_1
*CAP
1 *2914:A0 8.13385e-05
2 *3399:X 8.13385e-05
3 *2914:A0 *3399:A 0.000196699
4 *2914:A1 *2914:A0 4.77807e-05
*RES
1 *3399:X *2914:A0 5.03 
*END

*D_NET *733 0.000518797
*CONN
*I *2903:A0 I *D sky130_fd_sc_hd__mux2_1
*I *3400:X O *D sky130_fd_sc_hd__dlygate4sd3_1
*CAP
1 *2903:A0 0.000166291
2 *3400:X 0.000166291
3 *2903:A0 *2788:A1 0
4 *2752:B *2903:A0 2.97593e-05
5 *2903:A1 *2903:A0 4.66108e-05
6 *391:64 *2903:A0 0.000109845
*RES
1 *3400:X *2903:A0 9.825 
*END

*D_NET *734 0.00198809
*CONN
*I *2991:A0 I *D sky130_fd_sc_hd__mux2_1
*I *3401:X O *D sky130_fd_sc_hd__dlygate4sd3_1
*CAP
1 *2991:A0 0.000583654
2 *3401:X 0.000583654
3 *2991:A0 *2765:B2 0.000132059
4 *2991:A0 *2993:A0 4.35148e-05
5 *2965:A *2991:A0 7.23602e-05
6 *3012:A *2991:A0 0.000247567
7 *3017:A *2991:A0 0.000128904
8 *3176:CLK *2991:A0 0.000196376
*RES
1 *3401:X *2991:A0 16.185 
*END

*D_NET *735 0.000391277
*CONN
*I *3013:A0 I *D sky130_fd_sc_hd__mux2_1
*I *3402:X O *D sky130_fd_sc_hd__dlygate4sd3_1
*CAP
1 *3013:A0 5.41914e-05
2 *3402:X 5.41914e-05
3 *3013:S *3013:A0 4.90227e-05
4 *3061:A0 *3013:A0 2.69153e-05
5 *442:99 *3013:A0 4.77769e-05
6 *442:114 *3013:A0 0.000159179
*RES
1 *3402:X *3013:A0 5.03 
*END

*D_NET *736 0.000555115
*CONN
*I *2878:A1 I *D sky130_fd_sc_hd__mux2_1
*I *3403:X O *D sky130_fd_sc_hd__dlygate4sd3_1
*CAP
1 *2878:A1 0.000143011
2 *3403:X 0.000143011
3 *2809:A1 *2878:A1 0.000158072
4 *385:16 *2878:A1 3.86607e-05
5 *606:58 *2878:A1 7.23602e-05
*RES
1 *3403:X *2878:A1 9.555 
*END

*D_NET *737 0.0221422
*CONN
*I *3458:A I *D sky130_fd_sc_hd__clkbuf_2
*I *2800:B1 I *D sky130_fd_sc_hd__a221o_1
*I *2721:A2 I *D sky130_fd_sc_hd__a22o_1
*I *3459:X O *D sky130_fd_sc_hd__clkbuf_2
*CAP
1 *3458:A 4.59083e-05
2 *2800:B1 0.000100657
3 *2721:A2 0.000239165
4 *3459:X 0.00299289
5 *737:30 0.0073358
6 *737:16 0.0100348
7 *2721:A2 *2721:A1 3.12916e-05
8 *2721:A2 *2722:A1 8.33066e-06
9 *2721:A2 *2722:B2 0
10 *2721:A2 *2799:A2 4.40693e-06
11 *2721:A2 *759:93 0.000111293
12 *2800:B1 *2800:A1 2.69153e-05
13 *2800:B1 *2800:B2 1.77945e-05
14 *737:30 *748:28 0
15 *737:30 *759:93 0.000113778
16 *2722:B1 *2721:A2 0.00016203
17 *2799:B1 *2721:A2 7.11786e-06
18 *2800:A2 *2800:B1 0.000102006
19 *2800:A2 *737:30 0.00031294
20 *2805:B1 *2800:B1 4.12775e-05
21 *2805:B1 *737:30 6.81824e-05
22 *2913:B *737:30 0
23 *2951:A *737:30 3.97748e-05
24 *3027:A *737:16 0
25 *171:23 *737:16 1.43521e-05
26 *185:12 *737:16 3.11772e-05
27 *185:29 *737:16 2.97004e-06
28 *187:53 *737:30 0
29 *197:20 *737:16 0.000114655
30 *202:10 *3458:A 4.55864e-06
31 *202:24 *3458:A 1.00941e-05
32 *208:26 *737:16 0
33 *208:26 *737:30 0
34 *211:94 *2721:A2 8.52137e-06
35 *218:55 *2721:A2 1.10951e-05
36 *365:58 *737:16 0
37 *365:58 *737:30 0
38 *399:49 *3458:A 9.22816e-06
39 *403:12 *3458:A 1.92979e-05
40 *432:72 *737:16 0.000119961
*RES
1 *3459:X *737:16 10.1664 
2 *737:16 *737:30 17.0858 
3 *737:30 *2721:A2 9.665 
4 *737:30 *2800:B1 3.79 
5 *737:16 *3458:A 4.89963 
*END

*D_NET *738 0.000420053
*CONN
*I *3020:A0 I *D sky130_fd_sc_hd__mux2_1
*I *3404:X O *D sky130_fd_sc_hd__dlygate4sd3_1
*CAP
1 *3020:A0 5.14302e-05
2 *3404:X 5.14302e-05
3 *3020:A0 *3404:A 0.000121031
4 *3018:S *3020:A0 8.35106e-05
5 *3020:A1 *3020:A0 4.94474e-05
6 *3030:A1 *3020:A0 6.32041e-05
*RES
1 *3404:X *3020:A0 5.03 
*END

*D_NET *739 0.000458236
*CONN
*I *2920:A0 I *D sky130_fd_sc_hd__mux2_1
*I *3405:X O *D sky130_fd_sc_hd__dlygate4sd3_1
*CAP
1 *2920:A0 0.000118868
2 *3405:X 0.000118868
3 *2920:A0 *2794:A2 0.000121437
4 *359:37 *2920:A0 2.67022e-05
5 *366:10 *2920:A0 7.23602e-05
*RES
1 *3405:X *2920:A0 9.21 
*END

*D_NET *740 0.00141027
*CONN
*I *2993:A0 I *D sky130_fd_sc_hd__mux2_1
*I *3406:X O *D sky130_fd_sc_hd__dlygate4sd3_1
*CAP
1 *2993:A0 0.000430839
2 *3406:X 0.000430839
3 *2993:A0 *2765:B2 2.30184e-05
4 *2991:A0 *2993:A0 4.35148e-05
5 *2993:S *2993:A0 5.05521e-05
6 *3017:A *2993:A0 4.05358e-05
7 *215:28 *2993:A0 0.000119396
8 *604:14 *2993:A0 0.000271574
*RES
1 *3406:X *2993:A0 14.415 
*END

*D_NET *741 0.000652917
*CONN
*I *2934:A1 I *D sky130_fd_sc_hd__mux2_1
*I *3407:X O *D sky130_fd_sc_hd__dlygate4sd3_1
*CAP
1 *2934:A1 0.000174409
2 *3407:X 0.000174409
3 *2752:A *2934:A1 7.23602e-05
4 *325:56 *2934:A1 0.000194962
5 *372:12 *2934:A1 3.67779e-05
*RES
1 *3407:X *2934:A1 9.9 
*END

*D_NET *742 0.000380238
*CONN
*I *3051:A0 I *D sky130_fd_sc_hd__mux2_1
*I *3408:X O *D sky130_fd_sc_hd__dlygate4sd3_1
*CAP
1 *3051:A0 9.82625e-05
2 *3408:X 9.82625e-05
3 *3051:A1 *3051:A0 0.00012657
4 *3051:S *3051:A0 2.0514e-05
5 *442:74 *3051:A0 3.66286e-05
*RES
1 *3408:X *3051:A0 5.03 
*END

*D_NET *743 0.000467024
*CONN
*I *3083:A0 I *D sky130_fd_sc_hd__mux2_1
*I *3410:X O *D sky130_fd_sc_hd__dlygate4sd3_1
*CAP
1 *3083:A0 0.00016998
2 *3410:X 0.00016998
3 *3083:S *3083:A0 2.54431e-05
4 *358:85 *3083:A0 5.71298e-05
5 *495:8 *3083:A0 3.86607e-05
6 *500:141 *3083:A0 5.83121e-06
7 *603:35 *3083:A0 0
*RES
1 *3410:X *3083:A0 9.555 
*END

*D_NET *744 0.00233118
*CONN
*I *2808:A1 I *D sky130_fd_sc_hd__o21a_1
*I *2625:A1 I *D sky130_fd_sc_hd__mux2_1
*I *3411:X O *D sky130_fd_sc_hd__dlygate4sd3_1
*CAP
1 *2808:A1 0.000520381
2 *2625:A1 4.57757e-05
3 *3411:X 0.000223065
4 *744:6 0.000789222
5 *2623:A1 *2808:A1 0.000124854
6 *2626:A *2808:A1 0.000240106
7 *2808:B1 *2808:A1 1.12157e-05
8 *2827:A *744:6 4.82919e-05
9 *3270:D *2808:A1 1.7635e-05
10 *3271:D *2808:A1 9.5799e-06
11 *316:14 *2625:A1 8.57024e-05
12 *316:14 *744:6 0.000108098
13 *328:18 *2808:A1 1.5269e-05
14 *356:14 *2808:A1 1.7635e-05
15 *679:23 *2808:A1 7.43471e-05
*RES
1 *3411:X *744:6 4.81 
2 *744:6 *2625:A1 2.395 
3 *744:6 *2808:A1 8.09353 
*END

*D_NET *745 0.0010893
*CONN
*I *3008:A0 I *D sky130_fd_sc_hd__mux2_1
*I *3412:X O *D sky130_fd_sc_hd__dlygate4sd3_1
*CAP
1 *3008:A0 0.000283858
2 *3412:X 0.000283858
3 *3008:A0 *2764:A1 0.000116933
4 *3050:A *3008:A0 4.8135e-05
5 *3183:CLK *3008:A0 0.000235378
6 *3183:D *3008:A0 9.0473e-05
7 *395:30 *3008:A0 3.06667e-05
*RES
1 *3412:X *3008:A0 12.915 
*END

*D_NET *746 0.000274518
*CONN
*I *2548:A1 I *D sky130_fd_sc_hd__mux2_1
*I *3413:X O *D sky130_fd_sc_hd__dlygate4sd3_1
*CAP
1 *2548:A1 7.69328e-05
2 *3413:X 7.69328e-05
3 *2548:A1 *2714:A1 4.82919e-05
4 *2563:A0 *2548:A1 0
5 *2565:A0 *2548:A1 7.23602e-05
*RES
1 *3413:X *2548:A1 8.52 
*END

*D_NET *747 0.000553896
*CONN
*I *2568:A0 I *D sky130_fd_sc_hd__mux2_1
*I *3414:X O *D sky130_fd_sc_hd__dlygate4sd3_1
*CAP
1 *2568:A0 0.000107313
2 *3414:X 0.000107313
3 *2568:A0 *2715:B2 0.000141264
4 *2568:S *2568:A0 7.4027e-05
5 *2588:S *2568:A0 0
6 *3254:CLK *2568:A0 0.00012398
*RES
1 *3414:X *2568:A0 9.975 
*END

*D_NET *748 0.0185674
*CONN
*I *2750:A2 I *D sky130_fd_sc_hd__a311o_1
*I *2802:A2 I *D sky130_fd_sc_hd__a221o_1
*I *2726:A2 I *D sky130_fd_sc_hd__a22o_1
*I *2794:A2 I *D sky130_fd_sc_hd__a21o_1
*I *3463:X O *D sky130_fd_sc_hd__clkbuf_2
*CAP
1 *2750:A2 6.05429e-05
2 *2802:A2 1.01771e-05
3 *2726:A2 2.36507e-05
4 *2794:A2 0.001443
5 *3463:X 0.00340762
6 *748:44 0.00167581
7 *748:38 0.000742546
8 *748:28 0.00399137
9 *2726:A2 *2726:B2 2.31547e-05
10 *2726:A2 *2802:B2 0
11 *2794:A2 *2725:A1 0.000118081
12 *2794:A2 *2726:B2 0.00012784
13 *2794:A2 *2736:B2 0
14 *2794:A2 *3317:A 0.000495112
15 *2794:A2 *3405:A 0.000149765
16 *2794:A2 *924:10 0.000833623
17 *2802:A2 *2802:B2 2.87433e-05
18 *748:28 *2698:A 9.12494e-06
19 *748:28 *2779:A 0.00010833
20 *748:38 *2749:A 1.32017e-05
21 *748:38 *919:10 4.92084e-05
22 *748:44 *2802:B2 0.000134204
23 *2595:A1 *2794:A2 4.19884e-05
24 *2595:S *2794:A2 7.34644e-05
25 *2607:B *2794:A2 0.000385327
26 *2698:C *748:28 9.47962e-06
27 *2726:B1 *2726:A2 4.00541e-06
28 *2726:B1 *2794:A2 9.43751e-05
29 *2750:A3 *2750:A2 4.8175e-05
30 *2750:A3 *748:28 9.03508e-06
31 *2750:B1 *2750:A2 1.10085e-05
32 *2802:C1 *2726:A2 4.00541e-06
33 *2802:C1 *2794:A2 6.07575e-06
34 *2802:C1 *748:44 4.65607e-05
35 *2876:A1 *748:38 5.0651e-05
36 *2889:B *748:28 1.31821e-05
37 *2889:B *748:38 0.000135973
38 *2920:A0 *2794:A2 0.000121437
39 *2920:S *2794:A2 0.000271308
40 *2935:A *2802:A2 1.54111e-05
41 *2935:A *748:44 1.7386e-05
42 *3152:CLK *2794:A2 4.82863e-05
43 *3152:D *2794:A2 1.43717e-05
44 *3157:CLK *748:38 0.000157602
45 *3464:A *748:28 4.07391e-05
46 *174:40 *2750:A2 2.30292e-05
47 *174:40 *748:28 1.17036e-05
48 *174:40 *748:38 5.05521e-05
49 *174:55 *2750:A2 2.45107e-05
50 *176:59 *748:28 4.59022e-06
51 *187:43 *748:28 0.000715568
52 *187:53 *748:28 0.000320653
53 *187:85 *748:28 0
54 *193:18 *748:28 0.000106067
55 *193:89 *748:28 0.000210939
56 *208:61 *2794:A2 0.000349166
57 *215:102 *2750:A2 5.83121e-06
58 *316:57 *2794:A2 0.00013691
59 *316:59 *2794:A2 3.86529e-05
60 *321:16 *748:28 3.94454e-05
61 *325:58 *748:38 3.09233e-05
62 *325:58 *748:44 4.9968e-05
63 *325:100 *748:38 0.000104609
64 *328:58 *748:28 0.000157552
65 *345:29 *748:28 3.86223e-05
66 *384:30 *748:28 0.000100812
67 *590:18 *748:28 6.60925e-05
68 *606:27 *748:38 0.000132096
69 *608:46 *748:28 1.62834e-05
70 *608:46 *748:38 0
71 *677:30 *748:28 5.18735e-06
72 *715:41 *748:38 0.000711098
73 *715:41 *748:44 5.16418e-05
74 *737:30 *748:28 0
*RES
1 *3463:X *748:28 15.194 
2 *748:28 *748:38 15.44 
3 *748:38 *748:44 5.825 
4 *748:44 *2794:A2 38.9 
5 *748:44 *2726:A2 2.215 
6 *748:38 *2802:A2 3.8775 
7 *748:28 *2750:A2 3.1 
*END

*D_NET *749 0.000552003
*CONN
*I *3092:A0 I *D sky130_fd_sc_hd__mux2_1
*I *3415:X O *D sky130_fd_sc_hd__dlygate4sd3_1
*CAP
1 *3092:A0 0.000101935
2 *3415:X 0.000101935
3 *3092:A1 *3092:A0 0.000152668
4 *3092:S *3092:A0 0.000195465
*RES
1 *3415:X *3092:A0 6.065 
*END

*D_NET *750 0.000398514
*CONN
*I *3078:A0 I *D sky130_fd_sc_hd__mux2_1
*I *3416:X O *D sky130_fd_sc_hd__dlygate4sd3_1
*CAP
1 *3078:A0 0.000100231
2 *3416:X 0.000100231
3 *489:14 *3078:A0 0.000198051
*RES
1 *3416:X *3078:A0 5.03 
*END

*D_NET *751 0.000365828
*CONN
*I *3025:A1 I *D sky130_fd_sc_hd__mux2_1
*I *3417:X O *D sky130_fd_sc_hd__dlygate4sd3_1
*CAP
1 *3025:A1 0.000104978
2 *3417:X 0.000104978
3 *3017:A *3025:A1 8.51862e-05
4 *183:134 *3025:A1 7.06865e-05
*RES
1 *3417:X *3025:A1 8.865 
*END

*D_NET *752 0.000464151
*CONN
*I *3068:A1 I *D sky130_fd_sc_hd__mux2_1
*I *3418:X O *D sky130_fd_sc_hd__dlygate4sd3_1
*CAP
1 *3068:A1 0.000208303
2 *3418:X 0.000208303
3 *3068:A1 *2782:A1 0
4 *3069:A *3068:A1 7.00889e-06
5 *430:82 *3068:A1 4.05358e-05
6 *483:10 *3068:A1 0
*RES
1 *3418:X *3068:A1 10.515 
*END

*D_NET *753 0.000515229
*CONN
*I *3010:A0 I *D sky130_fd_sc_hd__mux2_1
*I *3419:X O *D sky130_fd_sc_hd__dlygate4sd3_1
*CAP
1 *3010:A0 4.59829e-05
2 *3419:X 4.59829e-05
3 *3008:S *3010:A0 4.85494e-05
4 *450:6 *3010:A0 9.66021e-05
5 *474:55 *3010:A0 0.000278111
*RES
1 *3419:X *3010:A0 5.72 
*END

*D_NET *754 0.00129132
*CONN
*I *3081:A0 I *D sky130_fd_sc_hd__mux2_1
*I *3421:X O *D sky130_fd_sc_hd__dlygate4sd3_1
*CAP
1 *3081:A0 0.000460723
2 *3421:X 0.000460723
3 *3081:A0 *2747:A1 2.75229e-05
4 *3081:A0 *3421:A 2.75145e-05
5 *3211:D *3081:A0 5.39718e-05
6 *3222:CLK *3081:A0 0
7 *370:32 *3081:A0 0
8 *371:47 *3081:A0 1.19928e-05
9 *380:12 *3081:A0 0.000140071
10 *419:67 *3081:A0 0.000108806
*RES
1 *3421:X *3081:A0 14.355 
*END

*D_NET *755 0.000611498
*CONN
*I *2893:A0 I *D sky130_fd_sc_hd__mux2_1
*I *3422:X O *D sky130_fd_sc_hd__dlygate4sd3_1
*CAP
1 *2893:A0 0.000220019
2 *3422:X 0.000220019
3 *2890:A1 *2893:A0 0.000133592
4 *372:12 *2893:A0 3.78687e-05
5 *605:24 *2893:A0 0
*RES
1 *3422:X *2893:A0 10.245 
*END

*D_NET *756 0.000578339
*CONN
*I *3108:A1 I *D sky130_fd_sc_hd__mux2_1
*I *3423:X O *D sky130_fd_sc_hd__dlygate4sd3_1
*CAP
1 *3108:A1 0.000136363
2 *3423:X 0.000136363
3 *3108:A1 *829:8 0.000159225
4 *3110:S *3108:A1 7.4027e-05
5 *442:16 *3108:A1 7.23602e-05
*RES
1 *3423:X *3108:A1 9.555 
*END

*D_NET *757 0.000567058
*CONN
*I *2590:A0 I *D sky130_fd_sc_hd__mux2_1
*I *3424:X O *D sky130_fd_sc_hd__dlygate4sd3_1
*CAP
1 *2590:A0 0.000184635
2 *3424:X 0.000184635
3 *2590:A0 *2715:B2 7.23602e-05
4 *2568:S *2590:A0 7.23602e-05
5 *2590:S *2590:A0 5.30673e-05
*RES
1 *3424:X *2590:A0 9.9 
*END

*D_NET *758 0.000683493
*CONN
*I *2580:A1 I *D sky130_fd_sc_hd__mux2_1
*I *3425:X O *D sky130_fd_sc_hd__dlygate4sd3_1
*CAP
1 *2580:A1 0.000243309
2 *3425:X 0.000243309
3 *2580:A1 *2795:A1 3.79175e-05
4 *2580:A1 *2795:B2 5.83121e-06
5 *2711:B1 *2580:A1 1.56428e-05
6 *2719:B1 *2580:A1 7.1624e-05
7 *2795:A2 *2580:A1 6.58583e-05
*RES
1 *3425:X *2580:A1 11.31 
*END

*D_NET *759 0.0152615
*CONN
*I *2770:B I *D sky130_fd_sc_hd__and3_1
*I *2799:A2 I *D sky130_fd_sc_hd__a22o_1
*I *2722:A2 I *D sky130_fd_sc_hd__a221o_1
*I *2673:A I *D sky130_fd_sc_hd__nand2_1
*I *2748:A I *D sky130_fd_sc_hd__and2_1
*I *2739:B I *D sky130_fd_sc_hd__and3_1
*I *3464:X O *D sky130_fd_sc_hd__clkbuf_2
*CAP
1 *2770:B 3.98087e-05
2 *2799:A2 0.000313863
3 *2722:A2 0.000261816
4 *2673:A 7.78891e-05
5 *2748:A 0.000168807
6 *2739:B 0.0001185
7 *3464:X 0.000257542
8 *759:93 0.00154335
9 *759:70 0.00119619
10 *759:47 0.00136221
11 *759:18 0.00131949
12 *759:12 0.000455565
13 *2722:A2 *2722:A1 3.90873e-06
14 *2722:A2 *2722:B2 8.4929e-06
15 *2770:B *3373:A 2.49909e-05
16 *2799:A2 *2721:B2 3.64998e-06
17 *2799:A2 *2799:A1 2.97004e-06
18 *2541:A1 *759:12 0.000159176
19 *2542:A *759:12 4.66108e-05
20 *2546:A *2748:A 6.466e-05
21 *2546:B *2748:A 9.32087e-05
22 *2546:B *759:47 0.000176506
23 *2546:B *759:70 2.68526e-05
24 *2552:A *759:47 2.43962e-05
25 *2618:A1 *759:47 0.000155601
26 *2618:S *759:47 7.22384e-05
27 *2621:A *2748:A 7.10044e-05
28 *2621:A *759:47 7.31467e-05
29 *2621:A *759:70 0.000106476
30 *2673:B *2748:A 8.49205e-05
31 *2721:A2 *2799:A2 4.40693e-06
32 *2721:A2 *759:93 0.000111293
33 *2722:B1 *2722:A2 2.59833e-05
34 *2722:B1 *2799:A2 1.08105e-05
35 *2722:C1 *2722:A2 3.56402e-05
36 *2722:C1 *2799:A2 1.32026e-05
37 *2740:B1 *2739:B 4.77719e-05
38 *2740:B1 *759:47 0.0006919
39 *2751:B *759:47 7.01359e-05
40 *2773:B *759:18 7.23602e-05
41 *2778:B *2739:B 3.21047e-05
42 *2778:B *759:18 3.79425e-05
43 *2780:A3 *759:47 1.86753e-05
44 *2780:B1 *2748:A 0.000234906
45 *2799:B1 *2799:A2 0.000178357
46 *2800:C1 *2799:A2 3.77324e-05
47 *2807:A1 *759:93 0.000135506
48 *2944:S *2799:A2 3.12855e-05
49 *2949:B *759:47 0.000169342
50 *2951:A *759:93 9.12463e-05
51 *2952:S *759:93 0.00020306
52 *2955:B *759:93 0.000340573
53 *2956:A0 *2799:A2 8.8266e-05
54 *3258:CLK *2673:A 6.75372e-05
55 *3258:CLK *759:47 7.00889e-06
56 *3258:D *759:47 0
57 *3259:CLK *759:47 4.89314e-05
58 *3304:A *759:47 0.00035641
59 *176:24 *759:18 8.53113e-06
60 *176:51 *759:12 0.000180689
61 *176:51 *759:18 6.21553e-05
62 *211:66 *759:47 0
63 *211:72 *759:47 0
64 *211:94 *2799:A2 2.01737e-05
65 *218:55 *759:93 0.00100618
66 *231:36 *759:47 6.88421e-05
67 *322:55 *2673:A 6.99456e-05
68 *322:55 *759:70 6.46085e-05
69 *322:55 *759:93 0.000243347
70 *328:18 *2673:A 2.40202e-05
71 *328:22 *759:70 5.99393e-05
72 *356:14 *2799:A2 0
73 *411:47 *759:47 5.13924e-05
74 *412:10 *759:93 0.000109009
75 *415:41 *759:12 9.1566e-05
76 *415:41 *759:47 0.000168231
77 *415:41 *759:93 0.000514385
78 *416:12 *2799:A2 0.000203776
79 *511:22 *759:12 0.000232877
80 *511:38 *759:12 0.000234722
81 *527:16 *759:47 0.000257087
82 *605:16 *759:93 0
83 *737:30 *759:93 0.000113778
*RES
1 *3464:X *759:12 10.35 
2 *759:12 *759:18 4.355 
3 *759:18 *2739:B 3.085 
4 *759:18 *759:47 31.31 
5 *759:47 *2748:A 6.43 
6 *759:47 *759:70 3.345 
7 *759:70 *2673:A 7.235 
8 *759:70 *759:93 28.345 
9 *759:93 *2722:A2 5.11375 
10 *759:93 *2799:A2 11.675 
11 *759:12 *2770:B 4.05 
*END

*D_NET *760 0.000572304
*CONN
*I *3015:A0 I *D sky130_fd_sc_hd__mux2_1
*I *3426:X O *D sky130_fd_sc_hd__dlygate4sd3_1
*CAP
1 *3015:A0 0.00022013
2 *3426:X 0.00022013
3 *3015:A0 *3426:A 0
4 *445:109 *3015:A0 5.30673e-05
5 *604:116 *3015:A0 7.89767e-05
*RES
1 *3426:X *3015:A0 10.905 
*END

*D_NET *761 0.000806049
*CONN
*I *3045:A1 I *D sky130_fd_sc_hd__mux2_1
*I *3427:X O *D sky130_fd_sc_hd__dlygate4sd3_1
*CAP
1 *3045:A1 0.000200624
2 *3427:X 0.000200624
3 *3045:A1 *2756:A1 5.46663e-05
4 *3043:S *3045:A1 3.34419e-05
5 *3045:S *3045:A1 2.68464e-05
6 *3196:CLK *3045:A1 5.20619e-05
7 *3196:D *3045:A1 0.000230838
8 *471:10 *3045:A1 6.94735e-06
*RES
1 *3427:X *3045:A1 12.09 
*END

*D_NET *762 0.00166033
*CONN
*I *2620:A1 I *D sky130_fd_sc_hd__mux2_1
*I *3428:X O *D sky130_fd_sc_hd__dlygate4sd3_1
*CAP
1 *2620:A1 0.000433271
2 *3428:X 0.000433271
3 *2625:A0 *2620:A1 8.63479e-05
4 *2968:A *2620:A1 6.81888e-05
5 *218:55 *2620:A1 0.000288345
6 *322:55 *2620:A1 8.88799e-05
7 *415:41 *2620:A1 0.000262023
*RES
1 *3428:X *2620:A1 15.315 
*END

*D_NET *763 0.000798152
*CONN
*I *3066:A1 I *D sky130_fd_sc_hd__mux2_1
*I *3429:X O *D sky130_fd_sc_hd__dlygate4sd3_1
*CAP
1 *3066:A1 0.000243595
2 *3429:X 0.000243595
3 *3066:A1 *2732:B2 2.19562e-06
4 *2783:B1 *3066:A1 2.65814e-06
5 *2784:B1 *3066:A1 0.000139245
6 *3066:A0 *3066:A1 7.35813e-05
7 *3067:A *3066:A1 0
8 *235:18 *3066:A1 9.32826e-05
*RES
1 *3429:X *3066:A1 11.595 
*END

*D_NET *764 0.000888647
*CONN
*I *2926:A0 I *D sky130_fd_sc_hd__mux2_1
*I *3430:X O *D sky130_fd_sc_hd__dlygate4sd3_1
*CAP
1 *2926:A0 0.000184872
2 *3430:X 0.000184872
3 *2926:A0 *2803:B2 0.000137571
4 *2926:A1 *2926:A0 0.000122325
5 *3154:D *2926:A0 0.000259007
*RES
1 *3430:X *2926:A0 11.115 
*END

*D_NET *765 0.00188569
*CONN
*I *3040:A1 I *D sky130_fd_sc_hd__mux2_1
*I *3432:X O *D sky130_fd_sc_hd__dlygate4sd3_1
*CAP
1 *3040:A1 0.000456043
2 *3432:X 0.000456043
3 *3040:A1 *2755:B2 0
4 *3040:A1 *3432:A 0.000352161
5 *2755:A2 *3040:A1 2.50251e-05
6 *2756:C1 *3040:A1 0.000132821
7 *3038:S *3040:A1 9.55262e-06
8 *3193:CLK *3040:A1 4.66108e-05
9 *430:144 *3040:A1 0.000192186
10 *468:16 *3040:A1 1.08758e-05
11 *595:34 *3040:A1 0.000204371
*RES
1 *3432:X *3040:A1 16.545 
*END

*D_NET *766 0.000649219
*CONN
*I *2916:A0 I *D sky130_fd_sc_hd__mux2_1
*I *3433:X O *D sky130_fd_sc_hd__dlygate4sd3_1
*CAP
1 *2916:A0 0.000138995
2 *3433:X 0.000138995
3 *2730:A3 *2916:A0 0.000264963
4 *2730:B1 *2916:A0 0
5 *2914:S *2916:A0 1.00212e-05
6 *351:52 *2916:A0 9.62444e-05
*RES
1 *3433:X *2916:A0 10.875 
*END

*D_NET *767 0.000834294
*CONN
*I *3089:A1 I *D sky130_fd_sc_hd__mux2_1
*I *3434:X O *D sky130_fd_sc_hd__dlygate4sd3_1
*CAP
1 *3089:A1 0.00030963
2 *3434:X 0.00030963
3 *3089:A1 *3370:A 6.95647e-05
4 *187:24 *3089:A1 3.72081e-05
5 *202:10 *3089:A1 2.41307e-05
6 *603:33 *3089:A1 8.41307e-05
*RES
1 *3434:X *3089:A1 11.28 
*END

*D_NET *768 0.000401657
*CONN
*I *2832:A0 I *D sky130_fd_sc_hd__mux2_1
*I *3435:X O *D sky130_fd_sc_hd__dlygate4sd3_1
*CAP
1 *2832:A0 4.37718e-05
2 *3435:X 4.37718e-05
3 *2832:A0 *2725:B2 0.000159048
4 *2832:A0 *922:12 8.52883e-05
5 *2832:A1 *2832:A0 4.77757e-05
6 *2832:S *2832:A0 2.20014e-05
*RES
1 *3435:X *2832:A0 5.03 
*END

*D_NET *769 0.000372925
*CONN
*I *2940:A0 I *D sky130_fd_sc_hd__mux2_1
*I *3436:X O *D sky130_fd_sc_hd__dlygate4sd3_1
*CAP
1 *2940:A0 0.000111202
2 *3436:X 0.000111202
3 *2940:A0 *3436:A 2.8185e-05
4 *2940:S *2940:A0 0.000122337
*RES
1 *3436:X *2940:A0 5.03 
*END

*D_NET *770 0.0042878
*CONN
*I *2812:B I *D sky130_fd_sc_hd__and4_1
*I *3387:A I *D sky130_fd_sc_hd__dlygate4sd3_1
*I *2821:A I *D sky130_fd_sc_hd__buf_2
*I *2863:A I *D sky130_fd_sc_hd__or2b_1
*I *3128:Q O *D sky130_fd_sc_hd__dfrtp_1
*CAP
1 *2812:B 1.77753e-05
2 *3387:A 0
3 *2821:A 0
4 *2863:A 0.000339779
5 *3128:Q 0.000129654
6 *770:28 0.000511095
7 *770:16 0.000205756
8 *770:14 0.000181868
9 *2812:B *2820:A 0
10 *2812:B *772:29 0
11 *2863:A *773:46 6.1357e-05
12 *770:14 *2812:D 4.82863e-05
13 *770:14 *771:14 3.96737e-05
14 *770:14 *772:29 0.00010978
15 *770:16 *2820:A 3.23663e-05
16 *770:16 *771:14 5.05437e-05
17 *770:16 *772:29 4.66108e-05
18 *770:16 *773:16 6.07328e-05
19 *770:28 *2820:A 0.000344762
20 *770:28 *773:16 0.000428779
21 *2847:B1 *2863:A 3.09233e-05
22 *2849:A *2863:A 0.000116158
23 *2849:A *770:28 0.000177561
24 *3128:CLK *770:28 0.000162318
25 *3129:D *2863:A 4.54351e-05
26 *3130:D *770:28 1.80685e-05
27 *3264:CLK *770:14 6.28765e-05
28 *312:8 *770:14 7.23602e-05
29 *318:14 *2863:A 0.000157522
30 *318:14 *770:28 6.00468e-05
31 *318:51 *2863:A 4.01778e-05
32 *319:16 *2863:A 0.000232111
33 *319:39 *2863:A 0.000381094
34 *320:10 *2863:A 0.000122331
*RES
1 *3128:Q *770:14 8.57 
2 *770:14 *770:16 1.485 
3 *770:16 *770:28 9.215 
4 *770:28 *2863:A 12.54 
5 *770:28 *2821:A 3.6 
6 *770:16 *3387:A 1.6 
7 *770:14 *2812:B 1.96 
*END

*D_NET *771 0.00263271
*CONN
*I *3307:A I *D sky130_fd_sc_hd__dlygate4sd3_1
*I *2820:A I *D sky130_fd_sc_hd__clkbuf_2
*I *2812:A I *D sky130_fd_sc_hd__and4_1
*I *3129:Q O *D sky130_fd_sc_hd__dfrtp_1
*CAP
1 *3307:A 0.000261139
2 *2820:A 0.000235558
3 *2812:A 0
4 *3129:Q 0
5 *771:14 0.000427598
6 *771:4 0.000453179
7 *3307:A *3398:A 6.69341e-05
8 *771:14 *2812:C 4.66108e-05
9 *771:14 *2812:D 1.16578e-05
10 *771:14 *3398:A 0.000127181
11 *771:14 *772:12 4.05358e-05
12 *2812:B *2820:A 0
13 *3130:D *2820:A 1.34594e-05
14 *3263:D *2820:A 9.78003e-05
15 *3264:CLK *3307:A 0
16 *3264:CLK *771:14 0.000365327
17 *3265:D *3307:A 1.83847e-05
18 *770:14 *771:14 3.96737e-05
19 *770:16 *2820:A 3.23663e-05
20 *770:16 *771:14 5.05437e-05
21 *770:28 *2820:A 0.000344762
*RES
1 *3129:Q *771:4 1.6 
2 *771:4 *771:14 10.03 
3 *771:14 *2812:A 1.6 
4 *771:14 *2820:A 7.195 
5 *771:4 *3307:A 9.155 
*END

*D_NET *772 0.008745
*CONN
*I *3398:A I *D sky130_fd_sc_hd__dlygate4sd3_1
*I *2846:A I *D sky130_fd_sc_hd__buf_2
*I *2864:B I *D sky130_fd_sc_hd__nand2_1
*I *2822:C I *D sky130_fd_sc_hd__and3_1
*I *2930:D_N I *D sky130_fd_sc_hd__or4b_4
*I *2907:C I *D sky130_fd_sc_hd__or4b_2
*I *2851:C_N I *D sky130_fd_sc_hd__or3b_1
*I *2812:D I *D sky130_fd_sc_hd__and4_1
*I *3130:Q O *D sky130_fd_sc_hd__dfrtp_2
*CAP
1 *3398:A 0.000207571
2 *2846:A 8.36738e-05
3 *2864:B 5.716e-05
4 *2822:C 0.000151844
5 *2930:D_N 9.57074e-05
6 *2907:C 2.52588e-05
7 *2851:C_N 6.80222e-05
8 *2812:D 3.25205e-05
9 *3130:Q 7.56888e-05
10 *772:45 0.000231397
11 *772:39 0.000841448
12 *772:33 0.000825346
13 *772:31 0.000646661
14 *772:29 0.00106026
15 *772:12 0.000557141
16 *772:8 0.00035492
17 *2822:C *2864:A 0.000244919
18 *2822:C *773:29 2.07184e-05
19 *2822:C *773:46 5.66235e-05
20 *2846:A *773:12 8.09809e-05
21 *2851:C_N *2851:B 3.50518e-05
22 *2864:B *2864:A 0.000114492
23 *2907:C *2851:B 1.49844e-05
24 *2930:D_N *773:79 0.000134516
25 *772:29 *2812:C 2.07184e-05
26 *772:29 *773:12 0.00048963
27 *772:29 *773:16 4.66108e-05
28 *772:31 *773:12 8.65905e-05
29 *772:45 *773:79 8.34281e-06
30 *2812:B *772:29 0
31 *2839:B1 *2846:A 1.34503e-05
32 *2839:B1 *772:31 4.58257e-05
33 *2841:A *772:31 6.0011e-05
34 *2841:A *772:33 2.76356e-05
35 *2841:A *772:39 7.79365e-05
36 *2841:B_N *2822:C 7.90106e-05
37 *2841:B_N *772:39 0.000203341
38 *2844:A1_N *2864:B 4.99619e-05
39 *2844:A2_N *2864:B 2.97004e-06
40 *2844:B1 *2864:B 0
41 *2845:A1 *2864:B 4.66108e-05
42 *2848:A *772:29 0
43 *2880:A *2851:C_N 5.40144e-05
44 *2880:A *2907:C 2.36707e-05
45 *2880:A *2930:D_N 1.03572e-05
46 *2880:B *2930:D_N 0
47 *2907:A *772:45 8.41307e-05
48 *2907:B *2930:D_N 7.06865e-05
49 *2948:A *2930:D_N 0
50 *3129:D *2864:B 7.23533e-05
51 *3131:D *2822:C 3.09233e-05
52 *3264:CLK *772:12 1.65105e-05
53 *3264:CLK *772:29 2.23485e-05
54 *3307:A *3398:A 6.69341e-05
55 *211:18 *2822:C 1.65192e-05
56 *318:60 *2822:C 5.66235e-05
57 *318:92 *2930:D_N 1.07969e-05
58 *319:39 *2822:C 2.59981e-05
59 *334:43 *772:29 0
60 *335:8 *772:31 1.74678e-05
61 *336:14 *772:39 0.000224613
62 *336:22 *2930:D_N 8.7152e-06
63 *336:22 *772:39 0.000194891
64 *336:22 *772:45 2.95491e-05
65 *340:8 *772:31 3.06659e-05
66 *411:12 *2930:D_N 1.7635e-05
67 *415:31 *2930:D_N 0
68 *770:14 *2812:D 4.82863e-05
69 *770:14 *772:29 0.00010978
70 *770:16 *772:29 4.66108e-05
71 *771:14 *2812:D 1.16578e-05
72 *771:14 *3398:A 0.000127181
73 *771:14 *772:12 4.05358e-05
*RES
1 *3130:Q *772:8 4.395 
2 *772:8 *772:12 3.38 
3 *772:12 *2812:D 2.395 
4 *772:12 *772:29 12.925 
5 *772:29 *772:31 6.315 
6 *772:31 *772:33 0.795 
7 *772:33 *772:39 8.85 
8 *772:39 *772:45 3.845 
9 *772:45 *2851:C_N 4.98 
10 *772:45 *2907:C 4.215 
11 *772:39 *2930:D_N 7.745 
12 *772:33 *2822:C 9.725 
13 *772:31 *2864:B 7.43 
14 *772:29 *2846:A 3.01 
15 *772:8 *3398:A 8.085 
*END

*D_NET *773 0.00970782
*CONN
*I *2812:C I *D sky130_fd_sc_hd__and4_1
*I *2819:A I *D sky130_fd_sc_hd__buf_2
*I *2954:C I *D sky130_fd_sc_hd__or4_2
*I *2851:B I *D sky130_fd_sc_hd__or3b_1
*I *2907:D_N I *D sky130_fd_sc_hd__or4b_2
*I *2930:C I *D sky130_fd_sc_hd__or4b_4
*I *2864:A I *D sky130_fd_sc_hd__nand2_1
*I *3376:A I *D sky130_fd_sc_hd__dlygate4sd3_1
*I *3131:Q O *D sky130_fd_sc_hd__dfrtp_4
*CAP
1 *2812:C 0.000102352
2 *2819:A 0
3 *2954:C 1.42455e-05
4 *2851:B 0.000130911
5 *2907:D_N 5.92072e-05
6 *2930:C 4.9744e-05
7 *2864:A 0.000162042
8 *3376:A 0.000104136
9 *3131:Q 0.000167734
10 *773:79 0.000314915
11 *773:62 0.000232102
12 *773:60 0.000464683
13 *773:46 0.000473915
14 *773:29 0.000379688
15 *773:16 0.00077411
16 *773:12 0.000803452
17 *2822:C *2864:A 0.000244919
18 *2822:C *773:29 2.07184e-05
19 *2822:C *773:46 5.66235e-05
20 *2839:B1 *773:12 7.22354e-05
21 *2844:A1_N *2864:A 4.66108e-05
22 *2845:A1 *2864:A 4.82919e-05
23 *2846:A *773:12 8.09809e-05
24 *2849:A *3376:A 1.83756e-05
25 *2849:A *773:16 4.38278e-05
26 *2851:C_N *2851:B 3.50518e-05
27 *2863:A *773:46 6.1357e-05
28 *2864:B *2864:A 0.000114492
29 *2888:D_N *2851:B 5.53549e-06
30 *2888:D_N *2907:D_N 3.4026e-05
31 *2907:A *773:79 9.00196e-05
32 *2907:C *2851:B 1.49844e-05
33 *2930:A *2930:C 5.12969e-06
34 *2930:D_N *773:79 0.000134516
35 *2948:A *773:60 8.42651e-06
36 *3129:D *2864:A 0.000209209
37 *3129:D *773:29 0.000294414
38 *3130:D *773:16 2.19562e-06
39 *3131:D *2864:A 6.16838e-05
40 *3264:CLK *2812:C 0.000114492
41 *3264:CLK *773:12 0.00049436
42 *211:18 *773:29 0
43 *318:51 *773:46 4.66108e-05
44 *318:60 *773:46 0.00011557
45 *318:66 *2954:C 4.66108e-05
46 *318:66 *773:62 3.6355e-05
47 *318:68 *2930:C 3.57349e-05
48 *318:68 *773:62 0.000198618
49 *318:70 *2930:C 8.52845e-05
50 *318:92 *2851:B 0
51 *318:92 *773:79 0.00014808
52 *319:39 *773:46 0.000193801
53 *319:41 *2954:C 1.91597e-05
54 *319:41 *773:62 5.83121e-06
55 *319:43 *773:62 9.10058e-05
56 *319:47 *2930:C 7.61556e-05
57 *319:47 *773:62 3.83194e-05
58 *336:22 *773:79 1.16578e-05
59 *340:25 *773:60 0.000155703
60 *340:35 *2907:D_N 0.000121643
61 *340:35 *773:79 0.000232403
62 *343:31 *2907:D_N 3.02363e-05
63 *365:12 *2851:B 0
64 *384:14 *2907:D_N 1.19928e-05
65 *411:33 *2851:B 0.000203835
66 *415:31 *773:60 3.78941e-05
67 *415:31 *773:79 0
68 *595:10 *773:60 1.92979e-05
69 *607:33 *773:60 5.05716e-06
70 *678:16 *2851:B 7.23943e-06
71 *770:16 *773:16 6.07328e-05
72 *770:28 *773:16 0.000428779
73 *771:14 *2812:C 4.66108e-05
74 *772:29 *2812:C 2.07184e-05
75 *772:29 *773:12 0.00048963
76 *772:29 *773:16 4.66108e-05
77 *772:31 *773:12 8.65905e-05
78 *772:45 *773:79 8.34281e-06
*RES
1 *3131:Q *773:12 10.815 
2 *773:12 *773:16 9.005 
3 *773:16 *3376:A 3.01 
4 *773:16 *773:29 5.42 
5 *773:29 *2864:A 8.685 
6 *773:29 *773:46 4.865 
7 *773:46 *773:60 6.4572 
8 *773:60 *773:62 2.175 
9 *773:62 *2930:C 3.1 
10 *773:62 *773:79 8.065 
11 *773:79 *2907:D_N 3.1 
12 *773:79 *2851:B 8.51 
13 *773:60 *2954:C 2.05 
14 *773:46 *2819:A 1.6 
15 *773:12 *2812:C 5.43 
*END

*D_NET *774 0.0129088
*CONN
*I *2813:A I *D sky130_fd_sc_hd__and4_1
*I *2960:A_N I *D sky130_fd_sc_hd__nand3b_4
*I *3047:C I *D sky130_fd_sc_hd__nand3b_4
*I *2824:A I *D sky130_fd_sc_hd__nand3_4
*I *2545:A I *D sky130_fd_sc_hd__or3b_4
*I *2855:B1 I *D sky130_fd_sc_hd__a21o_1
*I *3308:A I *D sky130_fd_sc_hd__dlygate4sd3_1
*I *2836:A I *D sky130_fd_sc_hd__nand2_1
*I *3132:Q O *D sky130_fd_sc_hd__dfrtp_4
*CAP
1 *2813:A 0
2 *2960:A_N 3.44872e-05
3 *3047:C 0
4 *2824:A 0
5 *2545:A 0.000288175
6 *2855:B1 0
7 *3308:A 0.000219617
8 *2836:A 0.000321687
9 *3132:Q 0.000121333
10 *774:103 8.6233e-05
11 *774:83 0.000744808
12 *774:77 0.00108664
13 *774:64 0.00131514
14 *774:39 0.000982569
15 *774:35 0.000355562
16 *774:8 0.000772515
17 *2545:A *2545:B 0.000301905
18 *2545:A *775:97 0
19 *2836:A *775:22 8.65071e-06
20 *2960:A_N *775:80 0.000196077
21 *774:35 *2813:B 4.77719e-05
22 *774:35 *775:30 0
23 *774:39 *2813:B 7.44125e-05
24 *774:39 *775:30 4.66108e-05
25 *774:64 *775:30 1.79536e-05
26 *774:77 *2743:A 1.858e-05
27 *774:77 *3393:A 0.000202757
28 *2545:C_N *2545:A 2.16833e-05
29 *2632:B1 *3308:A 5.16418e-05
30 *2744:B *774:83 1.53032e-05
31 *2813:D *2836:A 7.49727e-06
32 *2813:D *774:35 0.000217617
33 *2837:A1 *774:35 2.15738e-05
34 *2837:B1 *774:35 0
35 *2842:B *774:35 6.48137e-05
36 *2843:A *774:64 0.000119247
37 *2843:A *774:77 0
38 *2854:A2 *774:77 0
39 *2855:A1 *774:77 8.46818e-05
40 *2856:A *774:64 0.000197609
41 *2856:B *774:64 3.50033e-05
42 *2857:A *774:64 0.000134291
43 *2973:A *2545:A 1.47256e-05
44 *2973:A *774:83 0.000123225
45 *2977:A0 *774:83 0.000401288
46 *2977:A1 *774:83 7.23602e-05
47 *2977:S *774:83 0.000206491
48 *3047:B *2960:A_N 0.000196077
49 *3058:A0 *774:83 0.000164686
50 *3275:RESET_B *3308:A 0.000138551
51 *3292:A *774:64 7.12809e-05
52 *3304:A *774:83 0.000198013
53 *8:18 *3308:A 9.25387e-05
54 *159:58 *3308:A 0.000134184
55 *159:58 *774:35 2.75707e-05
56 *159:58 *774:64 3.82741e-05
57 *211:18 *774:83 0.000198856
58 *211:18 *774:103 0.000149088
59 *310:44 *3308:A 0
60 *310:55 *3308:A 0
61 *310:55 *774:35 4.1652e-06
62 *323:55 *774:83 0.00139938
63 *323:55 *774:103 0.000154857
64 *330:8 *774:35 3.75126e-05
65 *330:8 *774:39 0.000121023
66 *334:8 *774:64 0
67 *334:18 *774:64 0.000109283
68 *334:18 *774:77 6.21447e-05
69 *334:26 *774:77 8.41384e-05
70 *527:16 *2545:A 4.22112e-05
71 *594:27 *774:77 3.5678e-06
72 *596:49 *3308:A 0.000158536
73 *597:10 *774:64 0
74 *641:31 *2545:A 0.000192125
75 *641:31 *774:83 4.01778e-05
76 *663:25 *2836:A 5.80021e-05
77 *663:25 *3308:A 0
78 *663:25 *774:64 0
*RES
1 *3132:Q *774:8 3.1 
2 *774:8 *2836:A 9.98 
3 *774:8 *774:35 11.065 
4 *774:35 *774:39 3.14 
5 *774:39 *3308:A 9.015 
6 *774:39 *774:64 10.0003 
7 *774:64 *2855:B1 1.6 
8 *774:64 *774:77 11.795 
9 *774:77 *774:83 19.565 
10 *774:83 *2545:A 7.165 
11 *774:83 *2824:A 1.6 
12 *774:77 *774:103 3.89 
13 *774:103 *3047:C 1.6 
14 *774:103 *2960:A_N 3.43 
15 *774:35 *2813:A 1.6 
*END

*D_NET *775 0.0118485
*CONN
*I *2859:B2 I *D sky130_fd_sc_hd__a2bb2o_1
*I *2960:B I *D sky130_fd_sc_hd__nand3b_4
*I *2824:B I *D sky130_fd_sc_hd__nand3_4
*I *2545:B I *D sky130_fd_sc_hd__or3b_4
*I *3047:A_N I *D sky130_fd_sc_hd__nand3b_4
*I *2858:A I *D sky130_fd_sc_hd__or2_1
*I *2835:A I *D sky130_fd_sc_hd__inv_2
*I *2813:B I *D sky130_fd_sc_hd__and4_1
*I *3341:A I *D sky130_fd_sc_hd__dlygate4sd3_1
*I *3133:Q O *D sky130_fd_sc_hd__dfrtp_4
*CAP
1 *2859:B2 0
2 *2960:B 1.68794e-05
3 *2824:B 0
4 *2545:B 9.41603e-05
5 *3047:A_N 2.70673e-05
6 *2858:A 0
7 *2835:A 5.10204e-05
8 *2813:B 3.71245e-05
9 *3341:A 0
10 *3133:Q 0.000239028
11 *775:97 0.000673112
12 *775:80 0.00107252
13 *775:76 0.000941033
14 *775:64 0.000544193
15 *775:30 0.000215867
16 *775:22 0.000393893
17 *775:18 0.00027477
18 *775:12 0.000436209
19 *2545:A *2545:B 0.000301905
20 *2545:A *775:97 0
21 *2545:C_N *2545:B 8.40269e-05
22 *2773:C *775:97 7.71267e-05
23 *2773:D *775:97 0.000138551
24 *2813:C *2813:B 9.00258e-05
25 *2813:C *775:30 2.49909e-05
26 *2813:D *2835:A 2.76728e-05
27 *2813:D *775:22 1.51857e-05
28 *2836:A *775:22 8.65071e-06
29 *2836:B *775:22 7.73666e-05
30 *2837:A1 *2835:A 1.14192e-05
31 *2837:A1 *775:30 6.39674e-05
32 *2837:B1 *775:30 0.000117832
33 *2838:A2 *775:30 7.4027e-05
34 *2843:A *775:76 9.54046e-05
35 *2855:A1 *775:76 1.0397e-05
36 *2856:A *775:18 1.28996e-05
37 *2859:A1_N *775:76 0.000102671
38 *2859:A2_N *775:18 0.000153164
39 *2859:A2_N *775:64 0.000176169
40 *2859:A2_N *775:76 7.09332e-05
41 *2943:B *775:97 0.000106321
42 *2960:A_N *775:80 0.000196077
43 *2960:C *2960:B 3.5678e-06
44 *2960:C *775:76 3.57083e-05
45 *2960:C *775:80 3.0933e-05
46 *2973:A *775:97 4.00541e-06
47 *2979:A *775:97 0.000674633
48 *3047:B *775:80 7.4793e-05
49 *3055:B *775:80 8.73389e-06
50 *3132:CLK *775:64 4.65043e-05
51 *3132:CLK *775:76 0.000231826
52 *3132:D *775:64 3.51955e-05
53 *159:58 *775:30 1.27504e-05
54 *174:18 *775:97 0.000133281
55 *176:24 *775:97 3.30143e-05
56 *176:51 *775:97 4.39079e-05
57 *215:72 *775:97 0.00103921
58 *215:78 *775:97 0.000477892
59 *231:36 *775:97 9.21178e-05
60 *312:29 *775:12 0.000110494
61 *330:8 *2813:B 2.20014e-05
62 *330:8 *775:30 2.16833e-05
63 *330:18 *775:12 9.65637e-05
64 *330:18 *775:18 5.87002e-05
65 *332:6 *775:22 1.42674e-05
66 *334:34 *775:76 0.000115345
67 *337:20 *775:18 0.000122202
68 *337:20 *775:22 3.12916e-05
69 *338:12 *775:76 1.01074e-05
70 *407:16 *775:97 0.000201369
71 *419:10 *2960:B 5.19006e-06
72 *419:10 *775:80 0.000122821
73 *474:10 *3047:A_N 1.56428e-05
74 *474:10 *775:80 2.93836e-05
75 *597:43 *775:76 7.03276e-05
76 *641:21 *2545:B 0.000182143
77 *641:21 *775:97 8.3377e-05
78 *663:19 *775:12 0.000227891
79 *663:25 *775:30 8.92304e-05
80 *774:35 *2813:B 4.77719e-05
81 *774:35 *775:30 0
82 *774:39 *2813:B 7.44125e-05
83 *774:39 *775:30 4.66108e-05
84 *774:64 *775:30 1.79536e-05
*RES
1 *3133:Q *775:12 8.97 
2 *775:12 *775:18 4.865 
3 *775:18 *775:22 3.045 
4 *775:22 *775:30 8.47 
5 *775:30 *3341:A 1.6 
6 *775:30 *2813:B 3.085 
7 *775:22 *2835:A 3.085 
8 *775:18 *2858:A 1.6 
9 *775:12 *775:64 4.445 
10 *775:64 *775:76 11.995 
11 *775:76 *775:80 7.71 
12 *775:80 *3047:A_N 2.05 
13 *775:80 *775:97 23.455 
14 *775:97 *2545:B 4.825 
15 *775:97 *2824:B 1.6 
16 *775:76 *2960:B 1.96 
17 *775:64 *2859:B2 1.6 
*END

*D_NET *776 0.00373458
*CONN
*I *3361:A I *D sky130_fd_sc_hd__dlygate4sd3_1
*I *2825:D_N I *D sky130_fd_sc_hd__or4b_2
*I *3275:Q O *D sky130_fd_sc_hd__dfrtp_1
*CAP
1 *3361:A 0.000315923
2 *2825:D_N 0.000519297
3 *3275:Q 0
4 *776:6 0.00083522
5 *2825:D_N *2646:A_N 0.000157828
6 *3361:A *2811:B 0.00022867
7 *3361:A *779:12 9.50342e-06
8 *2667:A *3361:A 0.000123592
9 *2667:B *2825:D_N 0.000278753
10 *3274:RESET_B *2825:D_N 0.000411441
11 *3274:RESET_B *3361:A 0.000111066
12 *159:58 *2825:D_N 0.000338614
13 *159:58 *3361:A 0.000223286
14 *323:22 *2825:D_N 0.000113255
15 *596:16 *3361:A 0
16 *682:20 *2825:D_N 6.81315e-05
*RES
1 *3275:Q *776:6 3.6 
2 *776:6 *2825:D_N 19.665 
3 *776:6 *3361:A 11.535 
*END

*D_NET *777 0.000581802
*CONN
*I *3431:A I *D sky130_fd_sc_hd__dlygate4sd3_1
*I *3134:Q O *D sky130_fd_sc_hd__dfrtp_1
*CAP
1 *3431:A 0.000188862
2 *3134:Q 0.000188862
3 *2667:A *3431:A 0
4 *3135:CLK *3431:A 9.84013e-05
5 *596:51 *3431:A 0.000105677
*RES
1 *3134:Q *3431:A 11.175 
*END

*D_NET *778 0.000960123
*CONN
*I *3357:A I *D sky130_fd_sc_hd__dlygate4sd3_1
*I *2810:A I *D sky130_fd_sc_hd__inv_2
*I *3282:Q O *D sky130_fd_sc_hd__dfrtp_1
*CAP
1 *3357:A 2.92427e-05
2 *2810:A 0.000230394
3 *3282:Q 0.000209871
4 *778:10 0.000469507
5 *2658:B *2810:A 2.11084e-05
6 *3461:A *778:10 0
*RES
1 *3282:Q *778:10 9.02 
2 *778:10 *2810:A 5.155 
3 *778:10 *3357:A 2.05 
*END

*D_NET *779 0.00334492
*CONN
*I *2815:B I *D sky130_fd_sc_hd__and2_1
*I *2811:B I *D sky130_fd_sc_hd__or2_1
*I *2632:A1 I *D sky130_fd_sc_hd__o21ai_1
*I *3126:Q O *D sky130_fd_sc_hd__dfstp_1
*CAP
1 *2815:B 0.000135967
2 *2811:B 0.000261547
3 *2632:A1 0
4 *3126:Q 0
5 *779:12 0.000704782
6 *779:4 0.000579202
7 *2632:A2 *2811:B 1.19928e-05
8 *2632:B1 *2811:B 4.99619e-05
9 *2633:A1 *2811:B 9.53743e-05
10 *2633:B1 *2811:B 0.000527801
11 *2633:B2 *2811:B 3.26889e-05
12 *2667:A *2811:B 9.16337e-05
13 *2814:A3 *2811:B 2.29156e-05
14 *2815:A *2815:B 3.45708e-05
15 *2815:A *779:12 1.54111e-05
16 *3127:CLK *2815:B 2.84192e-05
17 *3127:RESET_B *2815:B 1.75875e-05
18 *3127:RESET_B *779:12 7.4894e-05
19 *3275:D *2811:B 3.68593e-05
20 *3361:A *2811:B 0.00022867
21 *3361:A *779:12 9.50342e-06
22 *8:18 *779:12 0
23 *159:58 *779:12 0.000312778
24 *310:16 *2811:B 1.46828e-05
25 *311:6 *2811:B 3.00381e-05
26 *596:16 *779:12 0
27 *663:25 *779:12 2.76356e-05
*RES
1 *3126:Q *779:4 1.6 
2 *779:4 *779:12 11.0575 
3 *779:12 *2632:A1 1.6 
4 *779:12 *2811:B 10.135 
5 *779:4 *2815:B 3.5275 
*END

*D_NET *780 0.00342387
*CONN
*I *2658:A I *D sky130_fd_sc_hd__or2_1
*I *3360:A I *D sky130_fd_sc_hd__dlygate4sd3_1
*I *2811:A I *D sky130_fd_sc_hd__or2_1
*I *2842:A I *D sky130_fd_sc_hd__and2_1
*I *2834:A I *D sky130_fd_sc_hd__nand2_1
*I *3127:Q O *D sky130_fd_sc_hd__dfrtp_1
*CAP
1 *2658:A 0.000103862
2 *3360:A 2.08101e-05
3 *2811:A 0.000174593
4 *2842:A 0.000138294
5 *2834:A 0
6 *3127:Q 0.000386198
7 *780:51 0.000260259
8 *780:38 0.000456922
9 *780:14 0.000522179
10 *780:6 0.000916825
11 *2633:B1 *2811:A 0
12 *2659:A *780:38 0
13 *2813:D *2842:A 0.000115614
14 *2814:A3 *2811:A 0
15 *2816:A *780:38 0
16 *2834:B *2842:A 5.39775e-05
17 *2842:B *2842:A 1.18236e-05
18 *3127:D *780:14 2.75145e-05
19 *3127:D *780:38 2.03578e-05
20 *3127:RESET_B *780:6 9.71251e-06
21 *3127:RESET_B *780:14 0.000168711
22 *310:16 *2811:A 0
23 *313:12 *780:14 3.62197e-05
*RES
1 *3127:Q *780:6 5.845 
2 *780:6 *780:14 9.19 
3 *780:14 *2834:A 1.6 
4 *780:14 *2842:A 8.39 
5 *780:6 *780:38 4.4 
6 *780:38 *2811:A 6.255 
7 *780:38 *780:51 3.83 
8 *780:51 *3360:A 1.96 
9 *780:51 *2658:A 3.085 
*END

*D_NET *781 0.00085062
*CONN
*I *3319:A I *D sky130_fd_sc_hd__dlygate4sd3_1
*I *2636:A1 I *D sky130_fd_sc_hd__a221o_1
*I *3276:Q O *D sky130_fd_sc_hd__dfrtp_1
*CAP
1 *3319:A 9.85717e-05
2 *2636:A1 0.000107684
3 *3276:Q 0.000104631
4 *781:8 0.000310886
5 *3319:A *2637:A 0
6 *781:8 *2637:A 0
7 *781:8 *787:16 0
8 *2636:A2 *2636:A1 0.000144047
9 *2636:A2 *781:8 7.89689e-05
10 *2636:C1 *2636:A1 5.83121e-06
11 *2636:C1 *781:8 0
*RES
1 *3276:Q *781:8 5.49 
2 *781:8 *2636:A1 5.43 
3 *781:8 *3319:A 5.235 
*END

*D_NET *782 0.0019642
*CONN
*I *3276:D I *D sky130_fd_sc_hd__dfrtp_1
*I *2644:S I *D sky130_fd_sc_hd__mux2_1
*I *2666:X O *D sky130_fd_sc_hd__clkbuf_1
*CAP
1 *3276:D 3.80845e-05
2 *2644:S 0.000228196
3 *2666:X 0.000265458
4 *782:10 0.000531738
5 *2644:S *2644:A0 0.000314743
6 *782:10 *2647:B 1.08758e-05
7 *2635:A *782:10 2.97004e-06
8 *2644:A1 *2644:S 1.33205e-05
9 *2657:A *782:10 1.17409e-05
10 *3276:CLK *2644:S 9.37731e-05
11 *3276:CLK *3276:D 5.83121e-06
12 *3276:CLK *782:10 4.38051e-05
13 *3283:D *2644:S 0.000309896
14 *592:127 *2644:S 9.37731e-05
15 *619:50 *782:10 0
16 *619:52 *2644:S 0
17 *619:54 *2644:S 0
*RES
1 *2666:X *782:10 7.98 
2 *782:10 *2644:S 9.66 
3 *782:10 *3276:D 4.05 
*END

*D_NET *783 0.00241204
*CONN
*I *2634:A I *D sky130_fd_sc_hd__inv_2
*I *2644:A0 I *D sky130_fd_sc_hd__mux2_1
*I *3283:Q O *D sky130_fd_sc_hd__dfstp_1
*CAP
1 *2634:A 0.000386799
2 *2644:A0 0.000223396
3 *3283:Q 0.000134407
4 *783:10 0.000744601
5 *2634:A *787:16 5.65627e-05
6 *2644:A0 *787:16 0.000122325
7 *783:10 *787:16 2.7881e-05
8 *2636:C1 *2634:A 4.40725e-05
9 *2636:C1 *783:10 5.4256e-05
10 *2644:S *2644:A0 0.000314743
11 *2645:A *2644:A0 0.000160115
12 *3277:CLK *2644:A0 8.69114e-05
13 *3277:RESET_B *2644:A0 2.20753e-05
14 *619:54 *783:10 3.38982e-05
*RES
1 *3283:Q *783:10 5.8575 
2 *783:10 *2644:A0 9.6 
3 *783:10 *2634:A 8.805 
*END

*D_NET *784 0.000237201
*CONN
*I *2641:B I *D sky130_fd_sc_hd__xnor2_1
*I *3271:Q O *D sky130_fd_sc_hd__dfrtp_1
*CAP
1 *2641:B 7.93675e-05
2 *3271:Q 7.93675e-05
3 *2642:A2 *2641:B 0
4 *2642:B1 *2641:B 7.4027e-05
5 *2861:A *2641:B 0
6 *315:28 *2641:B 0
7 *592:12 *2641:B 4.43871e-06
*RES
1 *3271:Q *2641:B 8.685 
*END

*D_NET *785 0.000865635
*CONN
*I *2640:A I *D sky130_fd_sc_hd__inv_2
*I *3270:Q O *D sky130_fd_sc_hd__dfrtp_1
*CAP
1 *2640:A 0.000361316
2 *3270:Q 0.000361316
3 *2642:A1 *2640:A 3.95724e-05
4 *2642:A2 *2640:A 4.92935e-05
5 *3270:RESET_B *2640:A 1.54837e-05
6 *592:12 *2640:A 3.86529e-05
*RES
1 *3270:Q *2640:A 12.45 
*END

*D_NET *786 0.00135726
*CONN
*I *2662:A I *D sky130_fd_sc_hd__inv_2
*I *2651:A1 I *D sky130_fd_sc_hd__a21o_1
*I *3135:Q O *D sky130_fd_sc_hd__dfrtp_1
*CAP
1 *2662:A 0
2 *2651:A1 0.000138834
3 *3135:Q 0.000274678
4 *786:12 0.000413512
5 *2651:B1 *2651:A1 4.77757e-05
6 *2652:A *786:12 0.000136809
7 *2663:A1 *786:12 0.000137073
8 *2860:A1 *2651:A1 4.10688e-05
9 *2860:A1 *786:12 2.86975e-05
10 *630:18 *786:12 0.000138807
*RES
1 *3135:Q *786:12 11.105 
2 *786:12 *2651:A1 3.79 
3 *786:12 *2662:A 1.6 
*END

*D_NET *787 0.0040288
*CONN
*I *2636:B1 I *D sky130_fd_sc_hd__a221o_1
*I *2637:A I *D sky130_fd_sc_hd__inv_2
*I *3277:Q O *D sky130_fd_sc_hd__dfrtp_1
*CAP
1 *2636:B1 0
2 *2637:A 0.000965634
3 *3277:Q 0.000355927
4 *787:16 0.00132156
5 *2637:A *2665:B 7.31638e-05
6 *2637:A *3281:D 0.000146311
7 *2637:A *794:39 0
8 *2634:A *787:16 5.65627e-05
9 *2636:B2 *2637:A 9.82856e-06
10 *2636:B2 *787:16 2.83578e-05
11 *2636:C1 *787:16 7.28427e-05
12 *2644:A0 *787:16 0.000122325
13 *2656:B *2637:A 0
14 *2657:A *2637:A 0.000326506
15 *2666:A *2637:A 7.4027e-05
16 *3281:CLK *2637:A 0
17 *3319:A *2637:A 0
18 *11:23 *2637:A 0
19 *619:50 *2637:A 0
20 *619:50 *787:16 0.000258665
21 *619:52 *787:16 0.000116158
22 *619:54 *787:16 7.30547e-05
23 *781:8 *2637:A 0
24 *781:8 *787:16 0
25 *783:10 *787:16 2.7881e-05
*RES
1 *3277:Q *787:16 13.535 
2 *787:16 *2637:A 22.925 
3 *787:16 *2636:B1 1.6 
*END

*D_NET *788 0.00048324
*CONN
*I *3330:A I *D sky130_fd_sc_hd__dlygate4sd3_1
*I *2664:X O *D sky130_fd_sc_hd__a31o_1
*CAP
1 *3330:A 0.000135995
2 *2664:X 0.000135995
3 *2653:A1 *3330:A 4.55864e-06
4 *2657:A *3330:A 0.000111012
5 *2664:B1 *3330:A 0
6 *2665:C *3330:A 8.40213e-05
7 *157:16 *3330:A 1.16578e-05
*RES
1 *2664:X *3330:A 9.375 
*END

*D_NET *789 0.000649875
*CONN
*I *3280:D I *D sky130_fd_sc_hd__dfrtp_1
*I *2657:X O *D sky130_fd_sc_hd__clkbuf_1
*CAP
1 *3280:D 0.000241118
2 *2657:X 0.000241118
3 *593:10 *3280:D 4.91189e-05
4 *682:20 *3280:D 0.00011852
*RES
1 *2657:X *3280:D 10.755 
*END

*D_NET *790 0.00102372
*CONN
*I *3281:D I *D sky130_fd_sc_hd__dfrtp_4
*I *2653:X O *D sky130_fd_sc_hd__a221o_1
*CAP
1 *3281:D 0.000284718
2 *2653:X 0.000284718
3 *3281:D *794:39 2.97373e-05
4 *3281:D *794:56 0
5 *2637:A *3281:D 0.000146311
6 *2653:A1 *3281:D 5.83121e-06
7 *2657:A *3281:D 0.000122331
8 *3279:D *3281:D 0.000116158
9 *3281:CLK *3281:D 3.39151e-05
*RES
1 *2653:X *3281:D 12.54 
*END

*D_NET *791 0.000905236
*CONN
*I *3409:A I *D sky130_fd_sc_hd__dlygate4sd3_1
*I *3262:Q O *D sky130_fd_sc_hd__dfrtp_1
*CAP
1 *3409:A 0.000452618
2 *3262:Q 0.000452618
*RES
1 *3262:Q *3409:A 9.275 
*END

*D_NET *792 0.00438047
*CONN
*I *3362:A I *D sky130_fd_sc_hd__dlygate4sd3_1
*I *2665:B I *D sky130_fd_sc_hd__and3_1
*I *2654:A2 I *D sky130_fd_sc_hd__a211oi_1
*I *3274:Q O *D sky130_fd_sc_hd__dfrtp_1
*CAP
1 *3362:A 0
2 *2665:B 0.000709909
3 *2654:A2 0.000531238
4 *3274:Q 3.76415e-05
5 *792:27 0.000728754
6 *792:6 0.000587725
7 *2654:A2 *2825:A 0.000159374
8 *2654:A2 *795:27 6.23541e-06
9 *2637:A *2665:B 7.31638e-05
10 *2651:B1 *2654:A2 3.03465e-05
11 *2653:A1 *2665:B 2.32615e-05
12 *2653:A2 *792:6 4.8854e-05
13 *2653:A2 *792:27 4.88478e-05
14 *2656:A *2665:B 0.000306674
15 *2660:B *2654:A2 9.03138e-05
16 *2660:C *2654:A2 4.77719e-05
17 *2663:A2 *2654:A2 6.13283e-05
18 *2666:A *2665:B 5.53249e-06
19 *3284:D *2665:B 9.6949e-06
20 *3284:D *792:6 1.08758e-05
21 *3284:D *792:27 7.32549e-05
22 *11:31 *2665:B 0.000407932
23 *162:10 *2654:A2 0.000306819
24 *593:29 *2654:A2 7.49219e-05
*RES
1 *3274:Q *792:6 2.395 
2 *792:6 *2654:A2 15.695 
3 *792:6 *792:27 0.795 
4 *792:27 *2665:B 10.8766 
5 *792:27 *3362:A 1.6 
*END

*D_NET *793 0.0038767
*CONN
*I *2655:C_N I *D sky130_fd_sc_hd__or3b_2
*I *2647:A I *D sky130_fd_sc_hd__nor2_1
*I *2649:B I *D sky130_fd_sc_hd__and3_1
*I *2825:B I *D sky130_fd_sc_hd__or4b_2
*I *2650:B_N I *D sky130_fd_sc_hd__and4bb_1
*I *2654:A1 I *D sky130_fd_sc_hd__a211oi_1
*I *2646:B I *D sky130_fd_sc_hd__and3b_1
*I *3279:Q O *D sky130_fd_sc_hd__dfrtp_1
*CAP
1 *2655:C_N 1.65033e-05
2 *2647:A 0.000167041
3 *2649:B 0
4 *2825:B 0
5 *2650:B_N 0
6 *2654:A1 5.8179e-05
7 *2646:B 3.37871e-05
8 *3279:Q 3.45774e-05
9 *793:63 0.000337812
10 *793:24 0.000170012
11 *793:18 0.000215203
12 *793:10 0.000311456
13 *793:8 0.000259062
14 *793:6 0.000273607
15 *2654:A1 *795:29 2.49909e-05
16 *793:18 *2646:C 0.000121019
17 *793:18 *2825:A 4.35575e-05
18 *793:24 *2646:C 0.000121815
19 *2653:A1 *793:63 2.05277e-05
20 *2653:A2 *793:18 0
21 *2653:A2 *793:24 4.66108e-05
22 *2657:A *2647:A 2.68464e-05
23 *2661:A *2647:A 0.000183881
24 *2661:A *793:63 0.000277824
25 *2667:B *2654:A1 0.000126425
26 *2667:B *793:24 7.43507e-05
27 *2668:A *2654:A1 0.000131525
28 *2668:A *793:24 9.19583e-05
29 *2825:C *793:8 4.6368e-06
30 *2825:C *793:10 3.04704e-05
31 *11:31 *793:63 3.72952e-05
32 *158:10 *793:6 1.19928e-05
33 *158:12 *793:6 3.64998e-06
34 *158:12 *793:8 4.35931e-05
35 *159:16 *793:10 8.71841e-05
36 *159:16 *793:18 0.000156973
37 *162:10 *2654:A1 4.66108e-05
38 *163:20 *2655:C_N 2.49909e-05
39 *593:29 *793:18 0.000113681
40 *619:50 *2655:C_N 4.66108e-05
41 *682:20 *2646:B 4.77769e-05
42 *682:20 *793:24 5.26597e-05
*RES
1 *3279:Q *793:6 2.05 
2 *793:6 *793:8 1.14 
3 *793:8 *793:10 2.175 
4 *793:10 *793:18 7.54 
5 *793:18 *793:24 4.265 
6 *793:24 *2646:B 4.05 
7 *793:24 *2654:A1 5.685 
8 *793:18 *2650:B_N 1.6 
9 *793:10 *2825:B 1.6 
10 *793:8 *2649:B 1.6 
11 *793:6 *793:63 5.42 
12 *793:63 *2647:A 7.005 
13 *793:63 *2655:C_N 4.05 
*END

*D_NET *794 0.00640868
*CONN
*I *2655:B I *D sky130_fd_sc_hd__or3b_2
*I *2646:C I *D sky130_fd_sc_hd__and3b_1
*I *2650:C I *D sky130_fd_sc_hd__and4bb_1
*I *2648:A I *D sky130_fd_sc_hd__inv_2
*I *2647:B I *D sky130_fd_sc_hd__nor2_1
*I *3280:Q O *D sky130_fd_sc_hd__dfrtp_1
*CAP
1 *2655:B 5.2181e-05
2 *2646:C 0.000162479
3 *2650:C 0
4 *2648:A 5.64689e-05
5 *2647:B 0.000140699
6 *3280:Q 0.000127846
7 *794:56 0.00111804
8 *794:39 0.00147658
9 *794:8 0.000605253
10 *794:6 0.000180027
11 *2646:C *795:10 1.08758e-05
12 *794:39 *795:90 7.17811e-05
13 *794:56 *795:6 4.27588e-05
14 *794:56 *795:10 1.19928e-05
15 *794:56 *795:69 7.7901e-05
16 *2635:A *2647:B 3.3652e-05
17 *2637:A *794:39 0
18 *2653:A1 *794:39 6.53209e-05
19 *2653:A2 *794:39 1.59351e-05
20 *2653:B1 *794:39 0.000120655
21 *2656:A *794:39 1.92979e-05
22 *2656:B *794:39 9.30717e-05
23 *2656:B *794:56 0.000160658
24 *2656:C_N *794:39 0.000459372
25 *2657:A *2647:B 5.34747e-05
26 *2657:A *794:39 9.09288e-05
27 *2660:B *2646:C 9.94937e-05
28 *2660:C *794:39 9.50342e-06
29 *2661:A *2647:B 3.68705e-05
30 *2666:A *2647:B 4.00541e-06
31 *2667:B *2646:C 1.91597e-05
32 *3279:CLK *2648:A 1.31843e-05
33 *3279:D *794:39 3.39151e-05
34 *3279:D *794:56 1.01661e-05
35 *3281:CLK *794:56 7.06865e-05
36 *3281:D *794:39 2.97373e-05
37 *3281:D *794:56 0
38 *10:25 *2647:B 2.16389e-05
39 *10:25 *794:39 1.73877e-05
40 *157:10 *2647:B 7.06865e-05
41 *157:10 *794:39 6.61973e-05
42 *157:32 *794:39 0.000115464
43 *158:10 *2648:A 4.66108e-05
44 *619:50 *2655:B 7.04759e-05
45 *619:50 *794:6 8.43255e-05
46 *682:20 *2646:C 8.82012e-05
47 *782:10 *2647:B 1.08758e-05
48 *793:18 *2646:C 0.000121019
49 *793:24 *2646:C 0.000121815
*RES
1 *3280:Q *794:6 3.085 
2 *794:6 *794:8 2 
3 *794:8 *2647:B 7.095 
4 *794:8 *794:39 14.83 
5 *794:39 *2648:A 4.665 
6 *794:39 *794:56 13.31 
7 *794:56 *2650:C 1.6 
8 *794:56 *2646:C 5.785 
9 *794:6 *2655:B 2.395 
*END

*D_NET *795 0.00587449
*CONN
*I *2653:B2 I *D sky130_fd_sc_hd__a221o_1
*I *2664:A1 I *D sky130_fd_sc_hd__a31o_1
*I *2665:A I *D sky130_fd_sc_hd__and3_1
*I *2655:A I *D sky130_fd_sc_hd__or3b_2
*I *2649:A I *D sky130_fd_sc_hd__and3_1
*I *2650:D I *D sky130_fd_sc_hd__and4bb_1
*I *2660:A_N I *D sky130_fd_sc_hd__and3b_1
*I *2654:C1 I *D sky130_fd_sc_hd__a211oi_1
*I *2646:A_N I *D sky130_fd_sc_hd__and3b_1
*I *2825:A I *D sky130_fd_sc_hd__or4b_2
*I *3281:Q O *D sky130_fd_sc_hd__dfrtp_4
*CAP
1 *2653:B2 9.41406e-06
2 *2664:A1 0
3 *2665:A 0.000285657
4 *2655:A 0
5 *2649:A 4.29238e-05
6 *2650:D 0
7 *2660:A_N 0
8 *2654:C1 1.86374e-05
9 *2646:A_N 0.000165502
10 *2825:A 0.000133955
11 *3281:Q 0
12 *795:97 0.000350462
13 *795:90 0.000148082
14 *795:86 0.000231009
15 *795:69 0.000371921
16 *795:29 0.000251903
17 *795:27 0.000140255
18 *795:10 0.000221978
19 *795:6 5.4814e-05
20 *795:4 0.000229961
21 *2646:C *795:10 1.08758e-05
22 *2651:B1 *795:6 2.01504e-05
23 *2651:B1 *795:27 9.03081e-05
24 *2653:A2 *2653:B2 8.525e-06
25 *2653:B1 *2653:B2 2.49708e-05
26 *2654:A1 *795:29 2.49909e-05
27 *2654:A2 *2825:A 0.000159374
28 *2654:A2 *795:27 6.23541e-06
29 *2654:B1 *795:27 7.19963e-05
30 *2654:B1 *795:29 0.000232701
31 *2660:B *795:6 4.89295e-05
32 *2660:B *795:10 4.77757e-05
33 *2660:B *795:27 1.08129e-05
34 *2660:C *795:69 0.000157946
35 *2660:C *795:86 4.55442e-05
36 *2660:C *795:90 1.16283e-05
37 *2664:A3 *2665:A 0
38 *2664:B1 *795:97 8.8266e-05
39 *2665:C *2665:A 6.56399e-05
40 *2825:D_N *2646:A_N 0.000157828
41 *3274:RESET_B *2646:A_N 9.09136e-05
42 *3279:RESET_B *795:69 6.02202e-05
43 *10:25 *795:86 0.000152294
44 *10:25 *795:90 0.000174305
45 *157:16 *2665:A 2.8185e-05
46 *157:16 *795:97 6.27029e-05
47 *158:10 *2649:A 9.00299e-05
48 *158:10 *795:86 9.29601e-05
49 *158:12 *2649:A 4.77719e-05
50 *159:16 *2825:A 0.000103231
51 *159:16 *795:27 0.000123359
52 *162:10 *2646:A_N 1.79098e-05
53 *162:10 *2654:C1 3.5678e-06
54 *162:10 *795:27 8.35068e-05
55 *162:10 *795:29 0.000183027
56 *593:29 *2649:A 0.000154977
57 *593:29 *2825:A 7.54478e-05
58 *593:29 *795:86 3.23663e-05
59 *619:50 *2665:A 0
60 *619:50 *795:97 8.40213e-05
61 *630:18 *795:69 2.47269e-05
62 *793:18 *2825:A 4.35575e-05
63 *794:39 *795:90 7.17811e-05
64 *794:56 *795:6 4.27588e-05
65 *794:56 *795:10 1.19928e-05
66 *794:56 *795:69 7.7901e-05
*RES
1 *3281:Q *795:4 1.6 
2 *795:4 *795:6 1.14 
3 *795:6 *795:10 2.45 
4 *795:10 *2825:A 6.54 
5 *795:10 *795:27 4.43 
6 *795:27 *795:29 2.52 
7 *795:29 *2646:A_N 9.08 
8 *795:29 *2654:C1 1.96 
9 *795:27 *2660:A_N 1.6 
10 *795:6 *2650:D 1.6 
11 *795:4 *795:69 8.065 
12 *795:69 *2649:A 3.085 
13 *795:69 *795:86 5.66 
14 *795:86 *795:90 4.145 
15 *795:90 *2655:A 1.6 
16 *795:90 *795:97 1.83 
17 *795:97 *2665:A 6.04 
18 *795:97 *2664:A1 1.6 
19 *795:86 *2653:B2 3.84 
*END

*D_NET *796 0.00597651
*CONN
*I *2641:A I *D sky130_fd_sc_hd__xnor2_1
*I *2817:A I *D sky130_fd_sc_hd__xor2_2
*I *2831:A I *D sky130_fd_sc_hd__buf_2
*I *2870:A I *D sky130_fd_sc_hd__clkbuf_4
*I *3272:Q O *D sky130_fd_sc_hd__dfrtp_4
*CAP
1 *2641:A 0.000188559
2 *2817:A 2.08101e-05
3 *2831:A 0
4 *2870:A 2.98939e-05
5 *3272:Q 0.000450019
6 *796:32 0.00106216
7 *796:14 0.00108133
8 *796:12 0.000666828
9 *2641:A *2817:B 1.89685e-05
10 *796:12 *797:12 0
11 *2630:A0 *796:32 0.000380917
12 *2642:B1 *2641:A 1.61831e-05
13 *2643:A2 *2641:A 0.000163199
14 *2643:B1 *2641:A 4.82863e-05
15 *2644:A1 *2641:A 0
16 *2644:A1 *796:12 8.31082e-05
17 *2971:A0 *796:32 4.13092e-05
18 *3106:A *796:32 0.000226462
19 *315:8 *796:32 1.60203e-05
20 *315:28 *2641:A 0
21 *316:14 *796:32 0.000379579
22 *325:33 *796:32 0.000335369
23 *325:35 *796:32 0.000274432
24 *325:56 *2870:A 0.000122699
25 *325:56 *796:32 6.28097e-05
26 *351:34 *2870:A 4.18834e-05
27 *351:34 *796:32 6.92569e-05
28 *412:10 *796:32 6.97034e-05
29 *682:20 *796:12 0.000126725
*RES
1 *3272:Q *796:12 13.865 
2 *796:12 *796:14 0.45 
3 *796:14 *796:32 25.495 
4 *796:32 *2870:A 2.74 
5 *796:32 *2831:A 1.6 
6 *796:14 *2817:A 1.96 
7 *796:12 *2641:A 9.23 
*END

*D_NET *797 0.00207688
*CONN
*I *2817:B I *D sky130_fd_sc_hd__xor2_2
*I *2630:A1 I *D sky130_fd_sc_hd__mux2_1
*I *3273:Q O *D sky130_fd_sc_hd__dfrtp_1
*CAP
1 *2817:B 0.000173178
2 *2630:A1 3.61112e-05
3 *3273:Q 0.000551718
4 *797:12 0.000761007
5 *2629:B *2630:A1 1.83756e-05
6 *2629:B *797:12 1.83847e-05
7 *2630:A0 *2817:B 0.000100536
8 *2631:A *2817:B 0
9 *2641:A *2817:B 1.89685e-05
10 *3272:D *2817:B 0
11 *3272:RESET_B *797:12 0.000230932
12 *3273:RESET_B *797:12 9.23578e-05
13 *163:20 *797:12 4.93771e-05
14 *682:20 *797:12 0
15 *693:10 *797:12 2.59285e-05
16 *796:12 *797:12 0
*RES
1 *3273:Q *797:12 14.45 
2 *797:12 *2630:A1 2.05 
3 *797:12 *2817:B 6.91 
*END

*D_NET *798 0.00693029
*CONN
*I *2709:A_N I *D sky130_fd_sc_hd__and4b_4
*I *2713:D I *D sky130_fd_sc_hd__and4b_4
*I *2684:D_N I *D sky130_fd_sc_hd__nor4b_2
*I *2710:D I *D sky130_fd_sc_hd__and4bb_4
*I *2692:A I *D sky130_fd_sc_hd__nor4b_1
*I *2670:A I *D sky130_fd_sc_hd__nor4_2
*I *2678:A I *D sky130_fd_sc_hd__clkbuf_4
*I *3263:Q O *D sky130_fd_sc_hd__dfrtp_4
*CAP
1 *2709:A_N 0.000448948
2 *2713:D 0.000103184
3 *2684:D_N 9.06127e-05
4 *2710:D 0
5 *2692:A 0
6 *2670:A 9.64171e-05
7 *2678:A 0.000254408
8 *3263:Q 0
9 *798:69 0.000738676
10 *798:14 0.000413722
11 *798:12 0.000195098
12 *798:6 0.000536693
13 *798:4 0.000681648
14 *2670:A *2716:C 7.23496e-05
15 *2670:A *800:23 0.00023585
16 *2678:A *2670:C 5.53249e-06
17 *2709:A_N *2713:A_N 7.06865e-05
18 *2709:A_N *2713:B 7.23602e-05
19 *2709:A_N *800:70 8.23457e-05
20 *2713:D *2713:C 3.22625e-05
21 *798:6 *799:10 0.000309055
22 *798:6 *799:14 4.82863e-05
23 *798:12 *2670:C 5.53249e-06
24 *798:12 *2710:C 8.34426e-05
25 *798:12 *799:14 0.0001249
26 *798:12 *799:34 0
27 *798:14 *2670:C 0.000102411
28 *798:69 *799:10 7.01211e-05
29 *798:69 *800:89 1.92281e-05
30 *3032:A *2684:D_N 0.000109771
31 *3032:A *798:69 6.55631e-05
32 *3042:A *2713:D 0.000213799
33 *3042:A *798:69 0.000266964
34 *3129:CLK *2709:A_N 0.000144238
35 *3265:D *2709:A_N 4.80285e-05
36 *3266:D *2713:D 0.000178563
37 *3266:D *798:69 0.000112409
38 *3266:RESET_B *798:69 0.000131168
39 *3464:A *2678:A 0.000114339
40 *171:54 *798:12 0.000127373
41 *171:54 *798:14 3.09233e-05
42 *171:58 *2678:A 9.50342e-06
43 *171:58 *798:14 0.00015046
44 *171:69 *2670:A 3.26889e-05
45 *172:47 *798:12 2.60986e-05
46 *215:28 *2678:A 9.85232e-05
47 *421:114 *2678:A 0
48 *595:16 *2709:A_N 8.63479e-05
49 *595:24 *2684:D_N 8.97564e-05
50 *595:24 *2709:A_N 0
*RES
1 *3263:Q *798:4 1.6 
2 *798:4 *798:6 7.695 
3 *798:6 *798:12 5.285 
4 *798:12 *798:14 2.145 
5 *798:14 *2678:A 8.1 
6 *798:14 *2670:A 6.495 
7 *798:12 *2692:A 3.6 
8 *798:6 *2710:D 1.6 
9 *798:4 *2684:D_N 7.94 
10 *798:4 *798:69 7.25 
11 *798:69 *2713:D 6.81 
12 *798:69 *2709:A_N 14.23 
*END

*D_NET *799 0.00829827
*CONN
*I *2684:A I *D sky130_fd_sc_hd__nor4b_2
*I *2709:B I *D sky130_fd_sc_hd__and4b_4
*I *2713:A_N I *D sky130_fd_sc_hd__and4b_4
*I *2670:B I *D sky130_fd_sc_hd__nor4_2
*I *2716:C I *D sky130_fd_sc_hd__and4b_4
*I *2710:A_N I *D sky130_fd_sc_hd__and4bb_4
*I *2676:A I *D sky130_fd_sc_hd__clkbuf_4
*I *3264:Q O *D sky130_fd_sc_hd__dfrtp_4
*CAP
1 *2684:A 0.000102821
2 *2709:B 5.47643e-05
3 *2713:A_N 0.000174667
4 *2670:B 0
5 *2716:C 0.00044395
6 *2710:A_N 0
7 *2676:A 0.000122887
8 *3264:Q 0.000376075
9 *799:54 0.000284396
10 *799:52 0.000157785
11 *799:34 0.000622093
12 *799:14 0.000288362
13 *799:10 0.00124579
14 *799:8 0.00127824
15 *2676:A *2669:A 4.14666e-06
16 *2676:A *2681:C 4.66826e-05
17 *2676:A *800:40 9.66021e-05
18 *2684:A *2684:B 0.000154247
19 *2684:A *2709:D 1.19928e-05
20 *2709:B *2709:C 2.75229e-05
21 *2709:B *2709:D 5.4155e-06
22 *2713:A_N *2684:B 8.53113e-06
23 *2713:A_N *2713:B 0.000165023
24 *2713:A_N *801:56 5.23362e-05
25 *2716:C *2716:A_N 2.75229e-05
26 *2716:C *800:23 6.07575e-06
27 *799:34 *2670:C 0.000100536
28 *799:34 *2710:C 8.97564e-05
29 *799:54 *2684:B 0.000175207
30 *2670:A *2716:C 7.23496e-05
31 *2685:A_N *2676:A 3.13939e-05
32 *2709:A_N *2713:A_N 7.06865e-05
33 *2716:D *2716:C 2.75229e-05
34 *3032:A *799:10 2.19562e-06
35 *3263:CLK *799:8 0.000161837
36 *3263:D *799:8 5.062e-06
37 *3265:RESET_B *2713:A_N 0.000238511
38 *3265:RESET_B *799:54 5.20968e-05
39 *3266:D *2713:A_N 4.82863e-05
40 *3266:RESET_B *799:8 4.21973e-05
41 *3266:RESET_B *799:10 0.000109377
42 *171:54 *799:14 2.39856e-05
43 *171:69 *2716:C 6.12269e-05
44 *172:47 *799:34 0
45 *215:72 *2713:A_N 1.4389e-05
46 *218:14 *2716:C 8.65961e-05
47 *421:114 *799:34 0.000422773
48 *595:10 *2713:A_N 3.98952e-05
49 *652:8 *2684:A 6.28765e-05
50 *652:8 *799:54 2.42236e-05
51 *652:10 *799:54 2.4997e-05
52 *798:6 *799:10 0.000309055
53 *798:6 *799:14 4.82863e-05
54 *798:12 *799:14 0.0001249
55 *798:12 *799:34 0
56 *798:69 *799:10 7.01211e-05
*RES
1 *3264:Q *799:8 6.46 
2 *799:8 *799:10 11.145 
3 *799:10 *799:14 3.135 
4 *799:14 *2676:A 4.135 
5 *799:14 *2710:A_N 1.6 
6 *799:10 *799:34 8.95 
7 *799:34 *2716:C 7.51 
8 *799:34 *2670:B 1.6 
9 *799:8 *799:52 2 
10 *799:52 *799:54 2.145 
11 *799:54 *2713:A_N 9.045 
12 *799:54 *2709:B 4.41 
13 *799:52 *2684:A 6.135 
*END

*D_NET *800 0.0086724
*CONN
*I *2709:D I *D sky130_fd_sc_hd__and4b_4
*I *2684:C I *D sky130_fd_sc_hd__nor4b_2
*I *2713:C I *D sky130_fd_sc_hd__and4b_4
*I *2669:A I *D sky130_fd_sc_hd__buf_2
*I *2681:C I *D sky130_fd_sc_hd__and4bb_4
*I *2716:A_N I *D sky130_fd_sc_hd__and4b_4
*I *2710:B_N I *D sky130_fd_sc_hd__and4bb_4
*I *3265:Q O *D sky130_fd_sc_hd__dfrtp_4
*CAP
1 *2709:D 0.000345135
2 *2684:C 0.00015438
3 *2713:C 0.000104484
4 *2669:A 2.03471e-05
5 *2681:C 0.000227495
6 *2716:A_N 3.10416e-05
7 *2710:B_N 0.000122778
8 *3265:Q 0
9 *800:89 0.000674075
10 *800:70 0.000511242
11 *800:40 0.000408515
12 *800:23 0.000460777
13 *800:6 0.000773851
14 *800:4 0.000614208
15 *2684:C *2684:B 1.16578e-05
16 *2709:D *2684:B 6.52265e-05
17 *2713:C *2713:B 5.23992e-05
18 *800:89 *2684:B 6.65804e-05
19 *2670:A *800:23 0.00023585
20 *2676:A *2669:A 4.14666e-06
21 *2676:A *2681:C 4.66826e-05
22 *2676:A *800:40 9.66021e-05
23 *2681:D *2681:C 1.08758e-05
24 *2684:A *2709:D 1.19928e-05
25 *2685:A_N *2681:C 2.75229e-05
26 *2695:A *2681:C 0.000124399
27 *2695:D *2681:C 9.03291e-05
28 *2709:A_N *800:70 8.23457e-05
29 *2709:B *2709:D 5.4155e-06
30 *2713:D *2713:C 3.22625e-05
31 *2716:C *2716:A_N 2.75229e-05
32 *2716:C *800:23 6.07575e-06
33 *3032:A *2713:C 0.000113964
34 *3032:A *800:89 0.000144428
35 *3037:A *2710:B_N 0.000360618
36 *3042:A *2684:C 1.77595e-05
37 *3042:A *800:89 3.61491e-05
38 *3129:CLK *2709:D 2.04306e-06
39 *3263:CLK *2709:D 0.000164686
40 *3265:RESET_B *2709:D 0.000120186
41 *3266:D *2713:C 0.000163012
42 *3266:D *800:89 0.000128346
43 *3266:RESET_B *800:89 0.00015829
44 *3462:A *2716:A_N 5.16418e-05
45 *3462:A *800:40 8.76033e-05
46 *3464:A *2716:A_N 8.53113e-06
47 *171:6 *2681:C 0.000119762
48 *171:6 *800:40 7.66083e-05
49 *171:8 *2681:C 4.66108e-05
50 *171:54 *800:40 8.65905e-05
51 *171:69 *2716:A_N 4.66108e-05
52 *171:69 *800:23 8.23457e-05
53 *172:47 *2716:A_N 4.14369e-05
54 *172:47 *800:40 0.000289698
55 *178:71 *2681:C 0.000189794
56 *179:56 *2681:C 0.00015639
57 *179:98 *2681:C 1.07797e-05
58 *180:87 *2681:C 1.91597e-05
59 *202:10 *2681:C 5.80126e-05
60 *212:18 *2710:B_N 0.000173199
61 *215:6 *2713:C 4.00541e-06
62 *215:28 *2713:C 5.23992e-05
63 *421:114 *2710:B_N 1.73877e-05
64 *432:72 *800:40 0
65 *595:16 *2709:D 1.04187e-05
66 *607:33 *2709:D 0
67 *652:8 *2709:D 0.000114492
68 *652:10 *2709:D 5.39961e-05
69 *798:69 *800:89 1.92281e-05
*RES
1 *3265:Q *800:4 1.6 
2 *800:4 *800:6 5.625 
3 *800:6 *2710:B_N 9.785 
4 *800:6 *800:23 6.26 
5 *800:23 *2716:A_N 4.665 
6 *800:23 *800:40 6.905 
7 *800:40 *2681:C 12.035 
8 *800:40 *2669:A 1.96 
9 *800:4 *800:70 5.225 
10 *800:70 *2713:C 7.515 
11 *800:70 *800:89 7.205 
12 *800:89 *2684:C 4.06 
13 *800:89 *2709:D 11.675 
*END

*D_NET *801 0.00542346
*CONN
*I *2684:B I *D sky130_fd_sc_hd__nor4b_2
*I *2709:C I *D sky130_fd_sc_hd__and4b_4
*I *2713:B I *D sky130_fd_sc_hd__and4b_4
*I *2677:A I *D sky130_fd_sc_hd__clkbuf_4
*I *2710:C I *D sky130_fd_sc_hd__and4bb_4
*I *2670:C I *D sky130_fd_sc_hd__nor4_2
*I *2692:D_N I *D sky130_fd_sc_hd__nor4b_1
*I *3266:Q O *D sky130_fd_sc_hd__dfrtp_4
*CAP
1 *2684:B 0.000176335
2 *2709:C 4.93829e-05
3 *2713:B 0.000188327
4 *2677:A 2.08101e-05
5 *2710:C 5.61443e-05
6 *2670:C 6.65526e-05
7 *2692:D_N 2.22788e-05
8 *3266:Q 0
9 *801:56 0.000249895
10 *801:54 0.000807817
11 *801:17 0.000122697
12 *801:8 0.00020366
13 *801:6 0.000251308
14 *801:4 0.000668413
15 *2678:A *2670:C 5.53249e-06
16 *2684:A *2684:B 0.000154247
17 *2684:C *2684:B 1.16578e-05
18 *2709:A_N *2713:B 7.23602e-05
19 *2709:B *2709:C 2.75229e-05
20 *2709:D *2684:B 6.52265e-05
21 *2713:A_N *2684:B 8.53113e-06
22 *2713:A_N *2713:B 0.000165023
23 *2713:A_N *801:56 5.23362e-05
24 *2713:C *2713:B 5.23992e-05
25 *3032:A *2684:B 6.21553e-05
26 *3032:A *2713:B 0.000335163
27 *3032:A *801:56 4.44927e-05
28 *3042:A *801:54 3.59499e-05
29 *3266:D *2713:B 0.00015639
30 *3266:RESET_B *801:54 0.000179099
31 *179:10 *2692:D_N 4.82863e-05
32 *179:10 *801:8 0.00015639
33 *215:28 *2713:B 4.51729e-05
34 *215:72 *2713:B 4.05674e-06
35 *595:16 *2709:C 0.000118081
36 *595:16 *801:54 1.19928e-05
37 *595:24 *801:54 0.000104303
38 *798:12 *2670:C 5.53249e-06
39 *798:12 *2710:C 8.34426e-05
40 *798:14 *2670:C 0.000102411
41 *799:34 *2670:C 0.000100536
42 *799:34 *2710:C 8.97564e-05
43 *799:54 *2684:B 0.000175207
44 *800:89 *2684:B 6.65804e-05
*RES
1 *3266:Q *801:4 1.6 
2 *801:4 *801:6 0.795 
3 *801:6 *801:8 2.865 
4 *801:8 *2692:D_N 2.05 
5 *801:8 *801:17 2 
6 *801:17 *2670:C 5.745 
7 *801:17 *2710:C 5.49 
8 *801:6 *2677:A 1.96 
9 *801:4 *801:54 15.015 
10 *801:54 *801:56 0.615 
11 *801:56 *2713:B 9.705 
12 *801:56 *2709:C 4.74 
13 *801:54 *2684:B 8.52 
*END

*D_NET *802 0.00188793
*CONN
*I *2689:B I *D sky130_fd_sc_hd__and2b_1
*I *2671:B I *D sky130_fd_sc_hd__nor2_1
*I *2674:A I *D sky130_fd_sc_hd__nor2b_2
*I *2729:B I *D sky130_fd_sc_hd__and2_2
*I *3267:Q O *D sky130_fd_sc_hd__dfrtp_1
*CAP
1 *2689:B 0.000216084
2 *2671:B 0
3 *2674:A 0
4 *2729:B 3.88833e-05
5 *3267:Q 7.4327e-05
6 *802:16 0.000128787
7 *802:14 0.000189433
8 *802:8 0.000389941
9 *2689:B *2689:A_N 0.000180369
10 *2729:B *2729:A 8.40213e-05
11 *802:14 *2671:A 5.4155e-06
12 *802:14 *803:8 4.35348e-05
13 *802:14 *803:10 4.60584e-05
14 *802:16 *2729:A 0.000196381
15 *802:16 *803:10 3.83041e-05
16 *173:8 *2729:B 4.21973e-05
17 *176:6 *2729:B 0.000158066
18 *176:6 *802:16 3.57349e-05
19 *176:16 *2729:B 1.16578e-05
20 *191:20 *2689:B 8.73389e-06
21 *419:16 *2689:B 0
22 *419:16 *802:8 0
*RES
1 *3267:Q *802:8 4.725 
2 *802:8 *802:14 3.845 
3 *802:14 *802:16 2.175 
4 *802:16 *2729:B 3.085 
5 *802:16 *2674:A 1.6 
6 *802:14 *2671:B 1.6 
7 *802:8 *2689:B 6.885 
*END

*D_NET *803 0.00174862
*CONN
*I *2689:A_N I *D sky130_fd_sc_hd__and2b_1
*I *2671:A I *D sky130_fd_sc_hd__nor2_1
*I *2674:B_N I *D sky130_fd_sc_hd__nor2b_2
*I *2729:A I *D sky130_fd_sc_hd__and2_2
*I *3268:Q O *D sky130_fd_sc_hd__dfrtp_1
*CAP
1 *2689:A_N 0.000230479
2 *2671:A 1.69516e-05
3 *2674:B_N 0
4 *2729:A 5.81439e-05
5 *3268:Q 0
6 *803:10 9.337e-05
7 *803:8 0.00011971
8 *803:4 0.000298012
9 *2689:B *2689:A_N 0.000180369
10 *2729:B *2729:A 8.40213e-05
11 *173:8 *2729:A 0.000269527
12 *173:8 *803:10 4.99619e-05
13 *191:20 *2689:A_N 1.83847e-05
14 *419:16 *2689:A_N 0
15 *802:14 *2671:A 5.4155e-06
16 *802:14 *803:8 4.35348e-05
17 *802:14 *803:10 4.60584e-05
18 *802:16 *2729:A 0.000196381
19 *802:16 *803:10 3.83041e-05
*RES
1 *3268:Q *803:4 1.6 
2 *803:4 *803:8 1.41 
3 *803:8 *803:10 1.14 
4 *803:10 *2729:A 4.12 
5 *803:10 *2674:B_N 1.6 
6 *803:8 *2671:A 1.96 
7 *803:4 *2689:A_N 9.605 
*END

*D_NET *804 0.00169031
*CONN
*I *3411:A I *D sky130_fd_sc_hd__dlygate4sd3_1
*I *3261:Q O *D sky130_fd_sc_hd__dfxtp_1
*CAP
1 *3411:A 0.000619206
2 *3261:Q 0.000619206
3 *2971:A0 *3411:A 0.000176637
4 *3271:CLK *3411:A 3.00381e-05
5 *3271:D *3411:A 0.000206824
6 *511:22 *3411:A 0
7 *592:12 *3411:A 3.83995e-05
*RES
1 *3261:Q *3411:A 17.82 
*END

*D_NET *805 0.000993639
*CONN
*I *3352:A I *D sky130_fd_sc_hd__dlygate4sd3_1
*I *3260:Q O *D sky130_fd_sc_hd__dfxtp_1
*CAP
1 *3352:A 0.000198201
2 *3260:Q 0.000198201
3 *2826:B *3352:A 5.53249e-06
4 *2827:A *3352:A 5.84456e-05
5 *3270:D *3352:A 0.000266618
6 *3271:D *3352:A 0.000119762
7 *316:14 *3352:A 0.000137571
8 *351:164 *3352:A 0
9 *356:14 *3352:A 9.3062e-06
*RES
1 *3260:Q *3352:A 11.76 
*END

*D_NET *806 0.00278409
*CONN
*I *3310:A I *D sky130_fd_sc_hd__dlygate4sd3_1
*I *2795:A1 I *D sky130_fd_sc_hd__a22o_1
*I *3241:Q O *D sky130_fd_sc_hd__dfxtp_1
*CAP
1 *3310:A 0
2 *2795:A1 0.000277186
3 *3241:Q 0.00032065
4 *806:14 0.000597836
5 *2795:A1 *2712:A1 0.000183036
6 *2795:A1 *2795:B2 1.08758e-05
7 *806:14 *807:20 0.000124895
8 *2573:S *806:14 0.000121643
9 *2575:A1 *806:14 7.23602e-05
10 *2575:S *806:14 8.08153e-06
11 *2578:S *2795:A1 7.36562e-05
12 *2580:A1 *2795:A1 3.79175e-05
13 *2580:S *2795:A1 3.68784e-05
14 *2712:A2 *2795:A1 8.58535e-05
15 *2712:C1 *806:14 2.67275e-05
16 *2795:A2 *2795:A1 0.000148516
17 *2797:A2 *2795:A1 0.00034711
18 *500:14 *806:14 0.000116165
19 *544:6 *806:14 0.0001947
*RES
1 *3241:Q *806:14 11.675 
2 *806:14 *2795:A1 13.565 
3 *806:14 *3310:A 1.6 
*END

*D_NET *807 0.00343266
*CONN
*I *2712:A1 I *D sky130_fd_sc_hd__a221o_1
*I *3340:A I *D sky130_fd_sc_hd__dlygate4sd3_1
*I *3240:Q O *D sky130_fd_sc_hd__dfxtp_1
*CAP
1 *2712:A1 0.000241487
2 *3340:A 0
3 *3240:Q 0.000726074
4 *807:20 0.000967561
5 *807:20 *2712:B2 0.000137179
6 *2573:A1 *807:20 7.4027e-05
7 *2575:A1 *807:20 0
8 *2578:S *2712:A1 0.000194812
9 *2578:S *807:20 0.000199033
10 *2712:A2 *2712:A1 9.50342e-06
11 *2712:C1 *807:20 5.83121e-06
12 *2795:A1 *2712:A1 0.000183036
13 *235:18 *2712:A1 0.000197187
14 *500:14 *807:20 0.000229015
15 *511:101 *807:20 1.85674e-05
16 *598:79 *807:20 1.9872e-05
17 *598:94 *807:20 0.000104582
18 *726:38 *807:20 0
19 *806:14 *807:20 0.000124895
*RES
1 *3240:Q *807:20 18.335 
2 *807:20 *3340:A 1.6 
3 *807:20 *2712:A1 11.96 
*END

*D_NET *808 0.00342808
*CONN
*I *3345:A I *D sky130_fd_sc_hd__dlygate4sd3_1
*I *2791:B2 I *D sky130_fd_sc_hd__a22o_1
*I *3239:Q O *D sky130_fd_sc_hd__dfxtp_1
*CAP
1 *3345:A 0.000301044
2 *2791:B2 0.000260509
3 *3239:Q 0.000267235
4 *808:6 0.000828787
5 *2557:A *2791:B2 0
6 *2580:A0 *2791:B2 0.000353527
7 *2602:A *2791:B2 9.58678e-06
8 *2605:S *2791:B2 6.9451e-05
9 *2606:A *3345:A 7.23533e-05
10 *2794:B1 *3345:A 9.97548e-05
11 *2798:A2 *3345:A 1.32017e-05
12 *3252:CLK *808:6 1.47347e-05
13 *3252:D *808:6 4.8061e-05
14 *3253:CLK *2791:B2 0
15 *3286:A *2791:B2 0.000131401
16 *328:113 *2791:B2 0.00036366
17 *328:113 *3345:A 0.000159313
18 *328:113 *808:6 2.75145e-05
19 *541:14 *2791:B2 0
20 *541:14 *3345:A 0.000160536
21 *562:10 *2791:B2 5.00526e-05
22 *590:66 *2791:B2 0.000191527
23 *591:27 *808:6 5.83121e-06
*RES
1 *3239:Q *808:6 4.81 
2 *808:6 *2791:B2 14.375 
3 *808:6 *3345:A 11.54 
*END

*D_NET *809 0.00201498
*CONN
*I *2717:B2 I *D sky130_fd_sc_hd__a22o_1
*I *3414:A I *D sky130_fd_sc_hd__dlygate4sd3_1
*I *3238:Q O *D sky130_fd_sc_hd__dfxtp_1
*CAP
1 *2717:B2 0.000629801
2 *3414:A 0.000211978
3 *3238:Q 0
4 *809:4 0.000841778
5 *2717:B2 *3449:A 3.54721e-05
6 *2717:B2 *871:8 8.41384e-05
7 *3414:A *2715:B2 0
8 *2608:A0 *2717:B2 0.000117265
9 *2608:A1 *2717:B2 1.54665e-05
10 *2608:S *3414:A 0
11 *2717:B1 *2717:B2 4.77807e-05
12 *2718:C *2717:B2 9.12494e-06
13 *3254:D *2717:B2 8.34281e-06
14 *599:32 *2717:B2 4.7072e-06
15 *599:36 *2717:B2 9.12671e-06
*RES
1 *3238:Q *809:4 1.6 
2 *809:4 *3414:A 9.02 
3 *809:4 *2717:B2 13.85 
*END

*D_NET *810 0.00213364
*CONN
*I *2793:A1 I *D sky130_fd_sc_hd__a22o_1
*I *3320:A I *D sky130_fd_sc_hd__dlygate4sd3_1
*I *3237:Q O *D sky130_fd_sc_hd__dfxtp_1
*CAP
1 *2793:A1 0.000458822
2 *3320:A 0
3 *3237:Q 0.000426093
4 *810:12 0.000884915
5 *2793:A1 *2793:B2 4.82863e-05
6 *2563:A0 *810:12 0.000178439
7 *2565:A0 *810:12 0
8 *2565:A1 *810:12 0
9 *2718:A *2793:A1 4.47209e-05
10 *3236:D *810:12 4.40711e-05
11 *591:100 *810:12 4.82919e-05
*RES
1 *3237:Q *810:12 11.885 
2 *810:12 *3320:A 1.6 
3 *810:12 *2793:A1 8.62 
*END

*D_NET *811 0.00189733
*CONN
*I *2715:A1 I *D sky130_fd_sc_hd__a22o_1
*I *3350:A I *D sky130_fd_sc_hd__dlygate4sd3_1
*I *3236:Q O *D sky130_fd_sc_hd__dfxtp_1
*CAP
1 *2715:A1 0.00034543
2 *3350:A 0
3 *3236:Q 0.000244837
4 *811:12 0.000590267
5 *811:12 *926:10 0
6 *2587:A *2715:A1 0.000348704
7 *2587:B *811:12 3.09164e-05
8 *2591:A *811:12 1.3582e-05
9 *2715:B1 *2715:A1 4.21018e-05
10 *2793:A2 *2715:A1 0.00012043
11 *3246:D *811:12 1.7386e-05
12 *208:61 *2715:A1 9.72742e-06
13 *538:16 *2715:A1 9.52847e-05
14 *553:8 *811:12 3.86607e-05
*RES
1 *3236:Q *811:12 9.065 
2 *811:12 *3350:A 1.6 
3 *811:12 *2715:A1 8.41 
*END

*D_NET *812 0.00278033
*CONN
*I *3316:A I *D sky130_fd_sc_hd__dlygate4sd3_1
*I *2796:A1 I *D sky130_fd_sc_hd__a22o_1
*I *3235:Q O *D sky130_fd_sc_hd__dfxtp_1
*CAP
1 *3316:A 0.00033228
2 *2796:A1 0.000467697
3 *3235:Q 0
4 *812:4 0.000799977
5 *2796:A1 *2796:B2 7.50252e-05
6 *2796:A1 *816:12 0.0004235
7 *3316:A *3343:A 4.05358e-05
8 *2558:S *2796:A1 0.000239807
9 *2560:A0 *2796:A1 4.66108e-05
10 *2560:A1 *2796:A1 6.00027e-05
11 *2561:A *3316:A 0.000163199
12 *2714:A2 *2796:A1 4.82919e-05
13 *2796:A2 *2796:A1 3.50152e-06
14 *2796:B1 *2796:A1 4.82919e-05
15 *535:6 *2796:A1 3.16136e-05
*RES
1 *3235:Q *812:4 1.6 
2 *812:4 *2796:A1 11.575 
3 *812:4 *3316:A 10.985 
*END

*D_NET *813 0.00271261
*CONN
*I *2714:A1 I *D sky130_fd_sc_hd__a22o_1
*I *3343:A I *D sky130_fd_sc_hd__dlygate4sd3_1
*I *3234:Q O *D sky130_fd_sc_hd__dfxtp_1
*CAP
1 *2714:A1 0.000501827
2 *3343:A 0.000361445
3 *3234:Q 6.46128e-05
4 *813:8 0.000927884
5 *2714:A1 *2714:B2 5.98384e-05
6 *2714:A1 *817:8 0.00012211
7 *2548:A1 *2714:A1 4.82919e-05
8 *2549:A *2714:A1 8.26509e-05
9 *2551:A *2714:A1 8.8266e-05
10 *2551:A *3343:A 5.63405e-05
11 *2558:A1 *3343:A 0
12 *2558:S *3343:A 0
13 *2561:A *3343:A 0
14 *2565:A0 *2714:A1 0
15 *2714:B1 *2714:A1 4.94457e-05
16 *3230:D *2714:A1 3.68769e-05
17 *3231:D *3343:A 0.000185405
18 *3235:CLK *3343:A 0
19 *3316:A *3343:A 4.05358e-05
20 *511:127 *3343:A 0
21 *511:133 *3343:A 0
22 *591:33 *2714:A1 3.65344e-05
23 *591:33 *813:8 5.05437e-05
24 *591:48 *3343:A 0
25 *591:72 *3343:A 0
*RES
1 *3234:Q *813:8 2.755 
2 *813:8 *3343:A 12.08 
3 *813:8 *2714:A1 15.005 
*END

*D_NET *814 0.00438964
*CONN
*I *3347:A I *D sky130_fd_sc_hd__dlygate4sd3_1
*I *2797:A1 I *D sky130_fd_sc_hd__a211o_1
*I *3233:Q O *D sky130_fd_sc_hd__dfxtp_1
*CAP
1 *3347:A 0.000171357
2 *2797:A1 0.000820712
3 *3233:Q 0.000488164
4 *814:14 0.00148023
5 *2614:A *3347:A 7.1624e-05
6 *2711:B1 *3347:A 1.72554e-05
7 *2717:B1 *2797:A1 1.12578e-05
8 *2791:A2 *2797:A1 4.99619e-05
9 *2791:B1 *2797:A1 2.95124e-05
10 *2797:A2 *2797:A1 0.000100222
11 *3233:CLK *814:14 0.000304564
12 *3256:D *3347:A 8.58181e-05
13 *3256:D *814:14 1.95758e-05
14 *3257:D *2797:A1 5.01066e-05
15 *197:54 *2797:A1 0.000248309
16 *197:54 *3347:A 0.000114524
17 *215:147 *2797:A1 0.000142299
18 *316:121 *2797:A1 2.04101e-05
19 *500:26 *3347:A 8.70004e-05
20 *598:12 *2797:A1 7.67322e-05
*RES
1 *3233:Q *814:14 11.775 
2 *814:14 *2797:A1 17.34 
3 *814:14 *3347:A 7.53 
*END

*D_NET *815 0.0041465
*CONN
*I *2712:B2 I *D sky130_fd_sc_hd__a221o_1
*I *3335:A I *D sky130_fd_sc_hd__dlygate4sd3_1
*I *3232:Q O *D sky130_fd_sc_hd__dfxtp_1
*CAP
1 *2712:B2 0.000455587
2 *3335:A 0.00031302
3 *3232:Q 0.000599385
4 *815:16 0.00136799
5 *3335:A *2711:B2 9.09055e-05
6 *2575:A0 *2712:B2 4.77807e-05
7 *2576:A *2712:B2 4.77769e-05
8 *2576:A *3335:A 5.34565e-05
9 *2712:C1 *2712:B2 0.000272291
10 *3232:CLK *815:16 4.90291e-05
11 *3240:D *815:16 7.38171e-05
12 *3241:D *3335:A 9.09055e-05
13 *3241:D *815:16 1.43717e-05
14 *547:10 *2712:B2 3.78034e-06
15 *598:48 *815:16 0.000130196
16 *598:50 *815:16 8.91504e-05
17 *598:79 *815:16 0.000123428
18 *598:94 *2712:B2 0.000118081
19 *598:94 *815:16 6.83667e-05
20 *807:20 *2712:B2 0.000137179
*RES
1 *3232:Q *815:16 10.585 
2 *815:16 *3335:A 10.895 
3 *815:16 *2712:B2 9.76375 
*END

*D_NET *816 0.00130123
*CONN
*I *2796:B2 I *D sky130_fd_sc_hd__a22o_1
*I *3447:A I *D sky130_fd_sc_hd__dlygate4sd3_1
*I *3231:Q O *D sky130_fd_sc_hd__dfxtp_1
*CAP
1 *2796:B2 1.38571e-05
2 *3447:A 0
3 *3231:Q 0.000111971
4 *816:12 0.000125828
5 *2558:S *816:12 4.40506e-05
6 *2560:A1 *816:12 4.66108e-05
7 *2796:A1 *2796:B2 7.50252e-05
8 *2796:A1 *816:12 0.0004235
9 *500:37 *816:12 4.14369e-05
10 *500:39 *816:12 7.23533e-05
11 *511:127 *816:12 0.000117832
12 *535:6 *2796:B2 5.06989e-05
13 *535:6 *816:12 0.000178069
*RES
1 *3231:Q *816:12 10.88 
2 *816:12 *3447:A 1.6 
3 *816:12 *2796:B2 2.395 
*END

*D_NET *817 0.000667328
*CONN
*I *2714:B2 I *D sky130_fd_sc_hd__a22o_1
*I *3413:A I *D sky130_fd_sc_hd__dlygate4sd3_1
*I *3230:Q O *D sky130_fd_sc_hd__dfxtp_1
*CAP
1 *2714:B2 5.32463e-05
2 *3413:A 0
3 *3230:Q 0.000189443
4 *817:8 0.000242689
5 *2714:A1 *2714:B2 5.98384e-05
6 *2714:A1 *817:8 0.00012211
*RES
1 *3230:Q *817:8 4.825 
2 *817:8 *3413:A 1.6 
3 *817:8 *2714:B2 2.755 
*END

*D_NET *818 0.00211473
*CONN
*I *3382:A I *D sky130_fd_sc_hd__dlygate4sd3_1
*I *2770:A I *D sky130_fd_sc_hd__and3_1
*I *3229:Q O *D sky130_fd_sc_hd__dfxtp_1
*CAP
1 *3382:A 9.01885e-05
2 *2770:A 0.000359752
3 *3229:Q 0.000110663
4 *818:8 0.000560603
5 *2541:S *2770:A 0.000109572
6 *2541:S *3382:A 4.01208e-05
7 *2544:A *818:8 0.000158532
8 *191:30 *2770:A 9.72686e-05
9 *191:36 *2770:A 0.000183426
10 *211:66 *2770:A 0
11 *415:41 *2770:A 0.00011549
12 *415:41 *3382:A 0.000115715
13 *524:10 *3382:A 0.000173401
*RES
1 *3229:Q *818:8 5.085 
2 *818:8 *2770:A 9.39 
3 *818:8 *3382:A 6.255 
*END

*D_NET *819 0.00205164
*CONN
*I *3373:A I *D sky130_fd_sc_hd__dlygate4sd3_1
*I *2739:A I *D sky130_fd_sc_hd__and3_1
*I *3228:Q O *D sky130_fd_sc_hd__dfxtp_1
*CAP
1 *3373:A 0.000193541
2 *2739:A 0.000335846
3 *3228:Q 0
4 *819:4 0.000529388
5 *2542:A *2739:A 0.000115046
6 *2770:B *3373:A 2.49909e-05
7 *2778:B *2739:A 5.49879e-05
8 *2979:A *3373:A 0.000119762
9 *191:30 *3373:A 0.000133564
10 *191:36 *2739:A 0.000111135
11 *191:36 *3373:A 6.0524e-05
12 *211:66 *2739:A 0.000111011
13 *215:72 *3373:A 0.00015997
14 *355:32 *3373:A 0.000101876
*RES
1 *3228:Q *819:4 1.6 
2 *819:4 *2739:A 10.82 
3 *819:4 *3373:A 10.73 
*END

*D_NET *820 0.00168276
*CONN
*I *3368:A I *D sky130_fd_sc_hd__dlygate4sd3_1
*I *2777:A I *D sky130_fd_sc_hd__and3_1
*I *3227:Q O *D sky130_fd_sc_hd__dfxtp_1
*CAP
1 *3368:A 0.000225767
2 *2777:A 0.000199407
3 *3227:Q 0
4 *820:4 0.000425174
5 *2538:A1 *2777:A 7.23602e-05
6 *2751:A *2777:A 0.00015997
7 *2777:C *2777:A 1.70906e-05
8 *2778:D *2777:A 4.99619e-05
9 *3227:CLK *3368:A 4.87465e-06
10 *3228:CLK *2777:A 2.15594e-05
11 *3464:A *2777:A 0.000122331
12 *476:26 *2777:A 0.000328691
13 *608:16 *2777:A 5.55694e-05
*RES
1 *3227:Q *820:4 1.6 
2 *820:4 *2777:A 11.36 
3 *820:4 *3368:A 4.735 
*END

*D_NET *821 0.00102041
*CONN
*I *3389:A I *D sky130_fd_sc_hd__dlygate4sd3_1
*I *2699:A1 I *D sky130_fd_sc_hd__a31o_1
*I *3226:Q O *D sky130_fd_sc_hd__dfxtp_1
*CAP
1 *3389:A 5.01881e-05
2 *2699:A1 3.05751e-05
3 *3226:Q 4.59103e-05
4 *821:10 0.000126674
5 *2699:A2 *2699:A1 2.01934e-05
6 *2699:A2 *3389:A 4.22944e-05
7 *2699:B1 *2699:A1 8.35118e-05
8 *2699:B1 *3389:A 0.000119251
9 *176:59 *3389:A 1.91597e-05
10 *193:18 *2699:A1 0.000119873
11 *193:18 *3389:A 0.000144732
12 *218:14 *821:10 0.000109025
13 *432:52 *821:10 0.000109025
*RES
1 *3226:Q *821:10 6.98 
2 *821:10 *2699:A1 2.74 
3 *821:10 *3389:A 3.43 
*END

*D_NET *822 0.00379982
*CONN
*I *2766:A1 I *D sky130_fd_sc_hd__a22o_1
*I *3337:A I *D sky130_fd_sc_hd__dlygate4sd3_1
*I *3225:Q O *D sky130_fd_sc_hd__dfxtp_1
*CAP
1 *2766:A1 0.000422688
2 *3337:A 5.91081e-05
3 *3225:Q 0.00028188
4 *822:8 0.000763676
5 *2766:A1 *2704:A1 5.10304e-05
6 *2766:A2 *2766:A1 0.00020151
7 *3117:A *2766:A1 4.66108e-05
8 *3117:B *2766:A1 0.00026784
9 *3118:S *822:8 0.000354209
10 *3120:A0 *2766:A1 0
11 *3120:A0 *3337:A 0.00018915
12 *3224:D *822:8 0.000502765
13 *442:16 *2766:A1 8.68332e-06
14 *512:8 *2766:A1 8.53113e-06
15 *518:6 *3337:A 9.2541e-05
16 *518:6 *822:8 0.000501975
17 *726:74 *2766:A1 4.76263e-05
*RES
1 *3225:Q *822:8 10.51 
2 *822:8 *3337:A 3.79 
3 *822:8 *2766:A1 12.425 
*END

*D_NET *823 0.00264717
*CONN
*I *2704:A1 I *D sky130_fd_sc_hd__a22o_1
*I *3353:A I *D sky130_fd_sc_hd__dlygate4sd3_1
*I *3224:Q O *D sky130_fd_sc_hd__dfxtp_1
*CAP
1 *2704:A1 0.000683645
2 *3353:A 8.82602e-05
3 *3224:Q 0.000149464
4 *823:6 0.00092137
5 *2704:A1 *3415:A 0.000107205
6 *2704:A1 *835:6 8.52972e-05
7 *2766:A1 *2704:A1 5.10304e-05
8 *3214:D *2704:A1 7.01867e-05
9 *285:18 *2704:A1 0.000138141
10 *601:79 *2704:A1 2.01504e-05
11 *601:79 *3353:A 3.6227e-05
12 *601:90 *2704:A1 5.51001e-05
13 *601:90 *823:6 0.000236538
14 *726:74 *2704:A1 4.55864e-06
*RES
1 *3224:Q *823:6 3.775 
2 *823:6 *3353:A 7.085 
3 *823:6 *2704:A1 16.28 
*END

*D_NET *824 0.00229931
*CONN
*I *3371:A I *D sky130_fd_sc_hd__dlygate4sd3_1
*I *2779:A I *D sky130_fd_sc_hd__and3_1
*I *3223:Q O *D sky130_fd_sc_hd__dfxtp_1
*CAP
1 *3371:A 7.48944e-05
2 *2779:A 0.000159918
3 *3223:Q 9.43266e-05
4 *824:8 0.000329139
5 *193:89 *2779:A 0.000438503
6 *193:89 *3371:A 0.000227543
7 *358:85 *824:8 4.65515e-05
8 *384:30 *2779:A 0.000497688
9 *384:30 *3371:A 0.000218317
10 *476:26 *3371:A 4.66108e-05
11 *515:10 *3371:A 2.49909e-05
12 *715:10 *2779:A 3.24923e-05
13 *748:28 *2779:A 0.00010833
*RES
1 *3223:Q *824:8 4.74 
2 *824:8 *2779:A 9.57 
3 *824:8 *3371:A 6.705 
*END

*D_NET *825 0.00289774
*CONN
*I *3369:A I *D sky130_fd_sc_hd__dlygate4sd3_1
*I *2741:A I *D sky130_fd_sc_hd__and3_1
*I *3222:Q O *D sky130_fd_sc_hd__dfxtp_1
*CAP
1 *3369:A 5.26012e-05
2 *2741:A 0.000279646
3 *3222:Q 0.000321952
4 *825:14 0.000654199
5 *2741:A *2776:A 9.03508e-06
6 *2741:C *2741:A 7.49437e-05
7 *2742:C1 *2741:A 4.05674e-06
8 *2778:A *3369:A 0.000110665
9 *2778:A *825:14 0.000230429
10 *2790:C1 *825:14 0.0001249
11 *212:18 *2741:A 0.000277139
12 *212:38 *2741:A 9.28533e-05
13 *218:24 *825:14 4.70343e-05
14 *384:30 *825:14 0.000116853
15 *511:70 *825:14 6.41543e-05
16 *590:14 *825:14 6.86947e-05
17 *608:24 *2741:A 0.000368586
*RES
1 *3222:Q *825:14 12.02 
2 *825:14 *2741:A 12.245 
3 *825:14 *3369:A 2.74 
*END

*D_NET *826 0.0021139
*CONN
*I *3428:A I *D sky130_fd_sc_hd__dlygate4sd3_1
*I *2769:A I *D sky130_fd_sc_hd__and3_1
*I *3259:Q O *D sky130_fd_sc_hd__dfxtp_1
*CAP
1 *3428:A 0.000104448
2 *2769:A 0.000244544
3 *3259:Q 0
4 *826:4 0.000348992
5 *3428:A *2780:A1 0.000131578
6 *2744:C *2769:A 3.82022e-05
7 *2769:C *2769:A 6.71882e-05
8 *2968:A *2769:A 1.32102e-05
9 *2968:A *3428:A 0.000269343
10 *350:106 *2769:A 0.000443083
11 *355:32 *2769:A 0.00027487
12 *355:34 *2769:A 0.000178444
*RES
1 *3259:Q *826:4 1.6 
2 *826:4 *2769:A 12.755 
3 *826:4 *3428:A 4.735 
*END

*D_NET *827 0.00262577
*CONN
*I *3329:A I *D sky130_fd_sc_hd__dlygate4sd3_1
*I *2740:A1 I *D sky130_fd_sc_hd__a31o_1
*I *3258:Q O *D sky130_fd_sc_hd__dfxtp_1
*CAP
1 *3329:A 0.000196005
2 *2740:A1 0.000530951
3 *3258:Q 0
4 *827:4 0.000726956
5 *2618:A1 *2740:A1 8.41384e-05
6 *2618:A1 *3329:A 4.77807e-05
7 *2744:C *2740:A1 0
8 *2769:B *2740:A1 8.04972e-05
9 *2769:C *2740:A1 5.8241e-05
10 *2867:B *2740:A1 5.23532e-05
11 *211:94 *2740:A1 0.000431246
12 *215:102 *2740:A1 6.90254e-05
13 *218:55 *2740:A1 0.000100682
14 *231:36 *2740:A1 7.03219e-05
15 *355:32 *2740:A1 5.62528e-05
16 *355:34 *2740:A1 8.99823e-05
17 *608:82 *2740:A1 3.13354e-05
*RES
1 *3258:Q *827:4 1.6 
2 *827:4 *2740:A1 17.675 
3 *827:4 *3329:A 4.48 
*END

*D_NET *828 0.00346785
*CONN
*I *2763:A I *D sky130_fd_sc_hd__and3_1
*I *3318:A I *D sky130_fd_sc_hd__dlygate4sd3_1
*I *3221:Q O *D sky130_fd_sc_hd__dfxtp_1
*CAP
1 *2763:A 0.000279465
2 *3318:A 0
3 *3221:Q 0.000280178
4 *828:12 0.000559643
5 *2602:A *2763:A 0.000106655
6 *2602:A *828:12 8.75474e-05
7 *2767:B1 *2763:A 0.000713073
8 *3101:A *2763:A 4.77769e-05
9 *3101:B *2763:A 0.000197862
10 *3108:S *828:12 8.49205e-05
11 *3109:A *828:12 4.66108e-05
12 *202:102 *2763:A 0.000182265
13 *399:49 *2763:A 7.87189e-05
14 *445:12 *2763:A 0.000100736
15 *445:12 *828:12 2.88243e-05
16 *601:10 *2763:A 0.000367941
17 *601:10 *828:12 2.30797e-05
18 *601:16 *828:12 0.00012354
19 *601:18 *828:12 0.000159009
*RES
1 *3221:Q *828:12 9.15 
2 *828:12 *3318:A 3.6 
3 *828:12 *2763:A 14.7 
*END

*D_NET *829 0.00267733
*CONN
*I *2701:A I *D sky130_fd_sc_hd__and3_1
*I *3423:A I *D sky130_fd_sc_hd__dlygate4sd3_1
*I *3220:Q O *D sky130_fd_sc_hd__dfxtp_1
*CAP
1 *2701:A 0.000201427
2 *3423:A 2.08101e-05
3 *3220:Q 0.000410212
4 *829:8 0.000632448
5 *3108:A1 *829:8 0.000159225
6 *3120:A0 *829:8 0.00026617
7 *3217:CLK *2701:A 0.000278111
8 *218:144 *2701:A 0
9 *235:18 *2701:A 9.30717e-05
10 *500:87 *829:8 0.00015639
11 *511:76 *2701:A 0.00045947
*RES
1 *3220:Q *829:8 8.62 
2 *829:8 *3423:A 1.96 
3 *829:8 *2701:A 11.33 
*END

*D_NET *830 0.00252873
*CONN
*I *2758:A I *D sky130_fd_sc_hd__and3_1
*I *3378:A I *D sky130_fd_sc_hd__dlygate4sd3_1
*I *3219:Q O *D sky130_fd_sc_hd__dfxtp_1
*CAP
1 *2758:A 0.000134371
2 *3378:A 9.93053e-05
3 *3219:Q 0.000336166
4 *830:12 0.000569842
5 *2758:A *2696:A 4.82863e-05
6 *2758:A *831:20 9.09626e-05
7 *2701:B *830:12 4.82863e-05
8 *2701:C *2758:A 2.99622e-05
9 *2701:C *3378:A 2.23485e-05
10 *2702:B1 *830:12 4.82863e-05
11 *2720:D1 *3378:A 5.12772e-05
12 *2758:C *2758:A 4.82863e-05
13 *3098:A *3378:A 4.82863e-05
14 *3217:CLK *830:12 0.000167769
15 *3217:D *2758:A 6.21553e-05
16 *3217:D *3378:A 7.15931e-05
17 *3217:D *830:12 4.82319e-06
18 *358:93 *830:12 3.57786e-05
19 *395:40 *2758:A 0.000255213
20 *395:40 *3378:A 0.000244438
21 *476:46 *3378:A 8.8266e-05
22 *511:70 *3378:A 2.30292e-05
*RES
1 *3219:Q *830:12 8.655 
2 *830:12 *3378:A 7.305 
3 *830:12 *2758:A 7.215 
*END

*D_NET *831 0.00405583
*CONN
*I *2696:A I *D sky130_fd_sc_hd__and3_1
*I *3392:A I *D sky130_fd_sc_hd__dlygate4sd3_1
*I *3218:Q O *D sky130_fd_sc_hd__dfxtp_1
*CAP
1 *2696:A 0.000818193
2 *3392:A 0
3 *3218:Q 0.000389808
4 *831:20 0.001208
5 *2694:A2 *2696:A 2.49909e-05
6 *2694:A3 *2696:A 1.55586e-05
7 *2694:B1 *2696:A 0.000125051
8 *2696:C *2696:A 1.70906e-05
9 *2701:C *831:20 3.80378e-05
10 *2702:B1 *831:20 2.11536e-05
11 *2708:A2 *2696:A 0.000342095
12 *2720:C1 *2696:A 4.71868e-05
13 *2720:D1 *831:20 4.66826e-05
14 *2753:B1 *2696:A 0.000120655
15 *2758:A *2696:A 4.82863e-05
16 *2758:A *831:20 9.09626e-05
17 *2758:C *2696:A 4.30059e-05
18 *2760:B1 *2696:A 2.19562e-06
19 *3099:S *2696:A 0.000122325
20 *3100:A *831:20 0
21 *177:75 *2696:A 2.39856e-05
22 *181:38 *2696:A 9.27255e-06
23 *190:28 *2696:A 0.00019558
24 *192:128 *831:20 7.06865e-05
25 *395:40 *831:20 5.69248e-06
26 *726:32 *831:20 0.000229336
*RES
1 *3218:Q *831:20 12.665 
2 *831:20 *3392:A 1.6 
3 *831:20 *2696:A 15.175 
*END

*D_NET *832 0.00216703
*CONN
*I *3372:A I *D sky130_fd_sc_hd__dlygate4sd3_1
*I *2759:A I *D sky130_fd_sc_hd__and3_1
*I *3217:Q O *D sky130_fd_sc_hd__dfxtp_1
*CAP
1 *3372:A 0.000146362
2 *2759:A 0
3 *3217:Q 0.000236633
4 *832:8 0.000382995
5 *2759:C *832:8 0.0001122
6 *2790:B1 *3372:A 0.000206123
7 *3096:A *3372:A 0.000122797
8 *3097:A0 *832:8 0.000124007
9 *3099:S *832:8 6.90876e-05
10 *183:59 *3372:A 9.61344e-05
11 *192:91 *3372:A 1.05984e-05
12 *207:26 *3372:A 6.10941e-05
13 *350:140 *832:8 8.49205e-05
14 *350:152 *832:8 4.66108e-05
15 *430:24 *3372:A 2.39856e-05
16 *476:36 *3372:A 0.000268764
17 *505:6 *3372:A 4.60123e-05
18 *505:6 *832:8 0.000128709
*RES
1 *3217:Q *832:8 6.895 
2 *832:8 *2759:A 1.6 
3 *832:8 *3372:A 10.865 
*END

*D_NET *833 0.00127612
*CONN
*I *2694:A1 I *D sky130_fd_sc_hd__a31o_1
*I *3397:A I *D sky130_fd_sc_hd__dlygate4sd3_1
*I *3216:Q O *D sky130_fd_sc_hd__dfxtp_1
*CAP
1 *2694:A1 0.000117079
2 *3397:A 0
3 *3216:Q 8.16991e-05
4 *833:8 0.000198778
5 *2790:B1 *2694:A1 0
6 *183:42 *2694:A1 1.89166e-05
7 *192:91 *2694:A1 3.40742e-05
8 *197:143 *2694:A1 0.00012849
9 *391:42 *2694:A1 3.77879e-05
10 *391:42 *833:8 0.000304659
11 *726:32 *2694:A1 4.82863e-05
12 *726:32 *833:8 0.000306346
*RES
1 *3216:Q *833:8 4.825 
2 *833:8 *3397:A 1.6 
3 *833:8 *2694:A1 8.195 
*END

*D_NET *834 0.00158814
*CONN
*I *3391:A I *D sky130_fd_sc_hd__dlygate4sd3_1
*I *2766:B2 I *D sky130_fd_sc_hd__a22o_1
*I *3215:Q O *D sky130_fd_sc_hd__dfxtp_1
*CAP
1 *3391:A 0.000255816
2 *2766:B2 0.000118837
3 *3215:Q 7.84585e-05
4 *834:6 0.000453112
5 *3095:A *834:6 4.77769e-05
6 *202:102 *2766:B2 1.26044e-05
7 *202:110 *2766:B2 5.19006e-06
8 *285:18 *2766:B2 0.000154857
9 *476:89 *3391:A 3.5678e-06
10 *502:10 *3391:A 0.000289883
11 *601:71 *3391:A 8.06843e-05
12 *601:71 *834:6 8.73525e-05
*RES
1 *3215:Q *834:6 3.085 
2 *834:6 *2766:B2 8.105 
3 *834:6 *3391:A 6.205 
*END

*D_NET *835 0.00205777
*CONN
*I *3415:A I *D sky130_fd_sc_hd__dlygate4sd3_1
*I *2704:B2 I *D sky130_fd_sc_hd__a22o_1
*I *3214:Q O *D sky130_fd_sc_hd__dfxtp_1
*CAP
1 *3415:A 0.000373335
2 *2704:B2 5.32548e-05
3 *3214:Q 3.25072e-05
4 *835:6 0.000459097
5 *2704:A1 *3415:A 0.000107205
6 *2704:A1 *835:6 8.52972e-05
7 *2766:A2 *3415:A 3.12855e-05
8 *3092:A1 *3415:A 3.64998e-06
9 *3092:S *3415:A 0.000112595
10 *197:54 *2704:B2 6.44076e-05
11 *202:102 *3415:A 7.07544e-05
12 *202:110 *2704:B2 0.00015094
13 *202:110 *3415:A 0.000162124
14 *202:120 *2704:B2 8.7152e-06
15 *442:16 *3415:A 0.000342603
*RES
1 *3214:Q *835:6 2.395 
2 *835:6 *2704:B2 7.49 
3 *835:6 *3415:A 13.46 
*END

*D_NET *836 0.00143813
*CONN
*I *3434:A I *D sky130_fd_sc_hd__dlygate4sd3_1
*I *2762:A1 I *D sky130_fd_sc_hd__a31o_1
*I *3213:Q O *D sky130_fd_sc_hd__dfxtp_1
*CAP
1 *3434:A 0.000210098
2 *2762:A1 0.000420902
3 *3213:Q 0
4 *836:4 0.000631
5 *3213:CLK *2762:A1 7.56215e-05
6 *176:71 *2762:A1 1.34446e-05
7 *380:10 *2762:A1 6.29313e-05
8 *498:8 *2762:A1 2.41307e-05
*RES
1 *3213:Q *836:4 1.6 
2 *836:4 *2762:A1 10.88 
3 *836:4 *3434:A 4.735 
*END

*D_NET *837 0.00197396
*CONN
*I *3370:A I *D sky130_fd_sc_hd__dlygate4sd3_1
*I *2693:A I *D sky130_fd_sc_hd__and3_1
*I *3212:Q O *D sky130_fd_sc_hd__dfxtp_1
*CAP
1 *3370:A 0.000306151
2 *2693:A 0.000165207
3 *3212:Q 0
4 *837:4 0.000471358
5 *2693:C *2693:A 0.00025511
6 *2768:B *2693:A 7.5173e-05
7 *3086:A1 *3370:A 0.000228855
8 *3087:A *2693:A 0.000118081
9 *3089:A0 *2693:A 7.78715e-05
10 *3089:A0 *3370:A 0.00011223
11 *3089:A1 *3370:A 6.95647e-05
12 *3089:S *3370:A 4.77757e-05
13 *603:33 *2693:A 2.39856e-05
14 *603:33 *3370:A 2.25953e-05
*RES
1 *3212:Q *837:4 1.6 
2 *837:4 *2693:A 9.68 
3 *837:4 *3370:A 7.585 
*END

*D_NET *838 0.00423986
*CONN
*I *2776:A I *D sky130_fd_sc_hd__and3_1
*I *3410:A I *D sky130_fd_sc_hd__dlygate4sd3_1
*I *3211:Q O *D sky130_fd_sc_hd__dfxtp_1
*CAP
1 *2776:A 0.000733233
2 *3410:A 0.000186094
3 *3211:Q 0.00013886
4 *838:6 0.00105819
5 *2741:A *2776:A 9.03508e-06
6 *2741:C *2776:A 1.18384e-05
7 *2742:C1 *2776:A 4.95266e-05
8 *2776:C *2776:A 0.000143387
9 *2781:C *2776:A 0.000303684
10 *2790:C1 *3410:A 9.28013e-05
11 *2790:C1 *838:6 4.09035e-06
12 *3114:A *2776:A 4.66108e-05
13 *3222:D *2776:A 6.0011e-05
14 *3222:D *838:6 4.82319e-06
15 *187:24 *2776:A 2.10134e-05
16 *212:18 *2776:A 4.75576e-05
17 *212:38 *2776:A 2.41368e-05
18 *350:120 *2776:A 0.000165215
19 *350:140 *2776:A 0.000309672
20 *370:32 *3410:A 0.000259577
21 *371:47 *3410:A 0.00057051
*RES
1 *3211:Q *838:6 3.085 
2 *838:6 *3410:A 12.335 
3 *838:6 *2776:A 19.325 
*END

*D_NET *839 0.00133895
*CONN
*I *3421:A I *D sky130_fd_sc_hd__dlygate4sd3_1
*I *2747:A1 I *D sky130_fd_sc_hd__a31o_1
*I *3210:Q O *D sky130_fd_sc_hd__dfxtp_1
*CAP
1 *3421:A 8.54176e-05
2 *2747:A1 0.000256156
3 *3210:Q 2.08101e-05
4 *839:6 0.000362384
5 *2747:B1 *2747:A1 8.7152e-06
6 *3081:A0 *2747:A1 2.75229e-05
7 *3081:A0 *3421:A 2.75145e-05
8 *3222:D *2747:A1 7.36562e-05
9 *187:24 *3421:A 4.0843e-05
10 *193:108 *3421:A 4.66108e-05
11 *202:24 *2747:A1 0
12 *361:45 *2747:A1 0
13 *370:32 *2747:A1 0
14 *371:47 *2747:A1 7.92152e-05
15 *371:47 *3421:A 0.000258751
16 *403:22 *2747:A1 5.13545e-05
*RES
1 *3210:Q *839:6 1.96 
2 *839:6 *2747:A1 10.49 
3 *839:6 *3421:A 4.12 
*END

*D_NET *840 0.00218684
*CONN
*I *2783:A1 I *D sky130_fd_sc_hd__a22o_1
*I *3416:A I *D sky130_fd_sc_hd__dlygate4sd3_1
*I *3209:Q O *D sky130_fd_sc_hd__dfxtp_1
*CAP
1 *2783:A1 0.000130401
2 *3416:A 0.000154053
3 *3209:Q 9.65861e-05
4 *840:8 0.000381039
5 *2783:A1 *2732:B2 8.73389e-06
6 *840:8 *841:16 5.85443e-05
7 *2783:B1 *2783:A1 2.7919e-05
8 *3077:A *3416:A 0.000117832
9 *3078:S *3416:A 0.000196376
10 *285:18 *2783:A1 5.93674e-05
11 *285:18 *3416:A 0.000139342
12 *489:14 *3416:A 0.000236355
13 *492:6 *3416:A 3.83041e-05
14 *602:8 *3416:A 0.000159957
15 *602:94 *2783:A1 0.000162325
16 *602:94 *3416:A 0.000219706
*RES
1 *3209:Q *840:8 5.085 
2 *840:8 *3416:A 10.215 
3 *840:8 *2783:A1 6.645 
*END

*D_NET *841 0.00145365
*CONN
*I *3381:A I *D sky130_fd_sc_hd__dlygate4sd3_1
*I *2732:A1 I *D sky130_fd_sc_hd__a22o_1
*I *3208:Q O *D sky130_fd_sc_hd__dfxtp_1
*CAP
1 *3381:A 2.08101e-05
2 *2732:A1 0.000153739
3 *3208:Q 0.000369349
4 *841:16 0.000543898
5 *2733:C1 *2732:A1 5.062e-06
6 *2733:C1 *841:16 4.05674e-06
7 *2783:A2 *2732:A1 2.75145e-05
8 *3053:A1 *841:16 4.05358e-05
9 *3076:A0 *841:16 8.49205e-05
10 *3208:D *841:16 7.23602e-05
11 *207:104 *2732:A1 2.45752e-05
12 *207:104 *3381:A 0
13 *602:14 *841:16 4.82863e-05
14 *840:8 *841:16 5.85443e-05
*RES
1 *3208:Q *841:16 11.525 
2 *841:16 *2732:A1 3.805 
3 *841:16 *3381:A 1.96 
*END

*D_NET *842 0.00299227
*CONN
*I *3438:A I *D sky130_fd_sc_hd__dlygate4sd3_1
*I *2783:B2 I *D sky130_fd_sc_hd__a22o_1
*I *3207:Q O *D sky130_fd_sc_hd__dfxtp_1
*CAP
1 *3438:A 0.00026112
2 *2783:B2 0.000461627
3 *3207:Q 0.00029609
4 *842:14 0.00101884
5 *2783:B2 *2732:B2 8.16598e-05
6 *2783:B2 *843:6 8.74608e-05
7 *3053:A1 *3438:A 0
8 *3053:A1 *842:14 0
9 *3071:A0 *2783:B2 0.000158536
10 *3071:A0 *842:14 0
11 *3072:A *842:14 0
12 *3073:A0 *3438:A 0.000134784
13 *3073:A0 *842:14 0.000207307
14 *3073:A1 *842:14 9.03138e-05
15 *3074:A *842:14 7.23533e-05
16 *602:16 *842:14 0.000122184
17 *602:29 *842:14 0
18 *602:40 *3438:A 0
*RES
1 *3207:Q *842:14 9.225 
2 *842:14 *2783:B2 11.655 
3 *842:14 *3438:A 8.1 
*END

*D_NET *843 0.00257974
*CONN
*I *2732:B2 I *D sky130_fd_sc_hd__a22o_1
*I *3321:A I *D sky130_fd_sc_hd__dlygate4sd3_1
*I *3206:Q O *D sky130_fd_sc_hd__dfxtp_1
*CAP
1 *2732:B2 0.000646281
2 *3321:A 3.55506e-05
3 *3206:Q 0.000198312
4 *843:6 0.000880143
5 *2783:A1 *2732:B2 8.73389e-06
6 *2783:B1 *2732:B2 0.000455127
7 *2783:B1 *3321:A 0
8 *2783:B2 *2732:B2 8.16598e-05
9 *2783:B2 *843:6 8.74608e-05
10 *3066:A0 *2732:B2 1.56428e-05
11 *3066:A1 *2732:B2 2.19562e-06
12 *3071:A0 *843:6 2.86975e-05
13 *235:18 *2732:B2 0.000139933
*RES
1 *3206:Q *843:6 4.12 
2 *843:6 *3321:A 2.215 
3 *843:6 *2732:B2 14.585 
*END

*D_NET *844 0.000785254
*CONN
*I *3418:A I *D sky130_fd_sc_hd__dlygate4sd3_1
*I *2782:A1 I *D sky130_fd_sc_hd__a22o_1
*I *3205:Q O *D sky130_fd_sc_hd__dfxtp_1
*CAP
1 *3418:A 6.29601e-05
2 *2782:A1 8.49268e-05
3 *3205:Q 0.000120234
4 *844:6 0.000268121
5 *2782:A1 *2782:B2 3.68682e-05
6 *2782:A2 *2782:A1 9.53428e-06
7 *3068:A1 *2782:A1 0
8 *3069:A *2782:A1 9.54399e-05
9 *3205:D *844:6 3.72916e-05
10 *430:92 *3418:A 3.45679e-05
11 *430:92 *844:6 2.76356e-05
12 *442:99 *844:6 7.67415e-06
*RES
1 *3205:Q *844:6 3.43 
2 *844:6 *2782:A1 7.595 
3 *844:6 *3418:A 2.755 
*END

*D_NET *845 0.00133155
*CONN
*I *3429:A I *D sky130_fd_sc_hd__dlygate4sd3_1
*I *2733:A1 I *D sky130_fd_sc_hd__a211o_1
*I *3204:Q O *D sky130_fd_sc_hd__dfxtp_1
*CAP
1 *3429:A 2.4662e-05
2 *2733:A1 7.98915e-05
3 *3204:Q 6.73094e-05
4 *845:10 0.000171863
5 *2731:A2 *2733:A1 0.000309607
6 *2731:A2 *3429:A 0.000152328
7 *2733:A2 *2733:A1 0.000273872
8 *2733:A2 *3429:A 8.65961e-05
9 *2733:B1 *2733:A1 1.85674e-05
10 *2784:B1 *845:10 0.000114492
11 *430:65 *3429:A 3.23663e-05
12 *430:65 *845:10 0
*RES
1 *3204:Q *845:10 6.98 
2 *845:10 *2733:A1 4.825 
3 *845:10 *3429:A 3.085 
*END

*D_NET *846 0.00177241
*CONN
*I *3313:A I *D sky130_fd_sc_hd__dlygate4sd3_1
*I *2782:B2 I *D sky130_fd_sc_hd__a22o_1
*I *3203:Q O *D sky130_fd_sc_hd__dfxtp_1
*CAP
1 *3313:A 0.000160662
2 *2782:B2 0.000353089
3 *3203:Q 0.000282626
4 *846:8 0.000796377
5 *2782:A1 *2782:B2 3.68682e-05
6 *3063:A0 *2782:B2 0
7 *3063:S *846:8 0.000122608
8 *3064:A *846:8 2.01737e-05
9 *3069:A *2782:B2 0
10 *604:56 *2782:B2 0
11 *604:71 *2782:B2 0
*RES
1 *3203:Q *846:8 7.155 
2 *846:8 *2782:B2 9.315 
3 *846:8 *3313:A 6.255 
*END

*D_NET *847 0.00165099
*CONN
*I *3446:A I *D sky130_fd_sc_hd__dlygate4sd3_1
*I *2731:A1 I *D sky130_fd_sc_hd__a22o_1
*I *3202:Q O *D sky130_fd_sc_hd__dfxtp_1
*CAP
1 *3446:A 0.000192956
2 *2731:A1 0.00037529
3 *3202:Q 2.08101e-05
4 *847:6 0.000589056
5 *2731:B1 *2731:A1 9.50342e-06
6 *3061:A1 *2731:A1 4.05674e-06
7 *3061:A1 *3446:A 1.7386e-05
8 *3068:S *2731:A1 0
9 *442:74 *2731:A1 0.000164679
10 *483:10 *2731:A1 0
11 *602:107 *2731:A1 0.000185626
12 *602:116 *2731:A1 9.16237e-05
*RES
1 *3202:Q *847:6 1.96 
2 *847:6 *2731:A1 13.49 
3 *847:6 *3446:A 4.48 
*END

*D_NET *848 0.00223974
*CONN
*I *3437:A I *D sky130_fd_sc_hd__dlygate4sd3_1
*I *2792:A1 I *D sky130_fd_sc_hd__a21o_1
*I *3257:Q O *D sky130_fd_sc_hd__dfxtp_1
*CAP
1 *3437:A 0
2 *2792:A1 0.000329981
3 *3257:Q 0.000225925
4 *848:14 0.000555906
5 *2567:A *2792:A1 2.20732e-05
6 *2580:A0 *848:14 7.4027e-05
7 *2613:S *848:14 4.05358e-05
8 *2792:B1 *2792:A1 0.000240378
9 *2792:B1 *848:14 8.51862e-05
10 *2797:C1 *848:14 0.000347017
11 *2798:A2 *2792:A1 0.000122331
12 *299:34 *2792:A1 0.000196376
*RES
1 *3257:Q *848:14 10.895 
2 *848:14 *2792:A1 7.885 
3 *848:14 *3437:A 1.6 
*END

*D_NET *849 0.000636401
*CONN
*I *3324:A I *D sky130_fd_sc_hd__dlygate4sd3_1
*I *2711:A1 I *D sky130_fd_sc_hd__a22o_1
*I *3256:Q O *D sky130_fd_sc_hd__dfxtp_1
*CAP
1 *3324:A 4.15743e-05
2 *2711:A1 2.55801e-05
3 *3256:Q 3.42478e-05
4 *849:10 0.000101402
5 *2612:A *849:10 8.99337e-05
6 *2711:A2 *2711:A1 2.49909e-05
7 *2711:A2 *3324:A 5.83273e-05
8 *2711:B1 *2711:A1 8.35118e-05
9 *2711:B1 *3324:A 7.26398e-05
10 *202:120 *849:10 8.99337e-05
11 *500:26 *2711:A1 1.42598e-05
*RES
1 *3256:Q *849:10 6.725 
2 *849:10 *2711:A1 2.395 
3 *849:10 *3324:A 2.755 
*END

*D_NET *850 0.00179801
*CONN
*I *3380:A I *D sky130_fd_sc_hd__dlygate4sd3_1
*I *2771:A I *D sky130_fd_sc_hd__and3_1
*I *3201:Q O *D sky130_fd_sc_hd__dfxtp_1
*CAP
1 *3380:A 0.000188729
2 *2771:A 0.000322898
3 *3201:Q 4.43379e-05
4 *850:8 0.000555964
5 *2771:B *2771:A 2.50059e-05
6 *3056:A1 *3380:A 5.22973e-05
7 *3058:A1 *3380:A 3.86607e-05
8 *3059:A *2771:A 0.000139245
9 *323:55 *2771:A 1.23244e-05
10 *323:55 *3380:A 5.59418e-05
11 *419:16 *2771:A 0.000149749
12 *419:16 *3380:A 0.00011741
13 *511:22 *2771:A 9.54469e-05
*RES
1 *3201:Q *850:8 4.05 
2 *850:8 *2771:A 9.63 
3 *850:8 *3380:A 7.845 
*END

*D_NET *851 0.0034516
*CONN
*I *3393:A I *D sky130_fd_sc_hd__dlygate4sd3_1
*I *2743:A I *D sky130_fd_sc_hd__and3_1
*I *3200:Q O *D sky130_fd_sc_hd__dfxtp_1
*CAP
1 *3393:A 0.000182768
2 *2743:A 0.000817969
3 *3200:Q 0
4 *851:4 0.00100074
5 *2543:A0 *2743:A 0.000197826
6 *2543:A1 *2743:A 0.000161467
7 *2543:S *2743:A 0.00017416
8 *2544:A *2743:A 0.00010235
9 *3055:B *2743:A 0.000158768
10 *3058:S *2743:A 0.000155928
11 *3229:CLK *2743:A 0.000106866
12 *3229:D *2743:A 7.7152e-05
13 *355:32 *2743:A 7.11738e-05
14 *594:27 *2743:A 2.3091e-05
15 *774:77 *2743:A 1.858e-05
16 *774:77 *3393:A 0.000202757
*RES
1 *3200:Q *851:4 1.6 
2 *851:4 *2743:A 20.36 
3 *851:4 *3393:A 5.425 
*END

*D_NET *852 0.0019759
*CONN
*I *3395:A I *D sky130_fd_sc_hd__dlygate4sd3_1
*I *2784:A1 I *D sky130_fd_sc_hd__a211o_1
*I *3199:Q O *D sky130_fd_sc_hd__dfxtp_1
*CAP
1 *3395:A 0.000184968
2 *2784:A1 0.000344244
3 *3199:Q 0.000144625
4 *852:8 0.000673837
5 *3395:A *853:10 5.05521e-05
6 *2784:A2 *2784:A1 9.53428e-06
7 *3051:S *2784:A1 0.000131401
8 *3051:S *3395:A 7.70828e-05
9 *3052:A *852:8 5.09835e-06
10 *3053:A1 *2784:A1 0
11 *3204:CLK *2784:A1 3.26889e-05
12 *197:48 *2784:A1 1.61831e-05
13 *197:52 *2784:A1 0.000142669
14 *442:99 *3395:A 0
15 *477:14 *2784:A1 0.000163019
*RES
1 *3199:Q *852:8 5.085 
2 *852:8 *2784:A1 10.935 
3 *852:8 *3395:A 7.05 
*END

*D_NET *853 0.00195218
*CONN
*I *3408:A I *D sky130_fd_sc_hd__dlygate4sd3_1
*I *2731:B2 I *D sky130_fd_sc_hd__a22o_1
*I *3198:Q O *D sky130_fd_sc_hd__dfxtp_1
*CAP
1 *3408:A 9.88108e-05
2 *2731:B2 0.000245203
3 *3198:Q 0.000402138
4 *853:10 0.000746152
5 *3051:S *2731:B2 0
6 *3053:A0 *853:10 4.94457e-05
7 *3395:A *853:10 5.05521e-05
8 *442:74 *3408:A 0.000237249
9 *442:99 *2731:B2 9.50342e-06
10 *442:99 *853:10 0.000113126
11 *602:107 *2731:B2 0
12 *602:107 *853:10 0
*RES
1 *3198:Q *853:10 8.88 
2 *853:10 *2731:B2 7.23 
3 *853:10 *3408:A 5.775 
*END

*D_NET *854 0.00290087
*CONN
*I *3427:A I *D sky130_fd_sc_hd__dlygate4sd3_1
*I *2756:A1 I *D sky130_fd_sc_hd__a221o_1
*I *3197:Q O *D sky130_fd_sc_hd__dfxtp_1
*CAP
1 *3427:A 5.97209e-05
2 *2756:A1 0.000854703
3 *3197:Q 0.000183524
4 *854:10 0.00109795
5 *3427:A *3344:A 0.000106017
6 *854:10 *2687:A1 4.88478e-05
7 *854:10 *3344:A 0.000179192
8 *854:10 *855:12 2.69217e-05
9 *2756:A2 *2756:A1 5.69249e-05
10 *2756:B1 *2756:A1 5.19006e-06
11 *3044:A *2756:A1 2.99026e-05
12 *3045:A1 *2756:A1 5.46663e-05
13 *3045:S *2756:A1 2.68464e-05
14 *3046:A *2756:A1 7.30505e-05
15 *3196:CLK *2756:A1 1.79174e-05
16 *3196:D *2756:A1 7.94968e-05
17 *607:14 *3427:A 0
*RES
1 *3197:Q *854:10 6.885 
2 *854:10 *2756:A1 14.955 
3 *854:10 *3427:A 4.98 
*END

*D_NET *855 0.00333005
*CONN
*I *3344:A I *D sky130_fd_sc_hd__dlygate4sd3_1
*I *2687:A1 I *D sky130_fd_sc_hd__a221o_1
*I *3196:Q O *D sky130_fd_sc_hd__dfxtp_1
*CAP
1 *3344:A 0.000304743
2 *2687:A1 0.000641929
3 *3196:Q 0.000253641
4 *855:12 0.00120031
5 *2687:A1 *2687:B2 0.000130532
6 *2687:B1 *2687:A1 2.93004e-05
7 *2688:C1 *2687:A1 1.22325e-05
8 *3043:A1 *3344:A 0
9 *3043:S *3344:A 0
10 *3197:D *2687:A1 0.000105109
11 *3427:A *3344:A 0.000106017
12 *595:28 *2687:A1 0.000148746
13 *595:34 *2687:A1 2.79984e-05
14 *607:14 *855:12 0.000114524
15 *854:10 *2687:A1 4.88478e-05
16 *854:10 *3344:A 0.000179192
17 *854:10 *855:12 2.69217e-05
*RES
1 *3196:Q *855:12 10.19 
2 *855:12 *2687:A1 12.355 
3 *855:12 *3344:A 11.57 
*END

*D_NET *856 0.00227815
*CONN
*I *3432:A I *D sky130_fd_sc_hd__dlygate4sd3_1
*I *2755:A1 I *D sky130_fd_sc_hd__a22o_1
*I *3195:Q O *D sky130_fd_sc_hd__dfxtp_1
*CAP
1 *3432:A 0.000347767
2 *2755:A1 0
3 *3195:Q 0.000138587
4 *856:8 0.000486354
5 *3432:A *2756:B2 0.000163204
6 *3432:A *3315:A 0.000261321
7 *3036:A *3432:A 0.000198934
8 *3036:A *856:8 4.87317e-05
9 *3040:A1 *3432:A 0.000352161
10 *3192:CLK *3432:A 8.53113e-06
11 *430:144 *3432:A 0.000158072
12 *595:34 *3432:A 0.000114492
*RES
1 *3195:Q *856:8 3.955 
2 *856:8 *2755:A1 1.6 
3 *856:8 *3432:A 14.795 
*END

*D_NET *857 0.00224719
*CONN
*I *3444:A I *D sky130_fd_sc_hd__dlygate4sd3_1
*I *2686:A1 I *D sky130_fd_sc_hd__a22o_1
*I *3194:Q O *D sky130_fd_sc_hd__dfxtp_1
*CAP
1 *3444:A 4.39973e-05
2 *2686:A1 7.42882e-05
3 *3194:Q 0.000166911
4 *857:8 0.000285197
5 *2686:A1 *2686:B2 0.000202667
6 *857:8 *2686:B2 0.000451811
7 *857:8 *2755:B2 2.68721e-05
8 *2688:C1 *3444:A 0.000193129
9 *2755:B1 *2686:A1 4.82919e-05
10 *2755:B1 *857:8 0
11 *2757:C1 *2686:A1 8.40269e-05
12 *3036:A *857:8 7.4027e-05
13 *185:29 *3444:A 0.000193129
14 *187:120 *2686:A1 4.82863e-05
15 *430:129 *2686:A1 0.000199698
16 *430:129 *857:8 0.000154863
*RES
1 *3194:Q *857:8 9.06 
2 *857:8 *2686:A1 6.795 
3 *857:8 *3444:A 5.43 
*END

*D_NET *858 0.00199155
*CONN
*I *3315:A I *D sky130_fd_sc_hd__dlygate4sd3_1
*I *2756:B2 I *D sky130_fd_sc_hd__a221o_1
*I *3193:Q O *D sky130_fd_sc_hd__dfxtp_1
*CAP
1 *3315:A 0.000307447
2 *2756:B2 0.000337556
3 *3193:Q 2.08101e-05
4 *858:6 0.000665814
5 *2756:B2 *2687:B2 0
6 *2756:A2 *2756:B2 3.41765e-05
7 *2756:B1 *2756:B2 1.14192e-05
8 *3034:A *2756:B2 0
9 *3192:CLK *2756:B2 0
10 *3432:A *2756:B2 0.000163204
11 *3432:A *3315:A 0.000261321
12 *432:171 *2756:B2 1.34361e-05
13 *465:12 *2756:B2 0.000176364
14 *595:34 *2756:B2 0
*RES
1 *3193:Q *858:6 1.96 
2 *858:6 *2756:B2 11.765 
3 *858:6 *3315:A 6.88 
*END

*D_NET *859 0.00204119
*CONN
*I *3325:A I *D sky130_fd_sc_hd__dlygate4sd3_1
*I *2687:B2 I *D sky130_fd_sc_hd__a221o_1
*I *3192:Q O *D sky130_fd_sc_hd__dfxtp_1
*CAP
1 *3325:A 0.000189491
2 *2687:B2 0.00047843
3 *3192:Q 0
4 *859:4 0.000667921
5 *2687:A1 *2687:B2 0.000130532
6 *2687:B1 *2687:B2 5.19006e-06
7 *2756:B2 *2687:B2 0
8 *2757:C1 *2687:B2 3.06743e-05
9 *3033:A1 *2687:B2 9.83202e-05
10 *3034:A *2687:B2 0.000270647
11 *3044:A *2687:B2 0.000134756
12 *3045:A0 *2687:B2 0
13 *432:171 *2687:B2 0
14 *595:34 *2687:B2 3.52275e-05
*RES
1 *3192:Q *859:4 1.6 
2 *859:4 *2687:B2 15.5037 
3 *859:4 *3325:A 4.48 
*END

*D_NET *860 0.00151521
*CONN
*I *3448:A I *D sky130_fd_sc_hd__dlygate4sd3_1
*I *2755:B2 I *D sky130_fd_sc_hd__a22o_1
*I *3191:Q O *D sky130_fd_sc_hd__dfxtp_1
*CAP
1 *3448:A 5.23473e-05
2 *2755:B2 0.000185602
3 *3191:Q 0.000276285
4 *860:8 0.000514234
5 *2755:B2 *2686:B2 7.33465e-05
6 *2755:B2 *861:10 1.0183e-05
7 *860:8 *3342:A 8.65905e-05
8 *2755:B1 *2755:B2 5.53249e-06
9 *3028:A0 *860:8 3.00381e-05
10 *3030:A0 *860:8 0.00013566
11 *3036:A *2755:B2 0.00011852
12 *3040:A1 *2755:B2 0
13 *3192:CLK *2755:B2 0
14 *595:34 *2755:B2 0
15 *857:8 *2755:B2 2.68721e-05
*RES
1 *3191:Q *860:8 6.805 
2 *860:8 *2755:B2 9.785 
3 *860:8 *3448:A 2.395 
*END

*D_NET *861 0.00225288
*CONN
*I *3342:A I *D sky130_fd_sc_hd__dlygate4sd3_1
*I *2686:B2 I *D sky130_fd_sc_hd__a22o_1
*I *3190:Q O *D sky130_fd_sc_hd__dfxtp_1
*CAP
1 *3342:A 2.37881e-05
2 *2686:B2 0.000412973
3 *3190:Q 0.000181438
4 *861:10 0.000618198
5 *2686:A1 *2686:B2 0.000202667
6 *2755:B2 *2686:B2 7.33465e-05
7 *2755:B2 *861:10 1.0183e-05
8 *3030:A0 *2686:B2 0
9 *3030:A0 *3342:A 4.99619e-05
10 *3036:A *2686:B2 2.68721e-05
11 *3038:A1 *2686:B2 7.03276e-05
12 *3194:D *2686:B2 0
13 *432:94 *2686:B2 4.47275e-05
14 *857:8 *2686:B2 0.000451811
15 *860:8 *3342:A 8.65905e-05
*RES
1 *3190:Q *861:10 6.03 
2 *861:10 *2686:B2 13.905 
3 *861:10 *3342:A 4.395 
*END

*D_NET *862 0.000746871
*CONN
*I *2757:A1 I *D sky130_fd_sc_hd__a211o_1
*I *3417:A I *D sky130_fd_sc_hd__dlygate4sd3_1
*I *3189:Q O *D sky130_fd_sc_hd__dfxtp_1
*CAP
1 *2757:A1 0.000102857
2 *3417:A 0
3 *3189:Q 0.00016731
4 *862:10 0.000270167
5 *2757:A2 *2757:A1 3.70572e-05
6 *2757:C1 *2757:A1 1.37328e-05
7 *430:110 *2757:A1 5.6456e-05
8 *430:110 *862:10 9.92917e-05
*RES
1 *3189:Q *862:10 4.585 
2 *862:10 *3417:A 1.6 
3 *862:10 *2757:A1 3.79 
*END

*D_NET *863 0.00125295
*CONN
*I *2682:A1 I *D sky130_fd_sc_hd__a22o_1
*I *3311:A I *D sky130_fd_sc_hd__dlygate4sd3_1
*I *3188:Q O *D sky130_fd_sc_hd__dfxtp_1
*CAP
1 *2682:A1 0.000100723
2 *3311:A 0
3 *3188:Q 0.000168356
4 *863:8 0.000269079
5 *2682:A1 *2682:B2 8.52883e-05
6 *863:8 *2682:B2 0.000383654
7 *2682:B1 *2682:A1 5.64792e-05
8 *3023:A1 *863:8 0.000136435
9 *432:94 *2682:A1 2.20014e-05
10 *432:94 *863:8 3.0933e-05
*RES
1 *3188:Q *863:8 6.205 
2 *863:8 *3311:A 1.6 
3 *863:8 *2682:A1 3.895 
*END

*D_NET *864 0.0018278
*CONN
*I *3404:A I *D sky130_fd_sc_hd__dlygate4sd3_1
*I *2754:A1 I *D sky130_fd_sc_hd__a22o_1
*I *3187:Q O *D sky130_fd_sc_hd__dfxtp_1
*CAP
1 *3404:A 0.000196439
2 *2754:A1 0.000166292
3 *3187:Q 9.78111e-05
4 *864:10 0.000460542
5 *2754:A1 *2688:A1 3.14025e-05
6 *2754:A1 *2754:B2 0
7 *864:10 *2688:A1 9.37731e-05
8 *864:10 *2754:B2 0
9 *2754:A2 *2754:A1 0.000161482
10 *3018:S *3404:A 6.41532e-05
11 *3019:A *3404:A 3.26889e-05
12 *3020:A0 *3404:A 0.000121031
13 *3021:A *864:10 0
14 *3030:A1 *3404:A 4.82218e-05
15 *442:114 *2754:A1 0.000197832
16 *456:16 *2754:A1 0.000156133
*RES
1 *3187:Q *864:10 5.175 
2 *864:10 *2754:A1 8.19 
3 *864:10 *3404:A 7.17 
*END

*D_NET *865 0.00259361
*CONN
*I *3445:A I *D sky130_fd_sc_hd__dlygate4sd3_1
*I *2688:A1 I *D sky130_fd_sc_hd__a211o_1
*I *3186:Q O *D sky130_fd_sc_hd__dfxtp_1
*CAP
1 *3445:A 0.000410201
2 *2688:A1 0.000422501
3 *3186:Q 0.000177385
4 *865:8 0.00101009
5 *2754:A1 *2688:A1 3.14025e-05
6 *3021:A *2688:A1 0
7 *3021:A *3445:A 0
8 *456:16 *2688:A1 0.000173317
9 *604:116 *865:8 0.000274947
10 *864:10 *2688:A1 9.37731e-05
*RES
1 *3186:Q *865:8 6.12 
2 *865:8 *2688:A1 11.145 
3 *865:8 *3445:A 9.57 
*END

*D_NET *866 0.00161005
*CONN
*I *3426:A I *D sky130_fd_sc_hd__dlygate4sd3_1
*I *2754:B2 I *D sky130_fd_sc_hd__a22o_1
*I *3185:Q O *D sky130_fd_sc_hd__dfxtp_1
*CAP
1 *3426:A 6.3512e-05
2 *2754:B2 0.000198525
3 *3185:Q 0.000186519
4 *866:8 0.000448556
5 *2754:B2 *2682:B2 3.12855e-05
6 *2754:B2 *867:10 0.000112589
7 *2754:A1 *2754:B2 0
8 *3015:A0 *3426:A 0
9 *3015:S *2754:B2 0
10 *3021:A *2754:B2 7.23533e-05
11 *3021:A *3426:A 0.000233925
12 *3187:D *3426:A 0.000105849
13 *3187:D *866:8 9.26175e-06
14 *190:28 *2754:B2 7.21318e-05
15 *442:114 *2754:B2 2.49909e-05
16 *604:99 *866:8 2.75229e-05
17 *604:116 *866:8 2.30292e-05
18 *864:10 *2754:B2 0
*RES
1 *3185:Q *866:8 5.775 
2 *866:8 *2754:B2 7.725 
3 *866:8 *3426:A 6.255 
*END

*D_NET *867 0.00222451
*CONN
*I *3402:A I *D sky130_fd_sc_hd__dlygate4sd3_1
*I *2682:B2 I *D sky130_fd_sc_hd__a22o_1
*I *3184:Q O *D sky130_fd_sc_hd__dfxtp_1
*CAP
1 *3402:A 0
2 *2682:B2 0.000186675
3 *3184:Q 0.000283188
4 *867:10 0.000469863
5 *2682:A1 *2682:B2 8.52883e-05
6 *2682:B1 *2682:B2 7.44125e-05
7 *2754:B1 *2682:B2 0.000235351
8 *2754:B2 *2682:B2 3.12855e-05
9 *2754:B2 *867:10 0.000112589
10 *3015:S *867:10 0.000160342
11 *3016:A *867:10 1.55253e-05
12 *190:28 *2682:B2 8.09236e-05
13 *432:94 *2682:B2 8.35783e-05
14 *445:109 *867:10 1.19928e-05
15 *445:118 *867:10 9.83921e-06
16 *863:8 *2682:B2 0.000383654
*RES
1 *3184:Q *867:10 7.845 
2 *867:10 *2682:B2 9.99 
3 *867:10 *3402:A 3.6 
*END

*D_NET *868 0.00218942
*CONN
*I *3419:A I *D sky130_fd_sc_hd__dlygate4sd3_1
*I *2764:A1 I *D sky130_fd_sc_hd__a31o_1
*I *3183:Q O *D sky130_fd_sc_hd__dfxtp_1
*CAP
1 *3419:A 0.000143035
2 *2764:A1 0.000646522
3 *3183:Q 3.81631e-05
4 *868:6 0.000827721
5 *2702:B1 *2764:A1 0
6 *2708:B1 *3419:A 0.000223452
7 *2764:A2 *2764:A1 5.31158e-06
8 *2764:B1 *2764:A1 2.93136e-05
9 *3008:A0 *2764:A1 0.000116933
10 *3050:A *2764:A1 2.83582e-05
11 *3050:A *868:6 4.11678e-06
12 *395:30 *3419:A 0
13 *450:6 *3419:A 8.23457e-05
14 *474:55 *3419:A 4.41506e-05
*RES
1 *3183:Q *868:6 2.05 
2 *868:6 *2764:A1 14.375 
3 *868:6 *3419:A 9.05 
*END

*D_NET *869 0.00123116
*CONN
*I *2702:A1 I *D sky130_fd_sc_hd__a31o_1
*I *3412:A I *D sky130_fd_sc_hd__dlygate4sd3_1
*I *3182:Q O *D sky130_fd_sc_hd__dfxtp_1
*CAP
1 *2702:A1 0.0001861
2 *3412:A 0
3 *3182:Q 0.000126449
4 *869:8 0.000312549
5 *2702:B1 *2702:A1 4.28112e-06
6 *2708:B1 *2702:A1 0.000175213
7 *3216:CLK *2702:A1 0.000116281
8 *3216:CLK *869:8 4.90291e-05
9 *197:40 *2702:A1 2.69153e-05
10 *197:40 *869:8 0.000156629
11 *419:88 *2702:A1 7.77156e-05
*RES
1 *3182:Q *869:8 4.48 
2 *869:8 *3412:A 1.6 
3 *869:8 *2702:A1 9.98 
*END

*D_NET *870 0.00499693
*CONN
*I *2795:B2 I *D sky130_fd_sc_hd__a22o_1
*I *3356:A I *D sky130_fd_sc_hd__dlygate4sd3_1
*I *3255:Q O *D sky130_fd_sc_hd__dfxtp_1
*CAP
1 *2795:B2 0.000743142
2 *3356:A 0
3 *3255:Q 0.000276398
4 *870:10 0.00101954
5 *2795:B2 *893:12 0.00011852
6 *870:10 *2715:B2 0
7 *2580:A1 *2795:B2 5.83121e-06
8 *2603:A0 *2795:B2 0.000132442
9 *2613:A0 *2795:B2 0.000238297
10 *2715:B1 *2795:B2 0
11 *2715:B1 *870:10 0
12 *2718:B *870:10 0
13 *2719:A2 *2795:B2 0.000149235
14 *2719:B1 *2795:B2 0.000165624
15 *2794:B1 *2795:B2 0.000127151
16 *2795:A1 *2795:B2 1.08758e-05
17 *2795:A2 *2795:B2 1.52828e-05
18 *2795:B1 *2795:B2 8.35157e-05
19 *2797:A2 *2795:B2 0
20 *2797:B1 *2795:B2 3.70624e-05
21 *2798:A2 *2795:B2 0.000721548
22 *2798:B1 *2795:B2 0.000301879
23 *328:137 *2795:B2 0.000532002
24 *328:137 *870:10 0.000215662
25 *328:149 *870:10 7.23602e-05
26 *538:16 *2795:B2 3.05646e-05
*RES
1 *3255:Q *870:10 8.16 
2 *870:10 *3356:A 3.6 
3 *870:10 *2795:B2 23.82 
*END

*D_NET *871 0.00103655
*CONN
*I *2717:A1 I *D sky130_fd_sc_hd__a22o_1
*I *3449:A I *D sky130_fd_sc_hd__dlygate4sd3_1
*I *3254:Q O *D sky130_fd_sc_hd__dfxtp_1
*CAP
1 *2717:A1 0
2 *3449:A 0.000109894
3 *3254:Q 9.34278e-05
4 *871:8 0.000203322
5 *2608:A0 *3449:A 0.000170627
6 *2717:A2 *871:8 4.89395e-05
7 *2717:B2 *3449:A 3.54721e-05
8 *2717:B2 *871:8 8.41384e-05
9 *2718:C *3449:A 7.27704e-06
10 *3254:D *3449:A 0.000163604
11 *3254:D *871:8 0.000119846
*RES
1 *3254:Q *871:8 3.79 
2 *871:8 *3449:A 8.825 
3 *871:8 *2717:A1 1.6 
*END

*D_NET *872 0.00214794
*CONN
*I *3386:A I *D sky130_fd_sc_hd__dlygate4sd3_1
*I *2761:A I *D sky130_fd_sc_hd__and3_1
*I *3181:Q O *D sky130_fd_sc_hd__dfxtp_1
*CAP
1 *3386:A 0.00011686
2 *2761:A 0.000340389
3 *3181:Q 0
4 *872:4 0.000457248
5 *3005:A0 *2761:A 0.000156364
6 *3005:A1 *2761:A 0.000221906
7 *3005:A1 *3386:A 4.66108e-05
8 *3180:D *2761:A 7.59171e-05
9 *187:24 *2761:A 0.000134054
10 *202:10 *2761:A 9.94146e-05
11 *317:81 *2761:A 0.000173814
12 *395:24 *3386:A 0.000129427
13 *447:10 *3386:A 0.00015896
14 *677:30 *2761:A 3.69766e-05
*RES
1 *3181:Q *872:4 1.6 
2 *872:4 *2761:A 13.895 
3 *872:4 *3386:A 4.48 
*END

*D_NET *873 0.00292586
*CONN
*I *3383:A I *D sky130_fd_sc_hd__dlygate4sd3_1
*I *2698:A I *D sky130_fd_sc_hd__and3_1
*I *3180:Q O *D sky130_fd_sc_hd__dfxtp_1
*CAP
1 *3383:A 0.00023568
2 *2698:A 9.22348e-05
3 *3180:Q 0.000613194
4 *873:8 0.000941109
5 *2901:C *873:8 3.98565e-05
6 *2924:C_N *3383:A 1.38321e-05
7 *2936:A *3383:A 7.00889e-06
8 *3003:A1 *3383:A 0
9 *3180:CLK *873:8 0.000235568
10 *3180:D *873:8 6.752e-05
11 *3464:A *2698:A 0.000118869
12 *3464:A *3383:A 0.000175431
13 *176:59 *2698:A 4.45596e-05
14 *317:81 *873:8 8.88715e-05
15 *340:39 *3383:A 3.79854e-05
16 *340:43 *3383:A 4.38278e-05
17 *384:22 *2698:A 0
18 *395:24 *3383:A 4.05358e-05
19 *403:10 *3383:A 0.000120655
20 *748:28 *2698:A 9.12494e-06
*RES
1 *3180:Q *873:8 10.95 
2 *873:8 *2698:A 5.49 
3 *873:8 *3383:A 8.64 
*END

*D_NET *874 0.00407335
*CONN
*I *3374:A I *D sky130_fd_sc_hd__dlygate4sd3_1
*I *2785:A I *D sky130_fd_sc_hd__and3_1
*I *3179:Q O *D sky130_fd_sc_hd__dfxtp_1
*CAP
1 *3374:A 0.000308002
2 *2785:A 0.000441869
3 *3179:Q 0.000517466
4 *874:8 0.00126734
5 *2785:A *2786:A1 1.06624e-05
6 *2785:A *3366:A 0.000267297
7 *2785:C *2785:A 9.28108e-05
8 *2786:A3 *2785:A 9.37898e-05
9 *2786:A3 *3374:A 7.23602e-05
10 *2789:A1 *3374:A 0.000137234
11 *2789:B1 *3374:A 0.000161985
12 *2789:C1 *2785:A 0
13 *2789:C1 *3374:A 0
14 *2997:S *874:8 0.000154098
15 *3210:D *2785:A 0.000195386
16 *374:152 *2785:A 1.48873e-05
17 *600:64 *874:8 3.45679e-05
18 *600:87 *2785:A 0.000188293
19 *600:87 *874:8 0.000115306
*RES
1 *3179:Q *874:8 9.915 
2 *874:8 *2785:A 11.73 
3 *874:8 *3374:A 9.09 
*END

*D_NET *875 0.00268165
*CONN
*I *2734:A I *D sky130_fd_sc_hd__and3_1
*I *3364:A I *D sky130_fd_sc_hd__dlygate4sd3_1
*I *3178:Q O *D sky130_fd_sc_hd__dfxtp_1
*CAP
1 *2734:A 0.000232394
2 *3364:A 0
3 *3178:Q 0.000109604
4 *875:8 0.000341998
5 *2572:A *2734:A 0.000412653
6 *2572:A *875:8 0.000413981
7 *2734:C *2734:A 5.13607e-05
8 *2896:B *2734:A 3.09774e-05
9 *2899:A0 *2734:A 6.41532e-05
10 *2899:A1 *2734:A 4.77719e-05
11 *2899:S *2734:A 0.000192489
12 *2996:B *875:8 4.99619e-05
13 *377:6 *2734:A 4.66108e-05
14 *380:45 *2734:A 0.000404706
15 *380:45 *875:8 8.1871e-05
16 *419:67 *875:8 0.000186388
17 *443:10 *875:8 1.47256e-05
*RES
1 *3178:Q *875:8 5.86 
2 *875:8 *3364:A 1.6 
3 *875:8 *2734:A 9.775 
*END

*D_NET *876 0.00119847
*CONN
*I *2765:A1 I *D sky130_fd_sc_hd__a22o_1
*I *3406:A I *D sky130_fd_sc_hd__dlygate4sd3_1
*I *3177:Q O *D sky130_fd_sc_hd__dfxtp_1
*CAP
1 *2765:A1 0.000166577
2 *3406:A 0
3 *3177:Q 0.000166211
4 *876:10 0.000332788
5 *3022:A *2765:A1 4.84393e-05
6 *208:120 *2765:A1 9.50342e-06
7 *215:28 *2765:A1 0.000176303
8 *215:28 *876:10 0.000298649
*RES
1 *3177:Q *876:10 5.185 
2 *876:10 *3406:A 1.6 
3 *876:10 *2765:A1 9.17 
*END

*D_NET *877 0.00321643
*CONN
*I *3401:A I *D sky130_fd_sc_hd__dlygate4sd3_1
*I *2707:A1 I *D sky130_fd_sc_hd__a22o_1
*I *3176:Q O *D sky130_fd_sc_hd__dfxtp_1
*CAP
1 *3401:A 0.000558139
2 *2707:A1 0.00040927
3 *3176:Q 0
4 *877:4 0.000967409
5 *3176:D *2707:A1 0.000131474
6 *181:24 *3401:A 0.000111012
7 *207:16 *3401:A 0.000111012
8 *207:94 *2707:A1 0.000607743
9 *207:94 *3401:A 0.000219862
10 *207:104 *2707:A1 4.99619e-05
11 *603:10 *3401:A 5.05437e-05
*RES
1 *3176:Q *877:4 1.6 
2 *877:4 *2707:A1 9.49 
3 *877:4 *3401:A 13.295 
*END

*D_NET *878 0.00197965
*CONN
*I *2772:A I *D sky130_fd_sc_hd__and3_1
*I *3363:A I *D sky130_fd_sc_hd__dlygate4sd3_1
*I *3175:Q O *D sky130_fd_sc_hd__dfxtp_1
*CAP
1 *2772:A 0.000440726
2 *3363:A 3.41908e-05
3 *3175:Q 0.000149571
4 *878:10 0.000624488
5 *2740:A3 *2772:A 8.69417e-06
6 *2740:A3 *878:10 5.06544e-05
7 *2740:B1 *2772:A 0
8 *2772:C *2772:A 7.22467e-05
9 *174:26 *3363:A 4.41506e-05
10 *176:16 *2772:A 5.74791e-05
11 *211:66 *2772:A 0.000105257
12 *211:66 *878:10 0.000136606
13 *218:41 *3363:A 4.41506e-05
14 *608:82 *878:10 2.31329e-05
15 *641:12 *2772:A 0.000188303
*RES
1 *3175:Q *878:10 6.03 
2 *878:10 *3363:A 4.395 
3 *878:10 *2772:A 10.035 
*END

*D_NET *879 0.0012804
*CONN
*I *2742:A1 I *D sky130_fd_sc_hd__a311o_1
*I *3377:A I *D sky130_fd_sc_hd__dlygate4sd3_1
*I *3174:Q O *D sky130_fd_sc_hd__dfxtp_1
*CAP
1 *2742:A1 5.38055e-05
2 *3377:A 1.89039e-05
3 *3174:Q 0.000140631
4 *879:14 0.000213341
5 *2742:A3 *2742:A1 0.000119873
6 *2745:A2 *2742:A1 2.86975e-05
7 *2751:C *879:14 2.16214e-05
8 *2986:A0 *879:14 4.89362e-05
9 *177:102 *2742:A1 1.43622e-05
10 *177:102 *879:14 0.000127636
11 *177:117 *2742:A1 2.10214e-05
12 *215:102 *2742:A1 0.000230021
13 *215:102 *879:14 0.000241553
*RES
1 *3174:Q *879:14 9.35 
2 *879:14 *3377:A 1.96 
3 *879:14 *2742:A1 3.775 
*END

*D_NET *880 0.00384882
*CONN
*I *3346:A I *D sky130_fd_sc_hd__dlygate4sd3_1
*I *2765:B2 I *D sky130_fd_sc_hd__a22o_1
*I *3173:Q O *D sky130_fd_sc_hd__dfxtp_1
*CAP
1 *3346:A 0.00015761
2 *2765:B2 0.00059068
3 *3173:Q 0.000398651
4 *880:8 0.00114694
5 *2765:A2 *2765:B2 6.97202e-05
6 *2767:A2 *2765:B2 0.000269625
7 *2991:A0 *2765:B2 0.000132059
8 *2993:A0 *2765:B2 2.30184e-05
9 *3012:A *880:8 3.64622e-05
10 *3012:B *3346:A 0.00016031
11 *3017:A *2765:B2 0
12 *3017:A *3346:A 0
13 *3022:A *3346:A 4.77719e-05
14 *3299:A *2765:B2 2.61011e-05
15 *181:24 *2765:B2 0
16 *183:38 *2765:B2 0.000243532
17 *183:38 *3346:A 0.000187766
18 *183:134 *3346:A 4.21314e-05
19 *208:102 *2765:B2 3.31103e-05
20 *215:28 *2765:B2 0.000198945
21 *421:49 *2765:B2 8.43848e-05
*RES
1 *3173:Q *880:8 7.845 
2 *880:8 *2765:B2 19.36 
3 *880:8 *3346:A 7.74 
*END

*D_NET *881 0.00230913
*CONN
*I *3334:A I *D sky130_fd_sc_hd__dlygate4sd3_1
*I *2707:B2 I *D sky130_fd_sc_hd__a22o_1
*I *3172:Q O *D sky130_fd_sc_hd__dfxtp_1
*CAP
1 *3334:A 0.00023658
2 *2707:B2 0.00018277
3 *3172:Q 0
4 *881:4 0.00041935
5 *2982:A *2707:B2 0.000284175
6 *2983:A1 *3334:A 0.000360604
7 *2992:A *2707:B2 2.37234e-05
8 *2992:A *3334:A 4.66742e-05
9 *3066:A0 *2707:B2 6.42473e-05
10 *3066:A0 *3334:A 7.45097e-05
11 *207:94 *2707:B2 5.30673e-05
12 *207:104 *2707:B2 9.79528e-05
13 *208:120 *2707:B2 1.79536e-05
14 *432:102 *3334:A 0.000404402
15 *433:10 *3334:A 4.31189e-05
16 *445:109 *3334:A 0
*RES
1 *3172:Q *881:4 1.6 
2 *881:4 *2707:B2 10.895 
3 *881:4 *3334:A 12.2 
*END

*D_NET *882 0.00129416
*CONN
*I *3367:A I *D sky130_fd_sc_hd__dlygate4sd3_1
*I *2775:A I *D sky130_fd_sc_hd__and3_1
*I *3171:Q O *D sky130_fd_sc_hd__dfxtp_1
*CAP
1 *3367:A 0.000296468
2 *2775:A 0.000319273
3 *3171:Q 0
4 *882:4 0.000615741
5 *2977:A0 *2775:A 4.82863e-05
6 *2978:A *2775:A 1.4389e-05
7 *419:16 *3367:A 0
*RES
1 *3171:Q *882:4 1.6 
2 *882:4 *2775:A 5.86 
3 *882:4 *3367:A 9.155 
*END

*D_NET *883 0.00165398
*CONN
*I *3388:A I *D sky130_fd_sc_hd__dlygate4sd3_1
*I *2744:A I *D sky130_fd_sc_hd__and3_1
*I *3170:Q O *D sky130_fd_sc_hd__dfxtp_1
*CAP
1 *3388:A 0.000185531
2 *2744:A 0.000293812
3 *3170:Q 8.49283e-05
4 *883:10 0.000564271
5 *2744:B *2744:A 2.11084e-05
6 *2744:C *2744:A 3.26889e-05
7 *2968:B *883:10 0
8 *2974:A0 *2744:A 0.000182906
9 *2974:A1 *2744:A 0.000124895
10 *2974:A1 *3388:A 0.0001249
11 *2975:A *883:10 3.89366e-05
*RES
1 *3170:Q *883:10 6.98 
2 *883:10 *2744:A 7.24 
3 *883:10 *3388:A 4.81 
*END

*D_NET *884 0.00472088
*CONN
*I *3348:A I *D sky130_fd_sc_hd__dlygate4sd3_1
*I *2780:A1 I *D sky130_fd_sc_hd__a31o_1
*I *3169:Q O *D sky130_fd_sc_hd__dfxtp_1
*CAP
1 *3348:A 0.000362527
2 *2780:A1 0.00116413
3 *3169:Q 2.92678e-05
4 *884:6 0.00155592
5 *2552:A *2780:A1 0.000120326
6 *2552:B *2780:A1 3.50152e-06
7 *2780:A3 *2780:A1 0.000395246
8 *2780:B1 *2780:A1 8.35118e-05
9 *2968:A *2780:A1 7.26597e-05
10 *2968:A *884:6 1.22325e-05
11 *3169:CLK *3348:A 2.76356e-05
12 *3169:D *3348:A 7.03046e-05
13 *3428:A *2780:A1 0.000131578
14 *322:8 *2780:A1 3.54721e-05
15 *350:106 *2780:A1 6.90254e-05
16 *527:16 *2780:A1 4.23177e-05
17 *527:18 *2780:A1 8.3945e-05
18 *527:24 *2780:A1 0.000129283
19 *593:123 *3348:A 0.000154852
20 *641:33 *3348:A 0.000177142
*RES
1 *3169:Q *884:6 2.215 
2 *884:6 *2780:A1 22.955 
3 *884:6 *3348:A 12.68 
*END

*D_NET *885 0.00330646
*CONN
*I *3309:A I *D sky130_fd_sc_hd__dlygate4sd3_1
*I *2745:A1 I *D sky130_fd_sc_hd__a31o_1
*I *3168:Q O *D sky130_fd_sc_hd__dfxtp_1
*CAP
1 *3309:A 0.000578687
2 *2745:A1 0.000474703
3 *3168:Q 0
4 *885:4 0.00105339
5 *2745:B1 *2745:A1 0.000158556
6 *2969:A1 *3309:A 6.50814e-05
7 *2969:S *2745:A1 0.0002312
8 *2969:S *3309:A 7.38779e-05
9 *2970:A *2745:A1 4.89395e-05
10 *2970:A *3309:A 0.0001615
11 *2974:A0 *2745:A1 0.000114518
12 *3168:D *3309:A 0.000164328
13 *211:94 *2745:A1 4.6075e-05
14 *231:36 *2745:A1 2.10841e-05
15 *323:55 *2745:A1 0.000114518
*RES
1 *3168:Q *885:4 1.6 
2 *885:4 *2745:A1 14.45 
3 *885:4 *3309:A 10.375 
*END

*D_NET *886 0.00359866
*CONN
*I *3452:A I *D sky130_fd_sc_hd__dlygate4sd3_1
*I *2760:A1 I *D sky130_fd_sc_hd__a311o_1
*I *3167:Q O *D sky130_fd_sc_hd__dfxtp_1
*CAP
1 *3452:A 0.00032098
2 *2760:A1 0.000592557
3 *3167:Q 0
4 *886:4 0.000913537
5 *2760:A2 *2760:A1 0.000120325
6 *2768:C *2760:A1 4.36573e-06
7 *2966:S *3452:A 5.15573e-05
8 *2990:A *3452:A 5.27589e-05
9 *2991:A1 *3452:A 0.000257822
10 *3167:D *3452:A 8.8958e-05
11 *197:100 *2760:A1 0.00015356
12 *197:110 *2760:A1 0.000130646
13 *374:152 *2760:A1 0
14 *376:18 *2760:A1 0.000262301
15 *391:12 *2760:A1 9.50342e-06
16 *391:12 *3452:A 0.000540867
17 *391:42 *2760:A1 8.22101e-05
18 *421:20 *3452:A 1.67131e-05
19 *421:49 *2760:A1 0
*RES
1 *3167:Q *886:4 1.6 
2 *886:4 *2760:A1 16.13 
3 *886:4 *3452:A 10.735 
*END

*D_NET *887 0.00431341
*CONN
*I *3323:A I *D sky130_fd_sc_hd__dlygate4sd3_1
*I *2697:A1 I *D sky130_fd_sc_hd__a31o_1
*I *3166:Q O *D sky130_fd_sc_hd__dfxtp_1
*CAP
1 *3323:A 0.000330006
2 *2697:A1 0.000536723
3 *3166:Q 0
4 *887:6 0.000866729
5 *2697:B1 *2697:A1 0.000158855
6 *2767:A2 *2697:A1 0.000351084
7 *2964:A0 *3323:A 0.000352156
8 *2964:A1 *3323:A 0
9 *2964:S *3323:A 8.65905e-05
10 *2966:S *2697:A1 8.97043e-05
11 *2967:A *2697:A1 2.65013e-05
12 *2967:A *3323:A 2.03087e-05
13 *3022:A *3323:A 5.69013e-05
14 *3167:D *2697:A1 6.03517e-05
15 *3167:D *3323:A 9.50342e-06
16 *177:6 *2697:A1 8.85708e-05
17 *197:20 *3323:A 0.000134938
18 *207:16 *3323:A 8.53113e-06
19 *207:26 *2697:A1 0.000527949
20 *207:26 *3323:A 0.000213908
21 *321:61 *2697:A1 0.000361759
22 *374:152 *2697:A1 3.23391e-05
*RES
1 *3166:Q *887:6 3.6 
2 *887:6 *2697:A1 18.18 
3 *887:6 *3323:A 11.88 
*END

*D_NET *888 0.00212818
*CONN
*I *3328:A I *D sky130_fd_sc_hd__dlygate4sd3_1
*I *2799:A1 I *D sky130_fd_sc_hd__a22o_1
*I *3165:Q O *D sky130_fd_sc_hd__dfxtp_1
*CAP
1 *3328:A 0.000155425
2 *2799:A1 0.000372021
3 *3165:Q 0
4 *888:4 0.000527446
5 *2799:A1 *889:10 0
6 *3328:A *2721:B2 9.30787e-05
7 *2799:A2 *2799:A1 2.97004e-06
8 *2868:A0 *3328:A 9.14049e-05
9 *2868:S *2799:A1 0.00036385
10 *2958:A1 *3328:A 8.40269e-05
11 *356:14 *2799:A1 0.000177568
12 *359:77 *3328:A 0.000260389
13 *416:12 *2799:A1 0
*RES
1 *3165:Q *888:4 1.6 
2 *888:4 *2799:A1 11.795 
3 *888:4 *3328:A 10.055 
*END

*D_NET *889 0.00178813
*CONN
*I *2722:A1 I *D sky130_fd_sc_hd__a221o_1
*I *3450:A I *D sky130_fd_sc_hd__dlygate4sd3_1
*I *3164:Q O *D sky130_fd_sc_hd__dfxtp_1
*CAP
1 *2722:A1 0.000280272
2 *3450:A 7.87951e-05
3 *3164:Q 0.000246813
4 *889:10 0.000605881
5 *2722:A1 *2722:B2 0
6 *2721:A2 *2722:A1 8.33066e-06
7 *2722:A2 *2722:A1 3.90873e-06
8 *2722:B1 *2722:A1 0.000195893
9 *2799:A1 *889:10 0
10 *2956:A0 *3450:A 0.000201508
11 *2956:A0 *889:10 4.38157e-05
12 *2956:A1 *889:10 7.4027e-05
13 *2959:A *889:10 3.86529e-05
14 *3165:CLK *889:10 4.39911e-06
15 *3165:D *889:10 5.83121e-06
16 *416:12 *2722:A1 0
17 *416:12 *889:10 0
*RES
1 *3164:Q *889:10 7.725 
2 *889:10 *3450:A 5.43 
3 *889:10 *2722:A1 7.515 
*END

*D_NET *890 0.00253733
*CONN
*I *3312:A I *D sky130_fd_sc_hd__dlygate4sd3_1
*I *2800:A1 I *D sky130_fd_sc_hd__a221o_1
*I *3163:Q O *D sky130_fd_sc_hd__dfxtp_1
*CAP
1 *3312:A 0.000566939
2 *2800:A1 5.56332e-05
3 *3163:Q 0.000354294
4 *890:12 0.000976866
5 *3312:A *2800:B2 0.00014649
6 *2800:B1 *2800:A1 2.69153e-05
7 *2947:A *3312:A 8.64599e-05
8 *3163:D *3312:A 0
9 *350:40 *3312:A 0.000141606
10 *351:109 *3312:A 0
11 *408:12 *890:12 9.10613e-05
12 *416:12 *890:12 9.10613e-05
13 *592:18 *3312:A 0
*RES
1 *3163:Q *890:12 9.935 
2 *890:12 *2800:A1 2.395 
3 *890:12 *3312:A 14.87 
*END

*D_NET *891 0.00270682
*CONN
*I *3336:A I *D sky130_fd_sc_hd__dlygate4sd3_1
*I *2727:A1 I *D sky130_fd_sc_hd__a22o_1
*I *3162:Q O *D sky130_fd_sc_hd__dfxtp_1
*CAP
1 *3336:A 8.15442e-05
2 *2727:A1 0.000521035
3 *3162:Q 3.64054e-05
4 *891:10 0.000638984
5 *2727:A2 *2727:A1 4.00541e-06
6 *2728:C *2727:A1 0
7 *2806:A *2727:A1 7.04828e-05
8 *2806:B *2727:A1 4.21973e-05
9 *2807:A2 *2727:A1 0.000105731
10 *2892:A *2727:A1 0.00018912
11 *211:94 *891:10 0.000114492
12 *351:12 *2727:A1 0.00026784
13 *351:12 *3336:A 0.00014294
14 *351:34 *2727:A1 0.000348207
15 *374:16 *2727:A1 2.7677e-05
16 *416:12 *891:10 0.000116158
*RES
1 *3162:Q *891:10 6.98 
2 *891:10 *2727:A1 12.985 
3 *891:10 *3336:A 3.085 
*END

*D_NET *892 0.00185279
*CONN
*I *3317:A I *D sky130_fd_sc_hd__dlygate4sd3_1
*I *2794:A1 I *D sky130_fd_sc_hd__a21o_1
*I *3253:Q O *D sky130_fd_sc_hd__dfxtp_1
*CAP
1 *3317:A 0.000390851
2 *2794:A1 0
3 *3253:Q 0.000146138
4 *892:8 0.000536988
5 *2606:A *892:8 3.64975e-05
6 *2717:B1 *3317:A 0.000117832
7 *2794:A2 *3317:A 0.000495112
8 *2798:A2 *892:8 0.000119866
9 *299:34 *3317:A 9.50342e-06
10 *316:57 *3317:A 0
*RES
1 *3253:Q *892:8 4.3 
2 *892:8 *2794:A1 1.6 
3 *892:8 *3317:A 12.275 
*END

*D_NET *893 0.00961302
*CONN
*I *2750:A1 I *D sky130_fd_sc_hd__a311o_1
*I *3359:A I *D sky130_fd_sc_hd__dlygate4sd3_1
*I *3252:Q O *D sky130_fd_sc_hd__dfxtp_1
*CAP
1 *2750:A1 0.00304177
2 *3359:A 0
3 *3252:Q 0.000178068
4 *893:12 0.00321983
5 *2562:A *2750:A1 0.000834039
6 *2599:A *2750:A1 0.000139331
7 *2605:S *893:12 0.000112371
8 *2717:B1 *2750:A1 7.23533e-05
9 *2719:A2 *893:12 2.4997e-05
10 *2736:B1 *2750:A1 0.000423108
11 *2795:B2 *893:12 0.00011852
12 *2889:A *2750:A1 0.000198658
13 *2925:B *2750:A1 0.000124099
14 *181:90 *2750:A1 0
15 *215:102 *2750:A1 7.06865e-05
16 *231:59 *2750:A1 2.75892e-05
17 *299:34 *2750:A1 0.000267258
18 *322:76 *2750:A1 0.000169332
19 *391:64 *2750:A1 6.03272e-05
20 *538:16 *893:12 7.23602e-05
21 *590:54 *2750:A1 0.0002531
22 *608:46 *2750:A1 0.000205223
*RES
1 *3252:Q *893:12 8.81 
2 *893:12 *3359:A 1.6 
3 *893:12 *2750:A1 35.5494 
*END

*D_NET *894 0.00288323
*CONN
*I *3326:A I *D sky130_fd_sc_hd__dlygate4sd3_1
*I *2800:B2 I *D sky130_fd_sc_hd__a221o_1
*I *3161:Q O *D sky130_fd_sc_hd__dfxtp_1
*CAP
1 *3326:A 0.000185017
2 *2800:B2 0.000549666
3 *3161:Q 0
4 *894:4 0.000734683
5 *2800:B2 *3451:A 0.000120456
6 *3326:A *3451:A 1.42674e-05
7 *2800:B1 *2800:B2 1.77945e-05
8 *2944:A1 *2800:B2 4.34202e-05
9 *2946:S *2800:B2 0.000414687
10 *2947:A *2800:B2 0.000160338
11 *3160:CLK *3326:A 0.000114649
12 *3161:D *2800:B2 5.57481e-05
13 *3273:D *3326:A 0.000136679
14 *3312:A *2800:B2 0.00014649
15 *592:53 *3326:A 0.000181
16 *592:79 *3326:A 8.33066e-06
*RES
1 *3161:Q *894:4 1.6 
2 *894:4 *2800:B2 15.9388 
3 *894:4 *3326:A 9.92 
*END

*D_NET *895 0.00295173
*CONN
*I *3451:A I *D sky130_fd_sc_hd__dlygate4sd3_1
*I *2721:A1 I *D sky130_fd_sc_hd__a22o_1
*I *3160:Q O *D sky130_fd_sc_hd__dfxtp_1
*CAP
1 *3451:A 0.000485497
2 *2721:A1 0.00048813
3 *3160:Q 0
4 *895:4 0.000973628
5 *2721:A1 *2721:B2 3.83194e-05
6 *2721:A1 *2799:B2 2.49909e-05
7 *3451:A *2721:B2 0
8 *2721:A2 *2721:A1 3.12916e-05
9 *2799:B1 *2721:A1 0.00017666
10 *2800:B2 *3451:A 0.000120456
11 *2800:C1 *2721:A1 6.98629e-05
12 *2868:A0 *2721:A1 5.85534e-05
13 *2944:A1 *3451:A 0.000345546
14 *2956:A0 *2721:A1 2.30776e-05
15 *3326:A *3451:A 1.42674e-05
16 *211:94 *2721:A1 2.21074e-05
17 *356:14 *2721:A1 6.98629e-05
18 *359:77 *3451:A 9.47962e-06
*RES
1 *3160:Q *895:4 1.6 
2 *895:4 *2721:A1 12.215 
3 *895:4 *3451:A 14.3 
*END

*D_NET *896 0.00264615
*CONN
*I *2805:A1 I *D sky130_fd_sc_hd__a22o_1
*I *3436:A I *D sky130_fd_sc_hd__dlygate4sd3_1
*I *3159:Q O *D sky130_fd_sc_hd__dfxtp_1
*CAP
1 *2805:A1 0.000405256
2 *3436:A 0.000240238
3 *3159:Q 0
4 *896:4 0.000645494
5 *2805:A1 *2805:B2 9.30492e-05
6 *2805:A1 *912:8 0.000267746
7 *2894:A *3436:A 0
8 *2938:A0 *2805:A1 4.35348e-05
9 *2938:A0 *3436:A 3.00381e-05
10 *2938:S *3436:A 6.28765e-05
11 *2940:A0 *3436:A 2.8185e-05
12 *2940:A1 *2805:A1 7.97165e-05
13 *2940:A1 *3436:A 2.75707e-05
14 *2940:S *3436:A 4.80285e-05
15 *3159:D *2805:A1 6.07514e-05
16 *359:62 *3436:A 0.000397431
17 *374:20 *2805:A1 9.04184e-05
18 *374:22 *2805:A1 4.64135e-05
19 *404:10 *3436:A 2.86623e-05
20 *605:52 *3436:A 5.07419e-05
*RES
1 *3159:Q *896:4 1.6 
2 *896:4 *3436:A 12.11 
3 *896:4 *2805:A1 15.185 
*END

*D_NET *897 0.00428294
*CONN
*I *2727:B2 I *D sky130_fd_sc_hd__a22o_1
*I *3354:A I *D sky130_fd_sc_hd__dlygate4sd3_1
*I *3158:Q O *D sky130_fd_sc_hd__dfxtp_1
*CAP
1 *2727:B2 0.000562453
2 *3354:A 0.000289763
3 *3158:Q 0.000264451
4 *897:8 0.00111667
5 *2805:A2 *2727:B2 5.03846e-05
6 *2806:C *2727:B2 0.000523526
7 *2891:A *2727:B2 8.53177e-05
8 *3142:D *2727:B2 9.54399e-05
9 *187:53 *2727:B2 1.70935e-05
10 *605:24 *2727:B2 0.000908008
11 *605:26 *2727:B2 0.000160658
12 *605:32 *2727:B2 0.000132096
13 *605:32 *3354:A 7.70828e-05
*RES
1 *3158:Q *897:8 6.465 
2 *897:8 *3354:A 8.43 
3 *897:8 *2727:B2 19.26 
*END

*D_NET *898 0.00175101
*CONN
*I *3407:A I *D sky130_fd_sc_hd__dlygate4sd3_1
*I *2802:A1 I *D sky130_fd_sc_hd__a221o_1
*I *3157:Q O *D sky130_fd_sc_hd__dfxtp_1
*CAP
1 *3407:A 0.000219946
2 *2802:A1 0.000508939
3 *3157:Q 0
4 *898:4 0.000728885
5 *2724:A2 *2802:A1 9.50342e-06
6 *3157:D *2802:A1 7.03046e-05
7 *202:24 *2802:A1 9.47454e-05
8 *325:100 *2802:A1 2.56157e-05
9 *715:41 *2802:A1 9.30717e-05
*RES
1 *3157:Q *898:4 1.6 
2 *898:4 *2802:A1 11.66 
3 *898:4 *3407:A 4.735 
*END

*D_NET *899 0.00295722
*CONN
*I *3327:A I *D sky130_fd_sc_hd__dlygate4sd3_1
*I *2726:A1 I *D sky130_fd_sc_hd__a22o_1
*I *3156:Q O *D sky130_fd_sc_hd__dfxtp_1
*CAP
1 *3327:A 0.000527331
2 *2726:A1 0.000356153
3 *3156:Q 0
4 *899:4 0.000883484
5 *3327:A *919:10 1.47347e-05
6 *2802:C1 *2726:A1 0.000245891
7 *2876:A0 *3327:A 1.61831e-05
8 *2933:A *2726:A1 4.66108e-05
9 *2933:A *3327:A 0.000232111
10 *3157:CLK *3327:A 2.75707e-05
11 *208:26 *2726:A1 0
12 *208:28 *2726:A1 0
13 *351:78 *3327:A 1.37328e-05
14 *359:35 *3327:A 4.41506e-05
15 *385:16 *2726:A1 0.000288023
16 *606:27 *3327:A 5.51245e-05
17 *608:46 *3327:A 0.000206123
*RES
1 *3156:Q *899:4 1.6 
2 *899:4 *2726:A1 11.54 
3 *899:4 *3327:A 14.435 
*END

*D_NET *900 0.00128869
*CONN
*I *2803:A1 I *D sky130_fd_sc_hd__a22o_1
*I *3384:A I *D sky130_fd_sc_hd__dlygate4sd3_1
*I *3155:Q O *D sky130_fd_sc_hd__dfxtp_1
*CAP
1 *2803:A1 0.000117097
2 *3384:A 7.51018e-05
3 *3155:Q 0.000227543
4 *900:10 0.000419742
5 *900:10 *2803:B2 0
6 *2723:A2 *2803:A1 1.42674e-05
7 *2803:B1 *2803:A1 3.11381e-05
8 *2926:A1 *900:10 3.00381e-05
9 *2926:S *900:10 4.49498e-05
10 *2928:A1 *2803:A1 5.89925e-05
11 *3154:D *3384:A 2.05056e-05
12 *3154:D *900:10 5.20968e-05
13 *181:90 *2803:A1 3.64998e-06
14 *374:63 *2803:A1 1.88656e-05
15 *396:12 *2803:A1 4.12923e-05
16 *396:12 *3384:A 0.000123225
17 *396:12 *900:10 1.0183e-05
*RES
1 *3155:Q *900:10 7.065 
2 *900:10 *3384:A 5.085 
3 *900:10 *2803:A1 5.79 
*END

*D_NET *901 0.00260671
*CONN
*I *2723:A1 I *D sky130_fd_sc_hd__a22o_1
*I *3430:A I *D sky130_fd_sc_hd__dlygate4sd3_1
*I *3154:Q O *D sky130_fd_sc_hd__dfxtp_1
*CAP
1 *2723:A1 9.31743e-05
2 *3430:A 3.06541e-05
3 *3154:Q 0.000381318
4 *901:10 0.000505146
5 *901:10 *2723:B2 2.42236e-05
6 *901:10 *907:8 4.79598e-05
7 *2723:A2 *2723:A1 8.70796e-05
8 *2803:B1 *2723:A1 2.82864e-05
9 *2909:A0 *2723:A1 0.000156572
10 *2909:A0 *901:10 0.000293726
11 *2909:A1 *901:10 7.23602e-05
12 *2910:A *901:10 2.97004e-06
13 *2912:A *901:10 0.000271314
14 *2926:A1 *2723:A1 0.000148735
15 *2926:A1 *901:10 0.000162332
16 *2927:A *3430:A 0.000119762
17 *3154:D *3430:A 0.000119762
18 *3154:D *901:10 1.47256e-05
19 *715:41 *2723:A1 4.66108e-05
*RES
1 *3154:Q *901:10 11.16 
2 *901:10 *3430:A 4.74 
3 *901:10 *2723:A1 6.645 
*END

*D_NET *902 0.00129934
*CONN
*I *2801:A1 I *D sky130_fd_sc_hd__a22o_1
*I *3385:A I *D sky130_fd_sc_hd__dlygate4sd3_1
*I *3153:Q O *D sky130_fd_sc_hd__dfxtp_1
*CAP
1 *2801:A1 5.21575e-05
2 *3385:A 0
3 *3153:Q 0.000110768
4 *902:8 0.000162926
5 *2801:A1 *2801:B2 7.57202e-05
6 *902:8 *2801:B2 1.08758e-05
7 *2562:A *902:8 0.000307043
8 *2801:A2 *2801:A1 3.69753e-05
9 *2801:A2 *902:8 2.61633e-05
10 *2801:B1 *2801:A1 4.82919e-05
11 *299:34 *902:8 0.000149613
12 *359:35 *2801:A1 0.000198945
13 *359:35 *902:8 0.000119866
*RES
1 *3153:Q *902:8 5.515 
2 *902:8 *3385:A 1.6 
3 *902:8 *2801:A1 3.79 
*END

*D_NET *903 0.00223748
*CONN
*I *3405:A I *D sky130_fd_sc_hd__dlygate4sd3_1
*I *2725:A1 I *D sky130_fd_sc_hd__a22o_1
*I *3152:Q O *D sky130_fd_sc_hd__dfxtp_1
*CAP
1 *3405:A 0.000325516
2 *2725:A1 0.000184208
3 *3152:Q 0
4 *903:4 0.000509724
5 *2725:A1 *924:10 4.43871e-06
6 *2725:A2 *2725:A1 0.00024481
7 *2794:A2 *2725:A1 0.000118081
8 *2794:A2 *3405:A 0.000149765
9 *2925:A *3405:A 2.73058e-05
10 *181:90 *2725:A1 0.000123121
11 *325:100 *3405:A 0.000345347
12 *325:104 *3405:A 4.66108e-05
13 *369:77 *3405:A 4.51806e-05
14 *396:12 *3405:A 0.000113373
*RES
1 *3152:Q *903:4 1.6 
2 *903:4 *2725:A1 9.65 
3 *903:4 *3405:A 12.02 
*END

*D_NET *904 0.0019951
*CONN
*I *2802:B2 I *D sky130_fd_sc_hd__a221o_1
*I *3433:A I *D sky130_fd_sc_hd__dlygate4sd3_1
*I *3151:Q O *D sky130_fd_sc_hd__dfxtp_1
*CAP
1 *2802:B2 0.000170924
2 *3433:A 5.64705e-05
3 *3151:Q 8.44314e-05
4 *904:10 0.000311826
5 *2726:A2 *2802:B2 0
6 *2728:C *3433:A 0.000311294
7 *2730:A3 *904:10 7.23602e-05
8 *2802:A2 *2802:B2 2.87433e-05
9 *2802:C1 *2802:B2 0
10 *2806:A *2802:B2 4.66108e-05
11 *2806:B *3433:A 6.65725e-05
12 *2935:A *2802:B2 8.13316e-05
13 *2937:A *904:10 7.23533e-05
14 *3151:D *904:10 4.82863e-05
15 *325:56 *2802:B2 2.49909e-05
16 *325:58 *2802:B2 0.00017354
17 *325:58 *904:10 5.16418e-05
18 *351:52 *2802:B2 0
19 *351:52 *904:10 0
20 *608:46 *2802:B2 6.14689e-05
21 *608:46 *3433:A 0.000198051
22 *748:44 *2802:B2 0.000134204
*RES
1 *3151:Q *904:10 5.43 
2 *904:10 *3433:A 6.465 
3 *904:10 *2802:B2 8.52 
*END

*D_NET *905 0.00205523
*CONN
*I *2724:A1 I *D sky130_fd_sc_hd__a21o_1
*I *3399:A I *D sky130_fd_sc_hd__dlygate4sd3_1
*I *3150:Q O *D sky130_fd_sc_hd__dfxtp_1
*CAP
1 *2724:A1 0.000115492
2 *3399:A 0.000269802
3 *3150:Q 0.000269669
4 *905:10 0.000654962
5 *3399:A *3422:A 4.66108e-05
6 *2724:B1 *2724:A1 7.59067e-05
7 *2890:A1 *905:10 6.97202e-05
8 *2894:A *905:10 1.45231e-05
9 *2914:A0 *3399:A 0.000196699
10 *2914:A1 *3399:A 1.43558e-05
11 *2914:S *3399:A 4.89395e-05
12 *369:33 *2724:A1 1.83205e-05
13 *369:33 *3399:A 6.92161e-05
14 *369:33 *905:10 1.2667e-05
15 *369:35 *905:10 2.09514e-05
16 *385:16 *905:10 0
17 *715:41 *3399:A 0.000157394
*RES
1 *3150:Q *905:10 7.155 
2 *905:10 *3399:A 9.225 
3 *905:10 *2724:A1 6 
*END

*D_NET *906 0.00228633
*CONN
*I *2803:B2 I *D sky130_fd_sc_hd__a22o_1
*I *3351:A I *D sky130_fd_sc_hd__dlygate4sd3_1
*I *3149:Q O *D sky130_fd_sc_hd__dfxtp_1
*CAP
1 *2803:B2 0.000273867
2 *3351:A 0.000159736
3 *3149:Q 0.000170601
4 *906:10 0.000604203
5 *2803:B2 *2723:B2 8.80641e-05
6 *2803:B2 *907:8 0.000150843
7 *2910:A *3351:A 4.91067e-05
8 *2912:A *2803:B2 4.94326e-05
9 *2912:A *3351:A 1.85674e-05
10 *2926:A0 *2803:B2 0.000137571
11 *2927:A *2803:B2 0.00013521
12 *3148:D *3351:A 0.000172739
13 *3154:D *2803:B2 9.766e-05
14 *396:12 *2803:B2 0.000178733
15 *900:10 *2803:B2 0
*RES
1 *3149:Q *906:10 5.685 
2 *906:10 *3351:A 7.305 
3 *906:10 *2803:B2 11.61 
*END

*D_NET *907 0.00195382
*CONN
*I *2723:B2 I *D sky130_fd_sc_hd__a22o_1
*I *3314:A I *D sky130_fd_sc_hd__dlygate4sd3_1
*I *3148:Q O *D sky130_fd_sc_hd__dfxtp_1
*CAP
1 *2723:B2 0.00018289
2 *3314:A 0.00021915
3 *3148:Q 0.000112749
4 *907:8 0.000514789
5 *2723:A2 *2723:B2 4.66108e-05
6 *2803:B1 *2723:B2 2.49909e-05
7 *2803:B2 *2723:B2 8.80641e-05
8 *2803:B2 *907:8 0.000150843
9 *2894:A *3314:A 0
10 *2909:A1 *907:8 4.05358e-05
11 *2910:A *907:8 0
12 *2926:A1 *2723:B2 0.000331801
13 *2926:A1 *3314:A 4.66826e-05
14 *2927:A *2723:B2 7.17811e-05
15 *359:62 *3314:A 5.0751e-05
16 *901:10 *2723:B2 2.42236e-05
17 *901:10 *907:8 4.79598e-05
*RES
1 *3148:Q *907:8 6.765 
2 *907:8 *3314:A 6.825 
3 *907:8 *2723:B2 8.94 
*END

*D_NET *908 0.00161051
*CONN
*I *2788:A1 I *D sky130_fd_sc_hd__a32o_1
*I *3390:A I *D sky130_fd_sc_hd__dlygate4sd3_1
*I *3147:Q O *D sky130_fd_sc_hd__dfxtp_1
*CAP
1 *2788:A1 0.000267734
2 *3390:A 3.2335e-05
3 *3147:Q 0.000127569
4 *908:12 0.000427638
5 *2788:A1 *3400:A 2.25905e-05
6 *2788:B1 *2788:A1 1.12459e-05
7 *2903:A0 *2788:A1 0
8 *2903:A1 *3390:A 2.76356e-05
9 *2903:S *3390:A 8.23457e-05
10 *174:122 *2788:A1 3.79166e-05
11 *183:59 *2788:A1 5.69248e-06
12 *212:73 *2788:A1 9.03508e-06
13 *231:101 *2788:A1 0.000257885
14 *231:105 *2788:A1 6.12158e-05
15 *328:84 *2788:A1 0.000132003
16 *328:84 *908:12 0.00010767
17 *391:64 *2788:A1 0
18 *391:64 *908:12 0
*RES
1 *3147:Q *908:12 5.535 
2 *908:12 *3390:A 4.395 
3 *908:12 *2788:A1 9.225 
*END

*D_NET *909 0.00315965
*CONN
*I *3400:A I *D sky130_fd_sc_hd__dlygate4sd3_1
*I *2737:A1 I *D sky130_fd_sc_hd__a32o_1
*I *3146:Q O *D sky130_fd_sc_hd__dfxtp_1
*CAP
1 *3400:A 9.02208e-05
2 *2737:A1 0.000494787
3 *3146:Q 0.000158254
4 *909:10 0.000743262
5 *2567:A *909:10 4.99619e-05
6 *2737:B1 *2737:A1 2.90167e-05
7 *2752:B *2737:A1 0.000248073
8 *2753:B1 *2737:A1 0
9 *2788:A1 *3400:A 2.25905e-05
10 *2788:B1 *2737:A1 4.04634e-05
11 *2903:A1 *2737:A1 3.19993e-06
12 *174:122 *2737:A1 0.000136632
13 *174:134 *2737:A1 2.92862e-05
14 *183:59 *3400:A 0.000181397
15 *183:59 *909:10 0.00018065
16 *187:85 *2737:A1 0.000381262
17 *231:101 *3400:A 2.49909e-05
18 *328:84 *3400:A 0.000180528
19 *328:84 *909:10 0.000165075
*RES
1 *3146:Q *909:10 7.3425 
2 *909:10 *2737:A1 9.27817 
3 *909:10 *3400:A 6.3225 
*END

*D_NET *910 0.00102789
*CONN
*I *3366:A I *D sky130_fd_sc_hd__dlygate4sd3_1
*I *2786:A1 I *D sky130_fd_sc_hd__a31o_1
*I *3145:Q O *D sky130_fd_sc_hd__dfxtp_1
*CAP
1 *3366:A 0.000148267
2 *2786:A1 8.67226e-05
3 *3145:Q 0
4 *910:4 0.00023499
5 *2785:A *2786:A1 1.06624e-05
6 *2785:A *3366:A 0.000267297
7 *2786:A3 *2786:A1 0
8 *374:152 *3366:A 8.34726e-05
9 *391:64 *2786:A1 0.000112409
10 *600:87 *2786:A1 7.01303e-05
11 *600:87 *3366:A 1.39421e-05
*RES
1 *3145:Q *910:4 1.6 
2 *910:4 *2786:A1 7.43 
3 *910:4 *3366:A 4.99 
*END

*D_NET *911 0.00206408
*CONN
*I *3379:A I *D sky130_fd_sc_hd__dlygate4sd3_1
*I *2735:A1 I *D sky130_fd_sc_hd__a31o_1
*I *3144:Q O *D sky130_fd_sc_hd__dfxtp_1
*CAP
1 *3379:A 0.00027926
2 *2735:A1 0.000224113
3 *3144:Q 0
4 *911:4 0.000503374
5 *2735:B1 *2735:A1 0.00011432
6 *2897:A0 *3379:A 1.19928e-05
7 *2897:A1 *3379:A 7.10578e-05
8 *2898:A *3379:A 2.34721e-05
9 *3144:D *2735:A1 0.000118081
10 *193:121 *2735:A1 6.38941e-06
11 *193:121 *3379:A 0.000601092
12 *369:107 *3379:A 0.000110923
*RES
1 *3144:Q *911:4 1.6 
2 *911:4 *2735:A1 8.81 
3 *911:4 *3379:A 8.71 
*END

*D_NET *912 0.00251913
*CONN
*I *2805:B2 I *D sky130_fd_sc_hd__a22o_1
*I *3422:A I *D sky130_fd_sc_hd__dlygate4sd3_1
*I *3143:Q O *D sky130_fd_sc_hd__dfxtp_1
*CAP
1 *2805:B2 0.000144955
2 *3422:A 0.000174503
3 *3143:Q 0.000352367
4 *912:8 0.000671825
5 *2730:A1 *3422:A 0.000133488
6 *2730:A2 *2805:B2 2.27628e-05
7 *2805:A1 *2805:B2 9.30492e-05
8 *2805:A1 *912:8 0.000267746
9 *2805:A2 *2805:B2 3.6042e-05
10 *2805:B1 *2805:B2 0.000190814
11 *2806:C *2805:B2 9.12671e-06
12 *2938:A0 *912:8 0
13 *2938:S *912:8 0
14 *3399:A *3422:A 4.66108e-05
15 *372:12 *2805:B2 0.000177023
16 *372:12 *912:8 0.000198815
17 *605:24 *912:8 0
18 *605:26 *912:8 0
19 *605:32 *912:8 0
*RES
1 *3143:Q *912:8 11.355 
2 *912:8 *3422:A 6.81 
3 *912:8 *2805:B2 8.295 
*END

*D_NET *913 0.00186137
*CONN
*I *2722:B2 I *D sky130_fd_sc_hd__a221o_1
*I *3441:A I *D sky130_fd_sc_hd__dlygate4sd3_1
*I *3142:Q O *D sky130_fd_sc_hd__dfxtp_1
*CAP
1 *2722:B2 0.000163869
2 *3441:A 0.000197682
3 *3142:Q 0.000400578
4 *913:10 0.000762128
5 *2721:A2 *2722:B2 0
6 *2722:A1 *2722:B2 0
7 *2722:A2 *2722:B2 8.4929e-06
8 *2722:B1 *2722:B2 2.4942e-05
9 *2956:A0 *913:10 0.000114326
10 *359:62 *913:10 0.000189357
*RES
1 *3142:Q *913:10 9.48 
2 *913:10 *3441:A 6.465 
3 *913:10 *2722:B2 5.73 
*END

*D_NET *914 0.00244545
*CONN
*I *3339:A I *D sky130_fd_sc_hd__dlygate4sd3_1
*I *2787:A1 I *D sky130_fd_sc_hd__a22o_1
*I *3251:Q O *D sky130_fd_sc_hd__dfxtp_1
*CAP
1 *3339:A 0.000204092
2 *2787:A1 0
3 *3251:Q 0.000282727
4 *914:12 0.000486819
5 *2600:A1 *3339:A 8.0259e-05
6 *2600:A1 *914:12 1.05984e-05
7 *2601:A *914:12 0.000383657
8 *2787:B1 *3339:A 1.55303e-05
9 *2787:B1 *914:12 3.01737e-05
10 *2788:B1 *914:12 0.000192515
11 *181:61 *914:12 0.000237249
12 *181:76 *914:12 0.000384688
13 *291:40 *3339:A 4.05358e-05
14 *528:47 *3339:A 9.66035e-05
*RES
1 *3251:Q *914:12 10.12 
2 *914:12 *2787:A1 1.6 
3 *914:12 *3339:A 9.5 
*END

*D_NET *915 0.00119057
*CONN
*I *3440:A I *D sky130_fd_sc_hd__dlygate4sd3_1
*I *2736:A1 I *D sky130_fd_sc_hd__a22o_1
*I *3250:Q O *D sky130_fd_sc_hd__dfxtp_1
*CAP
1 *3440:A 0.000105738
2 *2736:A1 0.000240275
3 *3250:Q 0
4 *915:6 0.000346013
5 *2567:A *3440:A 5.21706e-05
6 *2597:B *2736:A1 4.95956e-05
7 *2597:B *3440:A 5.91401e-05
8 *2737:B1 *2736:A1 0
9 *3146:CLK *3440:A 1.08758e-05
10 *3294:A *2736:A1 5.78621e-05
11 *181:61 *2736:A1 0.000122218
12 *181:61 *3440:A 5.64565e-05
13 *316:51 *3440:A 9.02259e-05
14 *528:140 *2736:A1 0
*RES
1 *3250:Q *915:6 3.6 
2 *915:6 *2736:A1 7.59 
3 *915:6 *3440:A 6.465 
*END

*D_NET *916 0.00124164
*CONN
*I *3439:A I *D sky130_fd_sc_hd__dlygate4sd3_1
*I *2804:A1 I *D sky130_fd_sc_hd__a221o_1
*I *3141:Q O *D sky130_fd_sc_hd__dfxtp_1
*CAP
1 *3439:A 9.61507e-05
2 *2804:A1 0
3 *3141:Q 0.000318683
4 *916:10 0.000414833
5 *916:10 *2726:B2 0
6 *2728:A *3439:A 4.16977e-05
7 *2804:A2 *3439:A 0.000120186
8 *2804:A2 *916:10 9.50342e-06
9 *2882:S *916:10 4.80285e-05
10 *2909:A0 *916:10 2.52029e-05
11 *351:52 *916:10 3.00381e-05
12 *359:37 *3439:A 6.18754e-05
13 *359:37 *916:10 1.71013e-05
14 *359:39 *916:10 5.83373e-05
*RES
1 *3141:Q *916:10 7.755 
2 *916:10 *2804:A1 3.6 
3 *916:10 *3439:A 6.15 
*END

*D_NET *917 0.00308322
*CONN
*I *2726:B2 I *D sky130_fd_sc_hd__a22o_1
*I *3322:A I *D sky130_fd_sc_hd__dlygate4sd3_1
*I *3140:Q O *D sky130_fd_sc_hd__dfxtp_1
*CAP
1 *2726:B2 0.000339941
2 *3322:A 0
3 *3140:Q 0.000632006
4 *917:10 0.000971947
5 *2726:A2 *2726:B2 2.31547e-05
6 *2726:B1 *2726:B2 8.25254e-05
7 *2794:A2 *2726:B2 0.00012784
8 *2802:C1 *2726:B2 2.30292e-05
9 *2804:A2 *2726:B2 0
10 *2806:B *2726:B2 0
11 *3140:D *917:10 0.000261419
12 *385:16 *2726:B2 0.000508641
13 *385:16 *917:10 0.00011272
14 *916:10 *2726:B2 0
*RES
1 *3140:Q *917:10 11.64 
2 *917:10 *3322:A 3.6 
3 *917:10 *2726:B2 11.43 
*END

*D_NET *918 0.00122046
*CONN
*I *3403:A I *D sky130_fd_sc_hd__dlygate4sd3_1
*I *2801:B2 I *D sky130_fd_sc_hd__a22o_1
*I *3139:Q O *D sky130_fd_sc_hd__dfxtp_1
*CAP
1 *3403:A 8.0431e-05
2 *2801:B2 0.000169599
3 *3139:Q 9.54725e-05
4 *918:10 0.000345502
5 *2562:A *2801:B2 9.07914e-05
6 *2562:A *3403:A 9.018e-05
7 *2801:A1 *2801:B2 7.57202e-05
8 *2801:A2 *2801:B2 5.23992e-05
9 *2801:B1 *2801:B2 6.06812e-05
10 *2801:B1 *3403:A 6.8786e-05
11 *2878:A0 *918:10 6.61627e-05
12 *3156:CLK *2801:B2 0
13 *359:37 *2801:B2 9.29751e-06
14 *365:58 *3403:A 4.55864e-06
15 *902:8 *2801:B2 1.08758e-05
*RES
1 *3139:Q *918:10 5.1 
2 *918:10 *2801:B2 7.155 
3 *918:10 *3403:A 5.745 
*END

*D_NET *919 0.00134779
*CONN
*I *2749:A I *D sky130_fd_sc_hd__and3_1
*I *3375:A I *D sky130_fd_sc_hd__dlygate4sd3_1
*I *3138:Q O *D sky130_fd_sc_hd__dfxtp_1
*CAP
1 *2749:A 4.2509e-05
2 *3375:A 5.56636e-05
3 *3138:Q 0.000151715
4 *919:10 0.000249888
5 *2809:A1 *3375:A 0.000192125
6 *2809:A2 *3375:A 8.15136e-05
7 *2876:A1 *2749:A 9.44681e-05
8 *2889:A *3375:A 4.66108e-05
9 *3327:A *919:10 1.47347e-05
10 *359:35 *919:10 8.40213e-05
11 *608:46 *2749:A 0.000137894
12 *608:46 *919:10 0.000134236
13 *748:38 *2749:A 1.32017e-05
14 *748:38 *919:10 4.92084e-05
*RES
1 *3138:Q *919:10 6.375 
2 *919:10 *3375:A 5.43 
3 *919:10 *2749:A 5.235 
*END

*D_NET *920 0.00185875
*CONN
*I *3332:A I *D sky130_fd_sc_hd__dlygate4sd3_1
*I *2799:B2 I *D sky130_fd_sc_hd__a22o_1
*I *3137:Q O *D sky130_fd_sc_hd__dfxtp_1
*CAP
1 *3332:A 0.000205458
2 *2799:B2 0.000252991
3 *3137:Q 0
4 *920:4 0.000458449
5 *2721:A1 *2799:B2 2.49909e-05
6 *2868:S *2799:B2 0.000157602
7 *2956:A0 *2799:B2 4.66108e-05
8 *3136:CLK *2799:B2 0.000487978
9 *3137:D *2799:B2 2.67184e-05
10 *3137:D *3332:A 1.08758e-05
11 *356:14 *2799:B2 0.000187071
*RES
1 *3137:Q *920:4 1.6 
2 *920:4 *2799:B2 12.56 
3 *920:4 *3332:A 4.735 
*END

*D_NET *921 0.00483643
*CONN
*I *2721:B2 I *D sky130_fd_sc_hd__a22o_1
*I *3349:A I *D sky130_fd_sc_hd__dlygate4sd3_1
*I *3136:Q O *D sky130_fd_sc_hd__dfxtp_1
*CAP
1 *2721:B2 0.000468712
2 *3349:A 0.000395127
3 *3136:Q 0.000683876
4 *921:10 0.00154772
5 *2721:A1 *2721:B2 3.83194e-05
6 *2799:A2 *2721:B2 3.64998e-06
7 *2799:B1 *2721:B2 4.66108e-05
8 *2868:A0 *2721:B2 4.20047e-05
9 *2868:A0 *3349:A 2.26018e-05
10 *2868:A1 *3349:A 0.000241483
11 *2868:S *3349:A 6.69341e-05
12 *2872:A1 *2721:B2 0.000171165
13 *2872:A1 *921:10 9.71067e-05
14 *2873:A *2721:B2 0.000140912
15 *2944:A1 *2721:B2 3.83194e-05
16 *2944:S *2721:B2 4.77769e-05
17 *3136:CLK *2721:B2 6.37009e-05
18 *3136:CLK *921:10 4.19797e-05
19 *3136:D *921:10 0.000226012
20 *3137:D *2721:B2 0.000133274
21 *3137:D *921:10 3.50033e-05
22 *3161:CLK *2721:B2 8.41384e-05
23 *3328:A *2721:B2 9.30787e-05
24 *3451:A *2721:B2 0
25 *351:123 *2721:B2 9.22481e-05
26 *592:24 *2721:B2 1.46781e-05
*RES
1 *3136:Q *921:10 13.08 
2 *921:10 *3349:A 10.275 
3 *921:10 *2721:B2 14.22 
*END

*D_NET *922 0.0016634
*CONN
*I *2804:B2 I *D sky130_fd_sc_hd__a221o_1
*I *3435:A I *D sky130_fd_sc_hd__dlygate4sd3_1
*I *3125:Q O *D sky130_fd_sc_hd__dfxtp_1
*CAP
1 *2804:B2 0.000268128
2 *3435:A 0
3 *3125:Q 0.000247759
4 *922:12 0.000515887
5 *922:12 *2725:B2 3.20386e-05
6 *2804:B1 *2804:B2 8.50453e-05
7 *2804:B1 *922:12 8.65961e-05
8 *2832:A0 *922:12 8.52883e-05
9 *2832:S *922:12 8.80293e-06
10 *2884:A0 *2804:B2 0.00021242
11 *2884:A1 *2804:B2 0.000121437
12 *3152:CLK *922:12 0
*RES
1 *3125:Q *922:12 9.845 
2 *922:12 *3435:A 1.6 
3 *922:12 *2804:B2 6.92875 
*END

*D_NET *923 0.00212133
*CONN
*I *2725:B2 I *D sky130_fd_sc_hd__a22o_1
*I *3331:A I *D sky130_fd_sc_hd__dlygate4sd3_1
*I *3124:Q O *D sky130_fd_sc_hd__dfxtp_1
*CAP
1 *2725:B2 0.000443472
2 *3331:A 6.42111e-05
3 *3124:Q 9.9701e-05
4 *923:10 0.000607385
5 *2595:S *923:10 0
6 *2608:A0 *923:10 0
7 *2829:A0 *2725:B2 0.000201079
8 *2830:A *923:10 6.4422e-05
9 *2832:A0 *2725:B2 0.000159048
10 *2832:A1 *2725:B2 0.000277848
11 *2832:A1 *3331:A 5.59592e-05
12 *181:90 *2725:B2 0.000116165
13 *922:12 *2725:B2 3.20386e-05
*RES
1 *3124:Q *923:10 7.49 
2 *923:10 *3331:A 2.755 
3 *923:10 *2725:B2 14.45 
*END

*D_NET *924 0.00441
*CONN
*I *2787:B2 I *D sky130_fd_sc_hd__a22o_1
*I *3355:A I *D sky130_fd_sc_hd__dlygate4sd3_1
*I *3249:Q O *D sky130_fd_sc_hd__dfxtp_1
*CAP
1 *2787:B2 0.000120631
2 *3355:A 0.000465886
3 *3249:Q 0.00068187
4 *924:10 0.00126839
5 *2725:A1 *924:10 4.43871e-06
6 *2725:A2 *2787:B2 4.2857e-05
7 *2725:A2 *924:10 0.000123845
8 *2794:A2 *924:10 0.000833623
9 *2923:A *3355:A 4.82863e-05
10 *3139:CLK *2787:B2 8.7152e-06
11 *3153:D *3355:A 4.89295e-05
12 *181:90 *2787:B2 0.000320891
13 *181:90 *924:10 0.000330154
14 *183:61 *2787:B2 1.01643e-05
15 *183:65 *2787:B2 0.000101324
*RES
1 *3249:Q *924:10 15.225 
2 *924:10 *3355:A 10.38 
3 *924:10 *2787:B2 7.53 
*END

*D_NET *925 0.00205203
*CONN
*I *2736:B2 I *D sky130_fd_sc_hd__a22o_1
*I *3333:A I *D sky130_fd_sc_hd__dlygate4sd3_1
*I *3248:Q O *D sky130_fd_sc_hd__dfxtp_1
*CAP
1 *2736:B2 0.000363661
2 *3333:A 8.42045e-05
3 *3248:Q 0.000233165
4 *925:12 0.000681031
5 *2592:B *3333:A 8.65961e-05
6 *2593:A1 *3333:A 2.75145e-05
7 *2595:A1 *2736:B2 6.93179e-05
8 *2595:A1 *925:12 0.00010919
9 *2607:B *925:12 0
10 *2736:B1 *2736:B2 2.08217e-05
11 *2794:A2 *2736:B2 0
12 *3294:A *2736:B2 0.000103545
13 *197:149 *925:12 0
14 *316:57 *2736:B2 0
15 *528:140 *2736:B2 0
16 *556:6 *3333:A 0.000272984
*RES
1 *3248:Q *925:12 7.575 
2 *925:12 *3333:A 6.12 
3 *925:12 *2736:B2 10.08 
*END

*D_NET *926 0.00128682
*CONN
*I *2793:B2 I *D sky130_fd_sc_hd__a22o_1
*I *3424:A I *D sky130_fd_sc_hd__dlygate4sd3_1
*I *3247:Q O *D sky130_fd_sc_hd__dfxtp_1
*CAP
1 *2793:B2 0.000115239
2 *3424:A 9.71884e-06
3 *3247:Q 0.000283967
4 *926:10 0.000408925
5 *2568:S *926:10 0
6 *2569:A *926:10 3.33839e-05
7 *2587:A *3424:A 4.82919e-05
8 *2587:B *2793:B2 6.86736e-05
9 *2587:B *926:10 1.22676e-05
10 *2588:S *926:10 6.28765e-05
11 *2590:A1 *2793:B2 0
12 *2590:A1 *926:10 0
13 *2718:A *2793:B2 4.82863e-05
14 *2793:A1 *2793:B2 4.82863e-05
15 *2793:B1 *2793:B2 8.53113e-06
16 *3254:CLK *926:10 1.18883e-05
17 *538:16 *3424:A 4.82919e-05
18 *553:8 *926:10 7.81954e-05
19 *811:12 *926:10 0
*RES
1 *3247:Q *926:10 8.415 
2 *926:10 *3424:A 4.05 
3 *926:10 *2793:B2 6.195 
*END

*D_NET *927 0.00199704
*CONN
*I *2715:B2 I *D sky130_fd_sc_hd__a22o_1
*I *3338:A I *D sky130_fd_sc_hd__dlygate4sd3_1
*I *3246:Q O *D sky130_fd_sc_hd__dfxtp_1
*CAP
1 *2715:B2 0.000299184
2 *3338:A 6.95804e-05
3 *3246:Q 0.000374089
4 *927:8 0.000742853
5 *2568:A0 *2715:B2 0.000141264
6 *2568:A1 *2715:B2 6.7033e-05
7 *2568:A1 *3338:A 4.23802e-05
8 *2568:S *2715:B2 7.87685e-05
9 *2587:A *2715:B2 8.53113e-06
10 *2590:A0 *2715:B2 7.23602e-05
11 *2715:B1 *2715:B2 5.33085e-05
12 *3238:CLK *927:8 2.42723e-05
13 *3238:D *927:8 2.34174e-05
14 *3414:A *2715:B2 0
15 *870:10 *2715:B2 0
*RES
1 *3246:Q *927:8 7.845 
2 *927:8 *3338:A 4.98 
3 *927:8 *2715:B2 10.335 
*END

*D_NET *928 0.00246856
*CONN
*I *2774:A I *D sky130_fd_sc_hd__and3_1
*I *3396:A I *D sky130_fd_sc_hd__dlygate4sd3_1
*I *3245:Q O *D sky130_fd_sc_hd__dfxtp_1
*CAP
1 *2774:A 0.000308601
2 *3396:A 9.11695e-05
3 *3245:Q 0
4 *928:6 0.00039977
5 *2774:C *2774:A 9.48147e-06
6 *3114:A *2774:A 0.000337127
7 *174:32 *2774:A 4.80285e-05
8 *202:24 *2774:A 0.000282358
9 *202:24 *3396:A 5.76393e-05
10 *361:45 *2774:A 0.000372587
11 *361:45 *3396:A 0.00011107
12 *370:53 *3396:A 0.000194287
13 *403:22 *2774:A 6.33103e-05
14 *550:8 *3396:A 0.000193128
*RES
1 *3245:Q *928:6 3.6 
2 *928:6 *3396:A 6.81 
3 *928:6 *2774:A 12.12 
*END

*D_NET *929 0.00167725
*CONN
*I *2746:A I *D sky130_fd_sc_hd__and3_1
*I *3394:A I *D sky130_fd_sc_hd__dlygate4sd3_1
*I *3244:Q O *D sky130_fd_sc_hd__dfxtp_1
*CAP
1 *2746:A 0.000158869
2 *3394:A 0
3 *3244:Q 0.000273894
4 *929:8 0.000432763
5 *2752:B *2746:A 2.69153e-05
6 *2752:B *929:8 8.55279e-05
7 *202:24 *2746:A 9.12857e-06
8 *371:51 *2746:A 0.000357679
9 *715:41 *2746:A 0.000332478
*RES
1 *3244:Q *929:8 5.08 
2 *929:8 *3394:A 1.6 
3 *929:8 *2746:A 10.49 
*END

*D_NET *930 0.00270619
*CONN
*I *3425:A I *D sky130_fd_sc_hd__dlygate4sd3_1
*I *2791:A1 I *D sky130_fd_sc_hd__a22o_1
*I *3243:Q O *D sky130_fd_sc_hd__dfxtp_1
*CAP
1 *3425:A 6.91605e-05
2 *2791:A1 0.000512489
3 *3243:Q 0
4 *930:4 0.00058165
5 *2712:A2 *3425:A 5.00903e-05
6 *2719:B1 *3425:A 2.50751e-05
7 *2791:A2 *2791:A1 2.54038e-05
8 *2792:A2 *2791:A1 0
9 *3286:A *2791:A1 0.000106702
10 *207:51 *3425:A 0.000270498
11 *218:110 *2791:A1 0.000532972
12 *598:111 *2791:A1 0.000262805
13 *598:111 *3425:A 0.000269339
*RES
1 *3243:Q *930:4 1.6 
2 *930:4 *2791:A1 15.11 
3 *930:4 *3425:A 8.735 
*END

*D_NET *931 0.00249877
*CONN
*I *3443:A I *D sky130_fd_sc_hd__dlygate4sd3_1
*I *2711:B2 I *D sky130_fd_sc_hd__a22o_1
*I *3242:Q O *D sky130_fd_sc_hd__dfxtp_1
*CAP
1 *3443:A 0.000346464
2 *2711:B2 0.000308417
3 *3242:Q 6.04177e-05
4 *931:6 0.000715299
5 *2573:A0 *3443:A 7.23602e-05
6 *2574:A *3443:A 0.000148275
7 *2574:A *931:6 5.05437e-05
8 *2614:A *2711:B2 8.7152e-06
9 *3335:A *2711:B2 9.09055e-05
10 *197:54 *2711:B2 0.000590683
11 *511:86 *3443:A 4.38051e-05
12 *598:46 *2711:B2 0
13 *726:38 *3443:A 6.28843e-05
*RES
1 *3242:Q *931:6 2.395 
2 *931:6 *2711:B2 12.59 
3 *931:6 *3443:A 10.535 
*END

*D_NET *932 0.000111493
*CONN
*I *3365:A I *D sky130_fd_sc_hd__buf_1
*I *3269:Q O *D sky130_fd_sc_hd__dfrtp_1
*CAP
1 *3365:A 3.87247e-05
2 *3269:Q 3.87247e-05
3 *323:22 *3365:A 3.40435e-05
*RES
1 *3269:Q *3365:A 4.01 
*END

*D_NET *933 0.00197606
*CONN
*I *3269:D I *D sky130_fd_sc_hd__dfrtp_1
*I *2668:X O *D sky130_fd_sc_hd__clkbuf_1
*CAP
1 *3269:D 0.000660984
2 *2668:X 0.000660984
3 *323:22 *3269:D 0.000654089
*RES
1 *2668:X *3269:D 12.29 
*END
