*SPEF "ieee 1481-1999"
*DESIGN "bist_top"
*DATE "11:11:11 Fri 11 11, 1111"
*VENDOR "OpenRCX"
*PROGRAM "Parallel Extraction"
*VERSION "1.0"
*DESIGN_FLOW "NAME_SCOPE LOCAL" "PIN_CAP NONE"
*DIVIDER /
*DELIMITER :
*BUS_DELIMITER []
*T_UNIT 1 NS
*C_UNIT 1 PF
*R_UNIT 1 OHM
*L_UNIT 1 HENRY

*NAME_MAP
*3 clk
*4 done
*5 pass_fail
*6 rst_n
*7 start
*8 _0000_
*9 _0001_
*10 _0002_
*11 _0003_
*12 _0004_
*13 _0005_
*14 _0006_
*15 _0007_
*16 _0008_
*17 _0009_
*18 _0010_
*19 _0011_
*20 _0012_
*21 _0013_
*22 _0014_
*23 _0015_
*24 _0016_
*25 _0017_
*26 _0018_
*27 _0019_
*28 _0020_
*29 _0021_
*30 _0022_
*31 _0023_
*32 _0024_
*33 _0025_
*34 _0026_
*35 _0027_
*36 _0028_
*37 _0029_
*38 _0030_
*39 _0031_
*40 _0032_
*41 _0033_
*42 _0034_
*43 _0035_
*44 _0036_
*45 _0037_
*46 _0038_
*47 _0039_
*48 _0040_
*49 _0041_
*50 _0042_
*51 _0043_
*52 _0044_
*53 _0045_
*54 _0046_
*55 _0047_
*56 _0048_
*57 _0049_
*58 _0050_
*59 _0051_
*60 _0052_
*61 _0053_
*62 _0054_
*63 _0055_
*64 _0056_
*65 _0057_
*66 _0058_
*67 _0059_
*68 _0060_
*69 _0061_
*70 _0062_
*71 _0063_
*72 _0064_
*73 _0065_
*74 _0066_
*75 _0067_
*76 _0068_
*77 _0069_
*78 _0070_
*79 _0071_
*80 _0072_
*81 _0073_
*82 _0074_
*83 _0075_
*84 _0076_
*85 _0077_
*86 _0078_
*87 _0079_
*88 _0080_
*89 _0081_
*90 _0082_
*91 _0083_
*92 _0084_
*93 _0085_
*94 _0086_
*95 _0087_
*96 _0088_
*97 _0089_
*98 _0090_
*99 _0091_
*100 _0092_
*101 _0093_
*102 _0094_
*103 _0095_
*104 _0096_
*105 _0097_
*106 _0098_
*107 _0099_
*108 _0100_
*109 _0101_
*110 _0102_
*111 _0103_
*112 _0104_
*113 _0105_
*114 _0106_
*115 _0107_
*116 _0108_
*117 _0109_
*118 _0110_
*119 _0111_
*120 _0112_
*121 _0113_
*122 _0114_
*123 _0115_
*124 _0116_
*125 _0117_
*126 _0118_
*127 _0119_
*128 _0120_
*129 _0121_
*130 _0122_
*131 _0123_
*132 _0124_
*133 _0125_
*134 _0126_
*135 _0127_
*136 _0128_
*137 _0129_
*138 _0130_
*139 _0131_
*140 _0132_
*141 _0133_
*142 _0134_
*143 _0135_
*144 _0136_
*145 _0137_
*146 _0138_
*147 _0139_
*148 _0140_
*149 _0141_
*150 _0142_
*151 _0143_
*152 _0144_
*153 _0145_
*154 _0146_
*155 _0147_
*156 _0148_
*157 _0149_
*158 _0150_
*159 _0151_
*160 _0152_
*161 _0153_
*162 _0154_
*163 _0155_
*164 _0156_
*165 _0157_
*166 _0158_
*167 _0159_
*168 _0160_
*169 _0161_
*170 _0162_
*171 _0163_
*172 _0164_
*173 _0165_
*174 _0166_
*175 _0167_
*176 _0168_
*177 _0169_
*178 _0170_
*179 _0171_
*180 _0172_
*181 _0173_
*182 _0174_
*183 _0175_
*184 _0176_
*185 _0177_
*186 _0178_
*187 _0179_
*188 _0180_
*189 _0181_
*190 _0182_
*191 _0183_
*192 _0184_
*193 _0185_
*194 _0186_
*195 _0187_
*196 _0188_
*197 _0189_
*198 _0190_
*199 _0191_
*200 _0192_
*201 _0193_
*202 _0194_
*203 _0195_
*204 _0196_
*205 _0197_
*206 _0198_
*207 _0199_
*208 _0200_
*209 _0201_
*210 _0202_
*211 _0203_
*212 _0204_
*213 _0205_
*214 _0206_
*215 _0207_
*216 _0208_
*217 _0209_
*218 _0210_
*219 _0211_
*220 _0212_
*221 _0213_
*222 _0214_
*223 _0215_
*224 _0216_
*225 _0217_
*226 _0218_
*227 _0219_
*228 _0220_
*229 _0221_
*230 _0222_
*231 _0223_
*232 _0224_
*233 _0225_
*234 _0226_
*235 _0227_
*236 _0228_
*237 _0229_
*238 _0230_
*239 _0231_
*240 _0232_
*241 _0233_
*242 _0234_
*243 _0235_
*244 _0236_
*245 _0237_
*246 _0238_
*247 _0239_
*248 _0240_
*249 _0241_
*250 _0242_
*251 _0243_
*252 _0244_
*253 _0245_
*254 _0246_
*255 _0247_
*256 _0248_
*257 _0249_
*258 _0250_
*259 _0251_
*260 _0252_
*261 _0253_
*262 _0254_
*263 _0255_
*264 _0256_
*265 _0257_
*266 _0258_
*267 _0259_
*268 _0260_
*269 _0261_
*270 _0262_
*271 _0263_
*272 _0264_
*273 _0265_
*274 _0266_
*275 _0267_
*276 _0268_
*277 _0269_
*278 _0270_
*279 _0271_
*280 _0272_
*281 _0273_
*282 _0274_
*283 _0275_
*284 _0276_
*285 _0277_
*286 _0278_
*287 _0279_
*288 _0280_
*289 _0281_
*290 _0282_
*291 _0283_
*292 _0284_
*293 _0285_
*294 _0286_
*295 _0287_
*296 _0288_
*297 _0289_
*298 _0290_
*299 _0291_
*300 _0292_
*301 _0293_
*302 _0294_
*303 _0295_
*304 _0296_
*305 _0297_
*306 _0298_
*307 _0299_
*308 _0300_
*309 _0301_
*310 _0302_
*311 _0303_
*312 _0304_
*313 _0305_
*314 _0306_
*315 _0307_
*316 _0308_
*317 _0309_
*318 _0310_
*319 _0311_
*320 _0312_
*321 _0313_
*322 _0314_
*323 _0315_
*324 _0316_
*325 _0317_
*326 _0318_
*327 _0319_
*328 _0320_
*329 _0321_
*330 _0322_
*331 _0323_
*332 _0324_
*333 _0325_
*334 _0326_
*335 _0327_
*336 _0328_
*337 _0329_
*338 _0330_
*339 _0331_
*340 _0332_
*341 _0333_
*342 _0334_
*343 _0335_
*344 _0336_
*345 _0337_
*346 _0338_
*347 _0339_
*348 _0340_
*349 _0341_
*350 _0342_
*351 _0343_
*352 _0344_
*353 _0345_
*354 _0346_
*355 _0347_
*356 _0348_
*357 _0349_
*358 _0350_
*359 _0351_
*360 _0352_
*361 _0353_
*362 _0354_
*363 _0355_
*364 _0356_
*365 _0357_
*366 _0358_
*367 _0359_
*368 _0360_
*369 _0361_
*370 _0362_
*371 _0363_
*372 _0364_
*373 _0365_
*374 _0366_
*375 _0367_
*376 _0368_
*377 _0369_
*378 _0370_
*379 _0371_
*380 _0372_
*381 _0373_
*382 _0374_
*383 _0375_
*384 _0376_
*385 _0377_
*386 _0378_
*387 _0379_
*388 _0380_
*389 _0381_
*390 _0382_
*391 _0383_
*392 _0384_
*393 _0385_
*394 _0386_
*395 _0387_
*396 _0388_
*397 _0389_
*398 _0390_
*399 _0391_
*400 _0392_
*401 _0393_
*402 _0394_
*403 _0395_
*404 _0396_
*405 _0397_
*406 _0398_
*407 _0399_
*408 _0400_
*409 _0401_
*410 _0402_
*411 _0403_
*412 _0404_
*413 _0405_
*414 _0406_
*415 _0407_
*416 _0408_
*417 _0409_
*418 _0410_
*419 _0411_
*420 _0412_
*421 _0413_
*422 _0414_
*423 _0415_
*424 _0416_
*425 _0417_
*426 _0418_
*427 _0419_
*428 _0420_
*429 _0421_
*430 _0422_
*431 _0423_
*432 _0424_
*433 _0425_
*434 _0426_
*435 _0427_
*436 _0428_
*437 _0429_
*438 _0430_
*439 _0431_
*440 _0432_
*441 _0433_
*442 _0434_
*443 _0435_
*444 _0436_
*445 _0437_
*446 _0438_
*447 _0439_
*448 _0440_
*449 _0441_
*450 _0442_
*451 _0443_
*452 _0444_
*453 _0445_
*454 _0446_
*455 _0447_
*456 _0448_
*457 _0449_
*458 _0450_
*459 _0451_
*460 _0452_
*461 _0453_
*462 _0454_
*463 _0455_
*464 _0456_
*465 _0457_
*466 _0458_
*467 _0459_
*468 _0460_
*469 _0461_
*470 _0462_
*471 _0463_
*472 _0464_
*473 _0465_
*474 _0466_
*475 _0467_
*476 _0468_
*477 _0469_
*478 _0470_
*479 _0471_
*480 _0472_
*481 _0473_
*482 _0474_
*483 _0475_
*484 _0476_
*485 _0477_
*486 _0478_
*487 _0479_
*488 _0480_
*489 _0481_
*490 _0482_
*491 _0483_
*492 _0484_
*493 _0485_
*494 _0486_
*495 _0487_
*496 _0488_
*497 _0489_
*498 _0490_
*499 _0491_
*500 _0492_
*501 _0493_
*502 _0494_
*503 _0495_
*504 _0496_
*505 _0497_
*506 _0498_
*507 _0499_
*508 _0500_
*509 _0501_
*510 _0502_
*511 _0503_
*512 _0504_
*513 _0505_
*514 _0506_
*515 _0507_
*516 _0508_
*517 _0509_
*518 _0510_
*519 _0511_
*520 _0512_
*521 _0513_
*522 _0514_
*523 _0515_
*524 _0516_
*525 _0517_
*526 _0518_
*527 _0519_
*528 _0520_
*529 _0521_
*530 _0522_
*531 _0523_
*532 _0524_
*533 _0525_
*534 _0526_
*535 _0527_
*536 _0528_
*537 _0529_
*538 _0530_
*539 _0531_
*540 _0532_
*541 _0533_
*542 _0534_
*543 _0535_
*544 _0536_
*545 _0537_
*546 _0538_
*547 _0539_
*548 _0540_
*549 _0541_
*550 _0542_
*551 _0543_
*552 _0544_
*553 _0545_
*554 _0546_
*555 _0547_
*556 _0548_
*557 _0549_
*558 _0550_
*559 _0551_
*560 _0552_
*561 _0553_
*562 _0554_
*563 _0555_
*564 _0556_
*565 _0557_
*566 _0558_
*567 _0559_
*568 _0560_
*569 _0561_
*570 _0562_
*571 _0563_
*572 _0564_
*573 _0565_
*574 _0566_
*575 _0567_
*576 _0568_
*577 _0569_
*578 _0570_
*579 _0571_
*580 _0572_
*581 _0573_
*582 _0574_
*583 _0575_
*584 _0576_
*585 _0577_
*586 _0578_
*587 _0579_
*588 _0580_
*589 _0581_
*590 clknet_0_clk
*591 clknet_4_0_0_clk
*592 clknet_4_10_0_clk
*593 clknet_4_11_0_clk
*594 clknet_4_12_0_clk
*595 clknet_4_13_0_clk
*596 clknet_4_14_0_clk
*597 clknet_4_15_0_clk
*598 clknet_4_1_0_clk
*599 clknet_4_2_0_clk
*600 clknet_4_3_0_clk
*601 clknet_4_4_0_clk
*602 clknet_4_5_0_clk
*603 clknet_4_6_0_clk
*604 clknet_4_7_0_clk
*605 clknet_4_8_0_clk
*606 clknet_4_9_0_clk
*607 net1
*608 net10
*609 net100
*610 net101
*611 net102
*612 net103
*613 net104
*614 net105
*615 net106
*616 net107
*617 net108
*618 net109
*619 net11
*620 net110
*621 net111
*622 net112
*623 net113
*624 net114
*625 net115
*626 net116
*627 net117
*628 net118
*629 net119
*630 net12
*631 net120
*632 net121
*633 net122
*634 net123
*635 net124
*636 net125
*637 net126
*638 net127
*639 net128
*640 net129
*641 net13
*642 net130
*643 net131
*644 net132
*645 net133
*646 net134
*647 net135
*648 net136
*649 net137
*650 net138
*651 net139
*652 net14
*653 net140
*654 net141
*655 net142
*656 net143
*657 net144
*658 net145
*659 net146
*660 net147
*661 net148
*662 net149
*663 net15
*664 net150
*665 net151
*666 net152
*667 net153
*668 net154
*669 net155
*670 net156
*671 net157
*672 net158
*673 net159
*674 net16
*675 net160
*676 net161
*677 net162
*678 net163
*679 net17
*680 net18
*681 net19
*682 net2
*683 net20
*684 net21
*685 net22
*686 net23
*687 net24
*688 net25
*689 net26
*690 net27
*691 net28
*692 net29
*693 net3
*694 net30
*695 net31
*696 net32
*697 net33
*698 net34
*699 net35
*700 net36
*701 net37
*702 net38
*703 net39
*704 net4
*705 net40
*706 net41
*707 net42
*708 net43
*709 net44
*710 net45
*711 net46
*712 net47
*713 net48
*714 net49
*715 net5
*716 net50
*717 net51
*718 net52
*719 net53
*720 net54
*721 net55
*722 net56
*723 net57
*724 net58
*725 net59
*726 net6
*727 net60
*728 net61
*729 net62
*730 net63
*731 net64
*732 net65
*733 net66
*734 net67
*735 net68
*736 net69
*737 net7
*738 net70
*739 net71
*740 net72
*741 net73
*742 net74
*743 net75
*744 net76
*745 net77
*746 net78
*747 net79
*748 net8
*749 net80
*750 net81
*751 net82
*752 net83
*753 net84
*754 net85
*755 net86
*756 net87
*757 net88
*758 net89
*759 net9
*760 net90
*761 net91
*762 net92
*763 net93
*764 net94
*765 net95
*766 net96
*767 net97
*768 net98
*769 net99
*770 u_addr_gen\.addr\[0\]
*771 u_addr_gen\.addr\[1\]
*772 u_addr_gen\.addr\[2\]
*773 u_addr_gen\.addr\[3\]
*774 u_addr_gen\.addr\[4\]
*775 u_addr_gen\.addr\[5\]
*776 u_addr_gen\.addr_valid
*777 u_addr_gen\.done
*778 u_addr_gen\.start
*779 u_addr_gen\.state\[0\]
*780 u_addr_gen\.state\[1\]
*781 u_comparator\.compare_done
*782 u_comparator\.enable
*783 u_comparator\.pass_fail
*784 u_comparator\.read_data\[0\]
*785 u_comparator\.read_data\[1\]
*786 u_fsm\.addr_done_seen
*787 u_fsm\.fail_latch
*788 u_fsm\.next_state\[0\]
*789 u_fsm\.next_state\[1\]
*790 u_fsm\.next_state\[2\]
*791 u_fsm\.protocol_error
*792 u_fsm\.rvalid
*793 u_fsm\.state\[0\]
*794 u_fsm\.state\[1\]
*795 u_fsm\.state\[2\]
*796 u_pattern_gen\.state_r\[0\]
*797 u_pattern_gen\.state_r\[1\]
*798 u_sram\.addr_r\[0\]
*799 u_sram\.addr_r\[1\]
*800 u_sram\.addr_r\[2\]
*801 u_sram\.addr_r\[3\]
*802 u_sram\.addr_r\[4\]
*803 u_sram\.addr_r\[5\]
*804 u_sram\.mem\[0\]\[0\]
*805 u_sram\.mem\[0\]\[1\]
*806 u_sram\.mem\[10\]\[0\]
*807 u_sram\.mem\[10\]\[1\]
*808 u_sram\.mem\[11\]\[0\]
*809 u_sram\.mem\[11\]\[1\]
*810 u_sram\.mem\[12\]\[0\]
*811 u_sram\.mem\[12\]\[1\]
*812 u_sram\.mem\[13\]\[0\]
*813 u_sram\.mem\[13\]\[1\]
*814 u_sram\.mem\[14\]\[0\]
*815 u_sram\.mem\[14\]\[1\]
*816 u_sram\.mem\[15\]\[0\]
*817 u_sram\.mem\[15\]\[1\]
*818 u_sram\.mem\[16\]\[0\]
*819 u_sram\.mem\[16\]\[1\]
*820 u_sram\.mem\[17\]\[0\]
*821 u_sram\.mem\[17\]\[1\]
*822 u_sram\.mem\[18\]\[0\]
*823 u_sram\.mem\[18\]\[1\]
*824 u_sram\.mem\[19\]\[0\]
*825 u_sram\.mem\[19\]\[1\]
*826 u_sram\.mem\[1\]\[0\]
*827 u_sram\.mem\[1\]\[1\]
*828 u_sram\.mem\[20\]\[0\]
*829 u_sram\.mem\[20\]\[1\]
*830 u_sram\.mem\[21\]\[0\]
*831 u_sram\.mem\[21\]\[1\]
*832 u_sram\.mem\[22\]\[0\]
*833 u_sram\.mem\[22\]\[1\]
*834 u_sram\.mem\[23\]\[0\]
*835 u_sram\.mem\[23\]\[1\]
*836 u_sram\.mem\[24\]\[0\]
*837 u_sram\.mem\[24\]\[1\]
*838 u_sram\.mem\[25\]\[0\]
*839 u_sram\.mem\[25\]\[1\]
*840 u_sram\.mem\[26\]\[0\]
*841 u_sram\.mem\[26\]\[1\]
*842 u_sram\.mem\[27\]\[0\]
*843 u_sram\.mem\[27\]\[1\]
*844 u_sram\.mem\[28\]\[0\]
*845 u_sram\.mem\[28\]\[1\]
*846 u_sram\.mem\[29\]\[0\]
*847 u_sram\.mem\[29\]\[1\]
*848 u_sram\.mem\[2\]\[0\]
*849 u_sram\.mem\[2\]\[1\]
*850 u_sram\.mem\[30\]\[0\]
*851 u_sram\.mem\[30\]\[1\]
*852 u_sram\.mem\[31\]\[0\]
*853 u_sram\.mem\[31\]\[1\]
*854 u_sram\.mem\[32\]\[0\]
*855 u_sram\.mem\[32\]\[1\]
*856 u_sram\.mem\[33\]\[0\]
*857 u_sram\.mem\[33\]\[1\]
*858 u_sram\.mem\[34\]\[0\]
*859 u_sram\.mem\[34\]\[1\]
*860 u_sram\.mem\[35\]\[0\]
*861 u_sram\.mem\[35\]\[1\]
*862 u_sram\.mem\[36\]\[0\]
*863 u_sram\.mem\[36\]\[1\]
*864 u_sram\.mem\[37\]\[0\]
*865 u_sram\.mem\[37\]\[1\]
*866 u_sram\.mem\[38\]\[0\]
*867 u_sram\.mem\[38\]\[1\]
*868 u_sram\.mem\[39\]\[0\]
*869 u_sram\.mem\[39\]\[1\]
*870 u_sram\.mem\[3\]\[0\]
*871 u_sram\.mem\[3\]\[1\]
*872 u_sram\.mem\[40\]\[0\]
*873 u_sram\.mem\[40\]\[1\]
*874 u_sram\.mem\[41\]\[0\]
*875 u_sram\.mem\[41\]\[1\]
*876 u_sram\.mem\[42\]\[0\]
*877 u_sram\.mem\[42\]\[1\]
*878 u_sram\.mem\[43\]\[0\]
*879 u_sram\.mem\[43\]\[1\]
*880 u_sram\.mem\[44\]\[0\]
*881 u_sram\.mem\[44\]\[1\]
*882 u_sram\.mem\[45\]\[0\]
*883 u_sram\.mem\[45\]\[1\]
*884 u_sram\.mem\[46\]\[0\]
*885 u_sram\.mem\[46\]\[1\]
*886 u_sram\.mem\[47\]\[0\]
*887 u_sram\.mem\[47\]\[1\]
*888 u_sram\.mem\[48\]\[0\]
*889 u_sram\.mem\[48\]\[1\]
*890 u_sram\.mem\[49\]\[0\]
*891 u_sram\.mem\[49\]\[1\]
*892 u_sram\.mem\[4\]\[0\]
*893 u_sram\.mem\[4\]\[1\]
*894 u_sram\.mem\[50\]\[0\]
*895 u_sram\.mem\[50\]\[1\]
*896 u_sram\.mem\[51\]\[0\]
*897 u_sram\.mem\[51\]\[1\]
*898 u_sram\.mem\[52\]\[0\]
*899 u_sram\.mem\[52\]\[1\]
*900 u_sram\.mem\[53\]\[0\]
*901 u_sram\.mem\[53\]\[1\]
*902 u_sram\.mem\[54\]\[0\]
*903 u_sram\.mem\[54\]\[1\]
*904 u_sram\.mem\[55\]\[0\]
*905 u_sram\.mem\[55\]\[1\]
*906 u_sram\.mem\[56\]\[0\]
*907 u_sram\.mem\[56\]\[1\]
*908 u_sram\.mem\[57\]\[0\]
*909 u_sram\.mem\[57\]\[1\]
*910 u_sram\.mem\[58\]\[0\]
*911 u_sram\.mem\[58\]\[1\]
*912 u_sram\.mem\[59\]\[0\]
*913 u_sram\.mem\[59\]\[1\]
*914 u_sram\.mem\[5\]\[0\]
*915 u_sram\.mem\[5\]\[1\]
*916 u_sram\.mem\[60\]\[0\]
*917 u_sram\.mem\[60\]\[1\]
*918 u_sram\.mem\[61\]\[0\]
*919 u_sram\.mem\[61\]\[1\]
*920 u_sram\.mem\[62\]\[0\]
*921 u_sram\.mem\[62\]\[1\]
*922 u_sram\.mem\[63\]\[0\]
*923 u_sram\.mem\[63\]\[1\]
*924 u_sram\.mem\[6\]\[0\]
*925 u_sram\.mem\[6\]\[1\]
*926 u_sram\.mem\[7\]\[0\]
*927 u_sram\.mem\[7\]\[1\]
*928 u_sram\.mem\[8\]\[0\]
*929 u_sram\.mem\[8\]\[1\]
*930 u_sram\.mem\[9\]\[0\]
*931 u_sram\.mem\[9\]\[1\]
*932 u_sram\.re_r
*933 u_sram\.read_req
*934 FILLER_0_0_109
*935 FILLER_0_0_113
*936 FILLER_0_0_125
*937 FILLER_0_0_137
*938 FILLER_0_0_141
*939 FILLER_0_0_153
*940 FILLER_0_0_165
*941 FILLER_0_0_169
*942 FILLER_0_0_181
*943 FILLER_0_0_193
*944 FILLER_0_0_197
*945 FILLER_0_0_209
*946 FILLER_0_0_21
*947 FILLER_0_0_221
*948 FILLER_0_0_225
*949 FILLER_0_0_237
*950 FILLER_0_0_249
*951 FILLER_0_0_253
*952 FILLER_0_0_258
*953 FILLER_0_0_27
*954 FILLER_0_0_270
*955 FILLER_0_0_278
*956 FILLER_0_0_281
*957 FILLER_0_0_29
*958 FILLER_0_0_293
*959 FILLER_0_0_305
*960 FILLER_0_0_41
*961 FILLER_0_0_53
*962 FILLER_0_0_57
*963 FILLER_0_0_69
*964 FILLER_0_0_81
*965 FILLER_0_0_85
*966 FILLER_0_0_9
*967 FILLER_0_0_97
*968 FILLER_0_10_114
*969 FILLER_0_10_126
*970 FILLER_0_10_15
*971 FILLER_0_10_173
*972 FILLER_0_10_182
*973 FILLER_0_10_190
*974 FILLER_0_10_226
*975 FILLER_0_10_249
*976 FILLER_0_10_253
*977 FILLER_0_10_27
*978 FILLER_0_10_292
*979 FILLER_0_10_3
*980 FILLER_0_10_56
*981 FILLER_0_10_77
*982 FILLER_0_10_83
*983 FILLER_0_10_85
*984 FILLER_0_10_89
*985 FILLER_0_11_107
*986 FILLER_0_11_111
*987 FILLER_0_11_113
*988 FILLER_0_11_144
*989 FILLER_0_11_149
*990 FILLER_0_11_15
*991 FILLER_0_11_161
*992 FILLER_0_11_167
*993 FILLER_0_11_181
*994 FILLER_0_11_193
*995 FILLER_0_11_197
*996 FILLER_0_11_204
*997 FILLER_0_11_216
*998 FILLER_0_11_231
*999 FILLER_0_11_235
*1000 FILLER_0_11_240
*1001 FILLER_0_11_258
*1002 FILLER_0_11_27
*1003 FILLER_0_11_279
*1004 FILLER_0_11_281
*1005 FILLER_0_11_3
*1006 FILLER_0_11_305
*1007 FILLER_0_11_35
*1008 FILLER_0_11_49
*1009 FILLER_0_11_55
*1010 FILLER_0_11_57
*1011 FILLER_0_11_65
*1012 FILLER_0_11_71
*1013 FILLER_0_11_83
*1014 FILLER_0_11_87
*1015 FILLER_0_12_118
*1016 FILLER_0_12_124
*1017 FILLER_0_12_128
*1018 FILLER_0_12_138
*1019 FILLER_0_12_149
*1020 FILLER_0_12_15
*1021 FILLER_0_12_169
*1022 FILLER_0_12_189
*1023 FILLER_0_12_195
*1024 FILLER_0_12_197
*1025 FILLER_0_12_205
*1026 FILLER_0_12_215
*1027 FILLER_0_12_227
*1028 FILLER_0_12_239
*1029 FILLER_0_12_250
*1030 FILLER_0_12_253
*1031 FILLER_0_12_265
*1032 FILLER_0_12_27
*1033 FILLER_0_12_29
*1034 FILLER_0_12_3
*1035 FILLER_0_12_305
*1036 FILLER_0_12_41
*1037 FILLER_0_12_59
*1038 FILLER_0_12_77
*1039 FILLER_0_12_85
*1040 FILLER_0_13_101
*1041 FILLER_0_13_109
*1042 FILLER_0_13_120
*1043 FILLER_0_13_135
*1044 FILLER_0_13_143
*1045 FILLER_0_13_15
*1046 FILLER_0_13_155
*1047 FILLER_0_13_167
*1048 FILLER_0_13_169
*1049 FILLER_0_13_197
*1050 FILLER_0_13_205
*1051 FILLER_0_13_225
*1052 FILLER_0_13_23
*1053 FILLER_0_13_258
*1054 FILLER_0_13_270
*1055 FILLER_0_13_278
*1056 FILLER_0_13_284
*1057 FILLER_0_13_292
*1058 FILLER_0_13_3
*1059 FILLER_0_13_305
*1060 FILLER_0_13_40
*1061 FILLER_0_13_48
*1062 FILLER_0_13_57
*1063 FILLER_0_13_91
*1064 FILLER_0_14_11
*1065 FILLER_0_14_120
*1066 FILLER_0_14_165
*1067 FILLER_0_14_17
*1068 FILLER_0_14_194
*1069 FILLER_0_14_197
*1070 FILLER_0_14_21
*1071 FILLER_0_14_221
*1072 FILLER_0_14_225
*1073 FILLER_0_14_246
*1074 FILLER_0_14_253
*1075 FILLER_0_14_261
*1076 FILLER_0_14_265
*1077 FILLER_0_14_291
*1078 FILLER_0_14_3
*1079 FILLER_0_14_302
*1080 FILLER_0_14_62
*1081 FILLER_0_14_80
*1082 FILLER_0_14_85
*1083 FILLER_0_15_111
*1084 FILLER_0_15_113
*1085 FILLER_0_15_125
*1086 FILLER_0_15_160
*1087 FILLER_0_15_169
*1088 FILLER_0_15_193
*1089 FILLER_0_15_205
*1090 FILLER_0_15_231
*1091 FILLER_0_15_237
*1092 FILLER_0_15_276
*1093 FILLER_0_15_281
*1094 FILLER_0_15_3
*1095 FILLER_0_15_303
*1096 FILLER_0_15_32
*1097 FILLER_0_15_51
*1098 FILLER_0_15_64
*1099 FILLER_0_15_68
*1100 FILLER_0_15_86
*1101 FILLER_0_16_11
*1102 FILLER_0_16_112
*1103 FILLER_0_16_124
*1104 FILLER_0_16_130
*1105 FILLER_0_16_141
*1106 FILLER_0_16_159
*1107 FILLER_0_16_173
*1108 FILLER_0_16_185
*1109 FILLER_0_16_192
*1110 FILLER_0_16_202
*1111 FILLER_0_16_206
*1112 FILLER_0_16_219
*1113 FILLER_0_16_231
*1114 FILLER_0_16_243
*1115 FILLER_0_16_247
*1116 FILLER_0_16_251
*1117 FILLER_0_16_273
*1118 FILLER_0_16_3
*1119 FILLER_0_16_304
*1120 FILLER_0_16_53
*1121 FILLER_0_16_61
*1122 FILLER_0_16_67
*1123 FILLER_0_16_76
*1124 FILLER_0_16_83
*1125 FILLER_0_16_85
*1126 FILLER_0_16_91
*1127 FILLER_0_17_124
*1128 FILLER_0_17_136
*1129 FILLER_0_17_141
*1130 FILLER_0_17_145
*1131 FILLER_0_17_15
*1132 FILLER_0_17_169
*1133 FILLER_0_17_175
*1134 FILLER_0_17_183
*1135 FILLER_0_17_19
*1136 FILLER_0_17_195
*1137 FILLER_0_17_203
*1138 FILLER_0_17_209
*1139 FILLER_0_17_221
*1140 FILLER_0_17_225
*1141 FILLER_0_17_23
*1142 FILLER_0_17_237
*1143 FILLER_0_17_245
*1144 FILLER_0_17_255
*1145 FILLER_0_17_276
*1146 FILLER_0_17_3
*1147 FILLER_0_17_305
*1148 FILLER_0_17_33
*1149 FILLER_0_17_45
*1150 FILLER_0_17_83
*1151 FILLER_0_17_95
*1152 FILLER_0_18_133
*1153 FILLER_0_18_139
*1154 FILLER_0_18_141
*1155 FILLER_0_18_15
*1156 FILLER_0_18_152
*1157 FILLER_0_18_164
*1158 FILLER_0_18_176
*1159 FILLER_0_18_184
*1160 FILLER_0_18_197
*1161 FILLER_0_18_206
*1162 FILLER_0_18_218
*1163 FILLER_0_18_246
*1164 FILLER_0_18_253
*1165 FILLER_0_18_265
*1166 FILLER_0_18_269
*1167 FILLER_0_18_27
*1168 FILLER_0_18_3
*1169 FILLER_0_18_303
*1170 FILLER_0_18_45
*1171 FILLER_0_18_49
*1172 FILLER_0_18_64
*1173 FILLER_0_18_82
*1174 FILLER_0_18_85
*1175 FILLER_0_18_97
*1176 FILLER_0_19_138
*1177 FILLER_0_19_144
*1178 FILLER_0_19_15
*1179 FILLER_0_19_151
*1180 FILLER_0_19_162
*1181 FILLER_0_19_172
*1182 FILLER_0_19_180
*1183 FILLER_0_19_194
*1184 FILLER_0_19_220
*1185 FILLER_0_19_225
*1186 FILLER_0_19_23
*1187 FILLER_0_19_246
*1188 FILLER_0_19_258
*1189 FILLER_0_19_270
*1190 FILLER_0_19_278
*1191 FILLER_0_19_29
*1192 FILLER_0_19_291
*1193 FILLER_0_19_3
*1194 FILLER_0_19_303
*1195 FILLER_0_19_39
*1196 FILLER_0_19_81
*1197 FILLER_0_19_93
*1198 FILLER_0_1_105
*1199 FILLER_0_1_111
*1200 FILLER_0_1_113
*1201 FILLER_0_1_125
*1202 FILLER_0_1_137
*1203 FILLER_0_1_148
*1204 FILLER_0_1_15
*1205 FILLER_0_1_163
*1206 FILLER_0_1_169
*1207 FILLER_0_1_181
*1208 FILLER_0_1_193
*1209 FILLER_0_1_199
*1210 FILLER_0_1_216
*1211 FILLER_0_1_225
*1212 FILLER_0_1_237
*1213 FILLER_0_1_249
*1214 FILLER_0_1_261
*1215 FILLER_0_1_27
*1216 FILLER_0_1_273
*1217 FILLER_0_1_279
*1218 FILLER_0_1_281
*1219 FILLER_0_1_293
*1220 FILLER_0_1_3
*1221 FILLER_0_1_305
*1222 FILLER_0_1_39
*1223 FILLER_0_1_51
*1224 FILLER_0_1_55
*1225 FILLER_0_1_57
*1226 FILLER_0_1_69
*1227 FILLER_0_1_81
*1228 FILLER_0_1_93
*1229 FILLER_0_20_104
*1230 FILLER_0_20_108
*1231 FILLER_0_20_126
*1232 FILLER_0_20_130
*1233 FILLER_0_20_139
*1234 FILLER_0_20_141
*1235 FILLER_0_20_15
*1236 FILLER_0_20_170
*1237 FILLER_0_20_184
*1238 FILLER_0_20_197
*1239 FILLER_0_20_21
*1240 FILLER_0_20_225
*1241 FILLER_0_20_244
*1242 FILLER_0_20_253
*1243 FILLER_0_20_265
*1244 FILLER_0_20_27
*1245 FILLER_0_20_271
*1246 FILLER_0_20_281
*1247 FILLER_0_20_289
*1248 FILLER_0_20_293
*1249 FILLER_0_20_297
*1250 FILLER_0_20_3
*1251 FILLER_0_20_38
*1252 FILLER_0_20_48
*1253 FILLER_0_20_52
*1254 FILLER_0_20_82
*1255 FILLER_0_20_92
*1256 FILLER_0_21_105
*1257 FILLER_0_21_11
*1258 FILLER_0_21_111
*1259 FILLER_0_21_113
*1260 FILLER_0_21_124
*1261 FILLER_0_21_138
*1262 FILLER_0_21_166
*1263 FILLER_0_21_185
*1264 FILLER_0_21_197
*1265 FILLER_0_21_222
*1266 FILLER_0_21_244
*1267 FILLER_0_21_256
*1268 FILLER_0_21_278
*1269 FILLER_0_21_285
*1270 FILLER_0_21_3
*1271 FILLER_0_21_300
*1272 FILLER_0_21_39
*1273 FILLER_0_21_51
*1274 FILLER_0_21_81
*1275 FILLER_0_21_93
*1276 FILLER_0_22_11
*1277 FILLER_0_22_168
*1278 FILLER_0_22_195
*1279 FILLER_0_22_212
*1280 FILLER_0_22_222
*1281 FILLER_0_22_251
*1282 FILLER_0_22_253
*1283 FILLER_0_22_261
*1284 FILLER_0_22_284
*1285 FILLER_0_22_3
*1286 FILLER_0_22_305
*1287 FILLER_0_22_46
*1288 FILLER_0_22_82
*1289 FILLER_0_22_90
*1290 FILLER_0_22_98
*1291 FILLER_0_23_102
*1292 FILLER_0_23_106
*1293 FILLER_0_23_138
*1294 FILLER_0_23_15
*1295 FILLER_0_23_150
*1296 FILLER_0_23_159
*1297 FILLER_0_23_19
*1298 FILLER_0_23_197
*1299 FILLER_0_23_201
*1300 FILLER_0_23_221
*1301 FILLER_0_23_250
*1302 FILLER_0_23_262
*1303 FILLER_0_23_270
*1304 FILLER_0_23_3
*1305 FILLER_0_23_301
*1306 FILLER_0_23_305
*1307 FILLER_0_23_45
*1308 FILLER_0_23_81
*1309 FILLER_0_23_85
*1310 FILLER_0_24_130
*1311 FILLER_0_24_139
*1312 FILLER_0_24_141
*1313 FILLER_0_24_15
*1314 FILLER_0_24_153
*1315 FILLER_0_24_157
*1316 FILLER_0_24_179
*1317 FILLER_0_24_206
*1318 FILLER_0_24_23
*1319 FILLER_0_24_250
*1320 FILLER_0_24_253
*1321 FILLER_0_24_278
*1322 FILLER_0_24_29
*1323 FILLER_0_24_290
*1324 FILLER_0_24_3
*1325 FILLER_0_24_302
*1326 FILLER_0_24_37
*1327 FILLER_0_24_79
*1328 FILLER_0_25_111
*1329 FILLER_0_25_120
*1330 FILLER_0_25_127
*1331 FILLER_0_25_147
*1332 FILLER_0_25_15
*1333 FILLER_0_25_159
*1334 FILLER_0_25_167
*1335 FILLER_0_25_188
*1336 FILLER_0_25_200
*1337 FILLER_0_25_212
*1338 FILLER_0_25_231
*1339 FILLER_0_25_243
*1340 FILLER_0_25_255
*1341 FILLER_0_25_259
*1342 FILLER_0_25_27
*1343 FILLER_0_25_281
*1344 FILLER_0_25_293
*1345 FILLER_0_25_3
*1346 FILLER_0_25_305
*1347 FILLER_0_25_35
*1348 FILLER_0_25_49
*1349 FILLER_0_25_55
*1350 FILLER_0_25_57
*1351 FILLER_0_25_69
*1352 FILLER_0_25_81
*1353 FILLER_0_25_87
*1354 FILLER_0_26_109
*1355 FILLER_0_26_117
*1356 FILLER_0_26_128
*1357 FILLER_0_26_134
*1358 FILLER_0_26_138
*1359 FILLER_0_26_15
*1360 FILLER_0_26_150
*1361 FILLER_0_26_156
*1362 FILLER_0_26_193
*1363 FILLER_0_26_203
*1364 FILLER_0_26_211
*1365 FILLER_0_26_217
*1366 FILLER_0_26_232
*1367 FILLER_0_26_244
*1368 FILLER_0_26_253
*1369 FILLER_0_26_259
*1370 FILLER_0_26_27
*1371 FILLER_0_26_286
*1372 FILLER_0_26_29
*1373 FILLER_0_26_3
*1374 FILLER_0_26_302
*1375 FILLER_0_26_41
*1376 FILLER_0_26_53
*1377 FILLER_0_26_75
*1378 FILLER_0_26_83
*1379 FILLER_0_26_85
*1380 FILLER_0_26_97
*1381 FILLER_0_27_103
*1382 FILLER_0_27_109
*1383 FILLER_0_27_113
*1384 FILLER_0_27_121
*1385 FILLER_0_27_15
*1386 FILLER_0_27_157
*1387 FILLER_0_27_191
*1388 FILLER_0_27_225
*1389 FILLER_0_27_242
*1390 FILLER_0_27_254
*1391 FILLER_0_27_27
*1392 FILLER_0_27_278
*1393 FILLER_0_27_297
*1394 FILLER_0_27_3
*1395 FILLER_0_27_305
*1396 FILLER_0_27_35
*1397 FILLER_0_27_54
*1398 FILLER_0_27_65
*1399 FILLER_0_27_72
*1400 FILLER_0_27_84
*1401 FILLER_0_27_92
*1402 FILLER_0_27_97
*1403 FILLER_0_28_102
*1404 FILLER_0_28_120
*1405 FILLER_0_28_132
*1406 FILLER_0_28_136
*1407 FILLER_0_28_149
*1408 FILLER_0_28_15
*1409 FILLER_0_28_155
*1410 FILLER_0_28_162
*1411 FILLER_0_28_166
*1412 FILLER_0_28_170
*1413 FILLER_0_28_178
*1414 FILLER_0_28_184
*1415 FILLER_0_28_190
*1416 FILLER_0_28_197
*1417 FILLER_0_28_220
*1418 FILLER_0_28_226
*1419 FILLER_0_28_238
*1420 FILLER_0_28_250
*1421 FILLER_0_28_27
*1422 FILLER_0_28_277
*1423 FILLER_0_28_29
*1424 FILLER_0_28_3
*1425 FILLER_0_28_300
*1426 FILLER_0_29_130
*1427 FILLER_0_29_142
*1428 FILLER_0_29_15
*1429 FILLER_0_29_154
*1430 FILLER_0_29_169
*1431 FILLER_0_29_173
*1432 FILLER_0_29_183
*1433 FILLER_0_29_19
*1434 FILLER_0_29_191
*1435 FILLER_0_29_221
*1436 FILLER_0_29_23
*1437 FILLER_0_29_241
*1438 FILLER_0_29_249
*1439 FILLER_0_29_281
*1440 FILLER_0_29_293
*1441 FILLER_0_29_3
*1442 FILLER_0_29_305
*1443 FILLER_0_29_34
*1444 FILLER_0_29_40
*1445 FILLER_0_29_44
*1446 FILLER_0_29_54
*1447 FILLER_0_29_65
*1448 FILLER_0_29_86
*1449 FILLER_0_2_109
*1450 FILLER_0_2_141
*1451 FILLER_0_2_15
*1452 FILLER_0_2_186
*1453 FILLER_0_2_192
*1454 FILLER_0_2_227
*1455 FILLER_0_2_239
*1456 FILLER_0_2_251
*1457 FILLER_0_2_253
*1458 FILLER_0_2_265
*1459 FILLER_0_2_27
*1460 FILLER_0_2_277
*1461 FILLER_0_2_289
*1462 FILLER_0_2_29
*1463 FILLER_0_2_3
*1464 FILLER_0_2_301
*1465 FILLER_0_2_305
*1466 FILLER_0_2_41
*1467 FILLER_0_2_53
*1468 FILLER_0_2_65
*1469 FILLER_0_2_77
*1470 FILLER_0_2_83
*1471 FILLER_0_2_85
*1472 FILLER_0_2_97
*1473 FILLER_0_30_130
*1474 FILLER_0_30_139
*1475 FILLER_0_30_150
*1476 FILLER_0_30_162
*1477 FILLER_0_30_193
*1478 FILLER_0_30_197
*1479 FILLER_0_30_237
*1480 FILLER_0_30_249
*1481 FILLER_0_30_267
*1482 FILLER_0_30_277
*1483 FILLER_0_30_289
*1484 FILLER_0_30_3
*1485 FILLER_0_30_301
*1486 FILLER_0_30_305
*1487 FILLER_0_30_38
*1488 FILLER_0_30_78
*1489 FILLER_0_31_111
*1490 FILLER_0_31_15
*1491 FILLER_0_31_163
*1492 FILLER_0_31_167
*1493 FILLER_0_31_187
*1494 FILLER_0_31_202
*1495 FILLER_0_31_233
*1496 FILLER_0_31_263
*1497 FILLER_0_31_275
*1498 FILLER_0_31_279
*1499 FILLER_0_31_281
*1500 FILLER_0_31_293
*1501 FILLER_0_31_3
*1502 FILLER_0_31_305
*1503 FILLER_0_31_73
*1504 FILLER_0_31_86
*1505 FILLER_0_31_98
*1506 FILLER_0_32_102
*1507 FILLER_0_32_126
*1508 FILLER_0_32_15
*1509 FILLER_0_32_184
*1510 FILLER_0_32_197
*1511 FILLER_0_32_203
*1512 FILLER_0_32_236
*1513 FILLER_0_32_27
*1514 FILLER_0_32_276
*1515 FILLER_0_32_288
*1516 FILLER_0_32_29
*1517 FILLER_0_32_3
*1518 FILLER_0_32_300
*1519 FILLER_0_32_67
*1520 FILLER_0_32_79
*1521 FILLER_0_32_83
*1522 FILLER_0_32_85
*1523 FILLER_0_33_105
*1524 FILLER_0_33_111
*1525 FILLER_0_33_120
*1526 FILLER_0_33_132
*1527 FILLER_0_33_138
*1528 FILLER_0_33_15
*1529 FILLER_0_33_164
*1530 FILLER_0_33_172
*1531 FILLER_0_33_184
*1532 FILLER_0_33_192
*1533 FILLER_0_33_204
*1534 FILLER_0_33_216
*1535 FILLER_0_33_225
*1536 FILLER_0_33_233
*1537 FILLER_0_33_27
*1538 FILLER_0_33_271
*1539 FILLER_0_33_279
*1540 FILLER_0_33_281
*1541 FILLER_0_33_293
*1542 FILLER_0_33_3
*1543 FILLER_0_33_305
*1544 FILLER_0_33_39
*1545 FILLER_0_33_51
*1546 FILLER_0_33_55
*1547 FILLER_0_33_57
*1548 FILLER_0_33_69
*1549 FILLER_0_33_81
*1550 FILLER_0_33_93
*1551 FILLER_0_34_105
*1552 FILLER_0_34_117
*1553 FILLER_0_34_129
*1554 FILLER_0_34_137
*1555 FILLER_0_34_141
*1556 FILLER_0_34_15
*1557 FILLER_0_34_202
*1558 FILLER_0_34_210
*1559 FILLER_0_34_218
*1560 FILLER_0_34_230
*1561 FILLER_0_34_242
*1562 FILLER_0_34_248
*1563 FILLER_0_34_263
*1564 FILLER_0_34_27
*1565 FILLER_0_34_275
*1566 FILLER_0_34_287
*1567 FILLER_0_34_29
*1568 FILLER_0_34_299
*1569 FILLER_0_34_3
*1570 FILLER_0_34_305
*1571 FILLER_0_34_41
*1572 FILLER_0_34_53
*1573 FILLER_0_34_67
*1574 FILLER_0_34_75
*1575 FILLER_0_34_80
*1576 FILLER_0_35_105
*1577 FILLER_0_35_111
*1578 FILLER_0_35_113
*1579 FILLER_0_35_123
*1580 FILLER_0_35_128
*1581 FILLER_0_35_140
*1582 FILLER_0_35_15
*1583 FILLER_0_35_169
*1584 FILLER_0_35_173
*1585 FILLER_0_35_183
*1586 FILLER_0_35_190
*1587 FILLER_0_35_237
*1588 FILLER_0_35_249
*1589 FILLER_0_35_261
*1590 FILLER_0_35_27
*1591 FILLER_0_35_273
*1592 FILLER_0_35_279
*1593 FILLER_0_35_281
*1594 FILLER_0_35_293
*1595 FILLER_0_35_3
*1596 FILLER_0_35_305
*1597 FILLER_0_35_35
*1598 FILLER_0_35_46
*1599 FILLER_0_35_52
*1600 FILLER_0_35_68
*1601 FILLER_0_35_72
*1602 FILLER_0_36_102
*1603 FILLER_0_36_136
*1604 FILLER_0_36_141
*1605 FILLER_0_36_15
*1606 FILLER_0_36_195
*1607 FILLER_0_36_217
*1608 FILLER_0_36_247
*1609 FILLER_0_36_251
*1610 FILLER_0_36_253
*1611 FILLER_0_36_265
*1612 FILLER_0_36_27
*1613 FILLER_0_36_277
*1614 FILLER_0_36_289
*1615 FILLER_0_36_29
*1616 FILLER_0_36_3
*1617 FILLER_0_36_301
*1618 FILLER_0_36_305
*1619 FILLER_0_36_66
*1620 FILLER_0_36_76
*1621 FILLER_0_36_80
*1622 FILLER_0_37_103
*1623 FILLER_0_37_137
*1624 FILLER_0_37_141
*1625 FILLER_0_37_15
*1626 FILLER_0_37_166
*1627 FILLER_0_37_169
*1628 FILLER_0_37_179
*1629 FILLER_0_37_183
*1630 FILLER_0_37_221
*1631 FILLER_0_37_243
*1632 FILLER_0_37_255
*1633 FILLER_0_37_267
*1634 FILLER_0_37_279
*1635 FILLER_0_37_281
*1636 FILLER_0_37_293
*1637 FILLER_0_37_3
*1638 FILLER_0_37_305
*1639 FILLER_0_37_55
*1640 FILLER_0_37_69
*1641 FILLER_0_37_78
*1642 FILLER_0_37_90
*1643 FILLER_0_38_138
*1644 FILLER_0_38_15
*1645 FILLER_0_38_152
*1646 FILLER_0_38_164
*1647 FILLER_0_38_176
*1648 FILLER_0_38_184
*1649 FILLER_0_38_197
*1650 FILLER_0_38_209
*1651 FILLER_0_38_221
*1652 FILLER_0_38_23
*1653 FILLER_0_38_247
*1654 FILLER_0_38_251
*1655 FILLER_0_38_253
*1656 FILLER_0_38_265
*1657 FILLER_0_38_277
*1658 FILLER_0_38_289
*1659 FILLER_0_38_3
*1660 FILLER_0_38_301
*1661 FILLER_0_38_305
*1662 FILLER_0_38_45
*1663 FILLER_0_38_78
*1664 FILLER_0_38_85
*1665 FILLER_0_38_93
*1666 FILLER_0_39_106
*1667 FILLER_0_39_136
*1668 FILLER_0_39_15
*1669 FILLER_0_39_152
*1670 FILLER_0_39_160
*1671 FILLER_0_39_166
*1672 FILLER_0_39_169
*1673 FILLER_0_39_175
*1674 FILLER_0_39_187
*1675 FILLER_0_39_195
*1676 FILLER_0_39_223
*1677 FILLER_0_39_252
*1678 FILLER_0_39_264
*1679 FILLER_0_39_27
*1680 FILLER_0_39_276
*1681 FILLER_0_39_281
*1682 FILLER_0_39_293
*1683 FILLER_0_39_3
*1684 FILLER_0_39_305
*1685 FILLER_0_39_35
*1686 FILLER_0_39_41
*1687 FILLER_0_39_54
*1688 FILLER_0_39_65
*1689 FILLER_0_39_84
*1690 FILLER_0_39_88
*1691 FILLER_0_3_105
*1692 FILLER_0_3_111
*1693 FILLER_0_3_113
*1694 FILLER_0_3_134
*1695 FILLER_0_3_15
*1696 FILLER_0_3_169
*1697 FILLER_0_3_186
*1698 FILLER_0_3_225
*1699 FILLER_0_3_237
*1700 FILLER_0_3_249
*1701 FILLER_0_3_261
*1702 FILLER_0_3_27
*1703 FILLER_0_3_273
*1704 FILLER_0_3_279
*1705 FILLER_0_3_281
*1706 FILLER_0_3_293
*1707 FILLER_0_3_3
*1708 FILLER_0_3_305
*1709 FILLER_0_3_39
*1710 FILLER_0_3_51
*1711 FILLER_0_3_55
*1712 FILLER_0_3_57
*1713 FILLER_0_3_69
*1714 FILLER_0_3_81
*1715 FILLER_0_3_93
*1716 FILLER_0_40_110
*1717 FILLER_0_40_128
*1718 FILLER_0_40_141
*1719 FILLER_0_40_15
*1720 FILLER_0_40_158
*1721 FILLER_0_40_186
*1722 FILLER_0_40_194
*1723 FILLER_0_40_224
*1724 FILLER_0_40_249
*1725 FILLER_0_40_261
*1726 FILLER_0_40_27
*1727 FILLER_0_40_273
*1728 FILLER_0_40_285
*1729 FILLER_0_40_29
*1730 FILLER_0_40_297
*1731 FILLER_0_40_3
*1732 FILLER_0_40_305
*1733 FILLER_0_40_34
*1734 FILLER_0_40_46
*1735 FILLER_0_40_54
*1736 FILLER_0_40_62
*1737 FILLER_0_40_79
*1738 FILLER_0_41_105
*1739 FILLER_0_41_110
*1740 FILLER_0_41_113
*1741 FILLER_0_41_132
*1742 FILLER_0_41_15
*1743 FILLER_0_41_160
*1744 FILLER_0_41_165
*1745 FILLER_0_41_185
*1746 FILLER_0_41_220
*1747 FILLER_0_41_248
*1748 FILLER_0_41_260
*1749 FILLER_0_41_272
*1750 FILLER_0_41_281
*1751 FILLER_0_41_293
*1752 FILLER_0_41_3
*1753 FILLER_0_41_305
*1754 FILLER_0_41_52
*1755 FILLER_0_41_74
*1756 FILLER_0_41_84
*1757 FILLER_0_41_88
*1758 FILLER_0_42_103
*1759 FILLER_0_42_113
*1760 FILLER_0_42_125
*1761 FILLER_0_42_139
*1762 FILLER_0_42_141
*1763 FILLER_0_42_15
*1764 FILLER_0_42_160
*1765 FILLER_0_42_179
*1766 FILLER_0_42_191
*1767 FILLER_0_42_195
*1768 FILLER_0_42_197
*1769 FILLER_0_42_222
*1770 FILLER_0_42_230
*1771 FILLER_0_42_247
*1772 FILLER_0_42_251
*1773 FILLER_0_42_253
*1774 FILLER_0_42_265
*1775 FILLER_0_42_27
*1776 FILLER_0_42_277
*1777 FILLER_0_42_289
*1778 FILLER_0_42_3
*1779 FILLER_0_42_301
*1780 FILLER_0_42_305
*1781 FILLER_0_42_62
*1782 FILLER_0_42_75
*1783 FILLER_0_42_83
*1784 FILLER_0_42_85
*1785 FILLER_0_42_91
*1786 FILLER_0_42_95
*1787 FILLER_0_43_102
*1788 FILLER_0_43_108
*1789 FILLER_0_43_113
*1790 FILLER_0_43_124
*1791 FILLER_0_43_136
*1792 FILLER_0_43_144
*1793 FILLER_0_43_15
*1794 FILLER_0_43_165
*1795 FILLER_0_43_169
*1796 FILLER_0_43_183
*1797 FILLER_0_43_187
*1798 FILLER_0_43_193
*1799 FILLER_0_43_209
*1800 FILLER_0_43_221
*1801 FILLER_0_43_225
*1802 FILLER_0_43_237
*1803 FILLER_0_43_249
*1804 FILLER_0_43_261
*1805 FILLER_0_43_27
*1806 FILLER_0_43_273
*1807 FILLER_0_43_279
*1808 FILLER_0_43_281
*1809 FILLER_0_43_293
*1810 FILLER_0_43_3
*1811 FILLER_0_43_305
*1812 FILLER_0_43_31
*1813 FILLER_0_43_35
*1814 FILLER_0_43_43
*1815 FILLER_0_43_54
*1816 FILLER_0_43_57
*1817 FILLER_0_43_84
*1818 FILLER_0_43_96
*1819 FILLER_0_44_111
*1820 FILLER_0_44_139
*1821 FILLER_0_44_141
*1822 FILLER_0_44_149
*1823 FILLER_0_44_15
*1824 FILLER_0_44_153
*1825 FILLER_0_44_161
*1826 FILLER_0_44_167
*1827 FILLER_0_44_179
*1828 FILLER_0_44_191
*1829 FILLER_0_44_195
*1830 FILLER_0_44_197
*1831 FILLER_0_44_209
*1832 FILLER_0_44_221
*1833 FILLER_0_44_233
*1834 FILLER_0_44_245
*1835 FILLER_0_44_251
*1836 FILLER_0_44_253
*1837 FILLER_0_44_265
*1838 FILLER_0_44_27
*1839 FILLER_0_44_277
*1840 FILLER_0_44_289
*1841 FILLER_0_44_29
*1842 FILLER_0_44_3
*1843 FILLER_0_44_301
*1844 FILLER_0_44_305
*1845 FILLER_0_44_41
*1846 FILLER_0_44_83
*1847 FILLER_0_44_93
*1848 FILLER_0_45_129
*1849 FILLER_0_45_140
*1850 FILLER_0_45_15
*1851 FILLER_0_45_151
*1852 FILLER_0_45_169
*1853 FILLER_0_45_180
*1854 FILLER_0_45_201
*1855 FILLER_0_45_213
*1856 FILLER_0_45_221
*1857 FILLER_0_45_225
*1858 FILLER_0_45_237
*1859 FILLER_0_45_249
*1860 FILLER_0_45_261
*1861 FILLER_0_45_27
*1862 FILLER_0_45_273
*1863 FILLER_0_45_279
*1864 FILLER_0_45_281
*1865 FILLER_0_45_293
*1866 FILLER_0_45_3
*1867 FILLER_0_45_305
*1868 FILLER_0_45_39
*1869 FILLER_0_45_47
*1870 FILLER_0_45_73
*1871 FILLER_0_45_84
*1872 FILLER_0_45_93
*1873 FILLER_0_46_110
*1874 FILLER_0_46_15
*1875 FILLER_0_46_153
*1876 FILLER_0_46_206
*1877 FILLER_0_46_218
*1878 FILLER_0_46_230
*1879 FILLER_0_46_242
*1880 FILLER_0_46_250
*1881 FILLER_0_46_253
*1882 FILLER_0_46_265
*1883 FILLER_0_46_27
*1884 FILLER_0_46_277
*1885 FILLER_0_46_289
*1886 FILLER_0_46_29
*1887 FILLER_0_46_3
*1888 FILLER_0_46_301
*1889 FILLER_0_46_305
*1890 FILLER_0_46_41
*1891 FILLER_0_46_53
*1892 FILLER_0_46_65
*1893 FILLER_0_46_77
*1894 FILLER_0_46_83
*1895 FILLER_0_47_113
*1896 FILLER_0_47_124
*1897 FILLER_0_47_128
*1898 FILLER_0_47_15
*1899 FILLER_0_47_207
*1900 FILLER_0_47_219
*1901 FILLER_0_47_223
*1902 FILLER_0_47_225
*1903 FILLER_0_47_237
*1904 FILLER_0_47_249
*1905 FILLER_0_47_261
*1906 FILLER_0_47_27
*1907 FILLER_0_47_273
*1908 FILLER_0_47_279
*1909 FILLER_0_47_281
*1910 FILLER_0_47_293
*1911 FILLER_0_47_3
*1912 FILLER_0_47_305
*1913 FILLER_0_47_39
*1914 FILLER_0_47_51
*1915 FILLER_0_47_55
*1916 FILLER_0_47_57
*1917 FILLER_0_47_69
*1918 FILLER_0_47_77
*1919 FILLER_0_48_105
*1920 FILLER_0_48_123
*1921 FILLER_0_48_144
*1922 FILLER_0_48_15
*1923 FILLER_0_48_194
*1924 FILLER_0_48_205
*1925 FILLER_0_48_217
*1926 FILLER_0_48_229
*1927 FILLER_0_48_241
*1928 FILLER_0_48_249
*1929 FILLER_0_48_253
*1930 FILLER_0_48_265
*1931 FILLER_0_48_27
*1932 FILLER_0_48_277
*1933 FILLER_0_48_289
*1934 FILLER_0_48_29
*1935 FILLER_0_48_3
*1936 FILLER_0_48_301
*1937 FILLER_0_48_305
*1938 FILLER_0_48_41
*1939 FILLER_0_48_53
*1940 FILLER_0_48_65
*1941 FILLER_0_48_77
*1942 FILLER_0_48_83
*1943 FILLER_0_48_88
*1944 FILLER_0_49_140
*1945 FILLER_0_49_15
*1946 FILLER_0_49_152
*1947 FILLER_0_49_164
*1948 FILLER_0_49_193
*1949 FILLER_0_49_205
*1950 FILLER_0_49_217
*1951 FILLER_0_49_223
*1952 FILLER_0_49_225
*1953 FILLER_0_49_237
*1954 FILLER_0_49_249
*1955 FILLER_0_49_261
*1956 FILLER_0_49_27
*1957 FILLER_0_49_273
*1958 FILLER_0_49_279
*1959 FILLER_0_49_281
*1960 FILLER_0_49_293
*1961 FILLER_0_49_3
*1962 FILLER_0_49_305
*1963 FILLER_0_49_39
*1964 FILLER_0_49_51
*1965 FILLER_0_49_55
*1966 FILLER_0_49_57
*1967 FILLER_0_49_69
*1968 FILLER_0_49_81
*1969 FILLER_0_49_89
*1970 FILLER_0_49_95
*1971 FILLER_0_4_109
*1972 FILLER_0_4_135
*1973 FILLER_0_4_139
*1974 FILLER_0_4_15
*1975 FILLER_0_4_150
*1976 FILLER_0_4_163
*1977 FILLER_0_4_193
*1978 FILLER_0_4_232
*1979 FILLER_0_4_244
*1980 FILLER_0_4_253
*1981 FILLER_0_4_265
*1982 FILLER_0_4_27
*1983 FILLER_0_4_277
*1984 FILLER_0_4_289
*1985 FILLER_0_4_29
*1986 FILLER_0_4_3
*1987 FILLER_0_4_301
*1988 FILLER_0_4_305
*1989 FILLER_0_4_41
*1990 FILLER_0_4_53
*1991 FILLER_0_4_65
*1992 FILLER_0_4_77
*1993 FILLER_0_4_83
*1994 FILLER_0_4_85
*1995 FILLER_0_4_97
*1996 FILLER_0_50_111
*1997 FILLER_0_50_123
*1998 FILLER_0_50_132
*1999 FILLER_0_50_141
*2000 FILLER_0_50_15
*2001 FILLER_0_50_153
*2002 FILLER_0_50_165
*2003 FILLER_0_50_177
*2004 FILLER_0_50_181
*2005 FILLER_0_50_193
*2006 FILLER_0_50_197
*2007 FILLER_0_50_209
*2008 FILLER_0_50_221
*2009 FILLER_0_50_233
*2010 FILLER_0_50_245
*2011 FILLER_0_50_251
*2012 FILLER_0_50_253
*2013 FILLER_0_50_265
*2014 FILLER_0_50_27
*2015 FILLER_0_50_277
*2016 FILLER_0_50_289
*2017 FILLER_0_50_29
*2018 FILLER_0_50_3
*2019 FILLER_0_50_301
*2020 FILLER_0_50_305
*2021 FILLER_0_50_41
*2022 FILLER_0_50_53
*2023 FILLER_0_50_65
*2024 FILLER_0_50_77
*2025 FILLER_0_50_83
*2026 FILLER_0_50_85
*2027 FILLER_0_50_97
*2028 FILLER_0_51_109
*2029 FILLER_0_51_113
*2030 FILLER_0_51_125
*2031 FILLER_0_51_137
*2032 FILLER_0_51_141
*2033 FILLER_0_51_15
*2034 FILLER_0_51_153
*2035 FILLER_0_51_165
*2036 FILLER_0_51_169
*2037 FILLER_0_51_181
*2038 FILLER_0_51_189
*2039 FILLER_0_51_195
*2040 FILLER_0_51_197
*2041 FILLER_0_51_209
*2042 FILLER_0_51_221
*2043 FILLER_0_51_225
*2044 FILLER_0_51_237
*2045 FILLER_0_51_249
*2046 FILLER_0_51_253
*2047 FILLER_0_51_265
*2048 FILLER_0_51_27
*2049 FILLER_0_51_277
*2050 FILLER_0_51_281
*2051 FILLER_0_51_29
*2052 FILLER_0_51_293
*2053 FILLER_0_51_3
*2054 FILLER_0_51_305
*2055 FILLER_0_51_41
*2056 FILLER_0_51_53
*2057 FILLER_0_51_57
*2058 FILLER_0_51_69
*2059 FILLER_0_51_81
*2060 FILLER_0_51_85
*2061 FILLER_0_51_97
*2062 FILLER_0_5_105
*2063 FILLER_0_5_111
*2064 FILLER_0_5_129
*2065 FILLER_0_5_139
*2066 FILLER_0_5_148
*2067 FILLER_0_5_15
*2068 FILLER_0_5_185
*2069 FILLER_0_5_194
*2070 FILLER_0_5_241
*2071 FILLER_0_5_253
*2072 FILLER_0_5_265
*2073 FILLER_0_5_27
*2074 FILLER_0_5_277
*2075 FILLER_0_5_281
*2076 FILLER_0_5_293
*2077 FILLER_0_5_3
*2078 FILLER_0_5_305
*2079 FILLER_0_5_39
*2080 FILLER_0_5_51
*2081 FILLER_0_5_55
*2082 FILLER_0_5_57
*2083 FILLER_0_5_69
*2084 FILLER_0_5_81
*2085 FILLER_0_5_93
*2086 FILLER_0_6_101
*2087 FILLER_0_6_113
*2088 FILLER_0_6_119
*2089 FILLER_0_6_137
*2090 FILLER_0_6_149
*2091 FILLER_0_6_15
*2092 FILLER_0_6_161
*2093 FILLER_0_6_181
*2094 FILLER_0_6_193
*2095 FILLER_0_6_204
*2096 FILLER_0_6_239
*2097 FILLER_0_6_251
*2098 FILLER_0_6_253
*2099 FILLER_0_6_265
*2100 FILLER_0_6_27
*2101 FILLER_0_6_277
*2102 FILLER_0_6_289
*2103 FILLER_0_6_29
*2104 FILLER_0_6_3
*2105 FILLER_0_6_301
*2106 FILLER_0_6_305
*2107 FILLER_0_6_41
*2108 FILLER_0_6_49
*2109 FILLER_0_6_71
*2110 FILLER_0_6_83
*2111 FILLER_0_7_107
*2112 FILLER_0_7_111
*2113 FILLER_0_7_144
*2114 FILLER_0_7_15
*2115 FILLER_0_7_150
*2116 FILLER_0_7_157
*2117 FILLER_0_7_164
*2118 FILLER_0_7_176
*2119 FILLER_0_7_188
*2120 FILLER_0_7_200
*2121 FILLER_0_7_211
*2122 FILLER_0_7_223
*2123 FILLER_0_7_233
*2124 FILLER_0_7_239
*2125 FILLER_0_7_243
*2126 FILLER_0_7_255
*2127 FILLER_0_7_267
*2128 FILLER_0_7_27
*2129 FILLER_0_7_279
*2130 FILLER_0_7_281
*2131 FILLER_0_7_293
*2132 FILLER_0_7_3
*2133 FILLER_0_7_305
*2134 FILLER_0_7_39
*2135 FILLER_0_7_66
*2136 FILLER_0_7_75
*2137 FILLER_0_7_95
*2138 FILLER_0_8_102
*2139 FILLER_0_8_145
*2140 FILLER_0_8_15
*2141 FILLER_0_8_153
*2142 FILLER_0_8_194
*2143 FILLER_0_8_226
*2144 FILLER_0_8_253
*2145 FILLER_0_8_261
*2146 FILLER_0_8_27
*2147 FILLER_0_8_283
*2148 FILLER_0_8_29
*2149 FILLER_0_8_295
*2150 FILLER_0_8_3
*2151 FILLER_0_8_303
*2152 FILLER_0_8_41
*2153 FILLER_0_8_72
*2154 FILLER_0_9_109
*2155 FILLER_0_9_113
*2156 FILLER_0_9_15
*2157 FILLER_0_9_159
*2158 FILLER_0_9_186
*2159 FILLER_0_9_220
*2160 FILLER_0_9_225
*2161 FILLER_0_9_231
*2162 FILLER_0_9_27
*2163 FILLER_0_9_279
*2164 FILLER_0_9_3
*2165 FILLER_0_9_301
*2166 FILLER_0_9_305
*2167 FILLER_0_9_46
*2168 FILLER_0_9_50
*2169 FILLER_0_9_54
*2170 FILLER_0_9_81
*2171 FILLER_0_9_91
*2172 FILLER_0_9_97
*2173 PHY_0
*2174 PHY_1
*2175 PHY_10
*2176 PHY_100
*2177 PHY_101
*2178 PHY_102
*2179 PHY_103
*2180 PHY_11
*2181 PHY_12
*2182 PHY_13
*2183 PHY_14
*2184 PHY_15
*2185 PHY_16
*2186 PHY_17
*2187 PHY_18
*2188 PHY_19
*2189 PHY_2
*2190 PHY_20
*2191 PHY_21
*2192 PHY_22
*2193 PHY_23
*2194 PHY_24
*2195 PHY_25
*2196 PHY_26
*2197 PHY_27
*2198 PHY_28
*2199 PHY_29
*2200 PHY_3
*2201 PHY_30
*2202 PHY_31
*2203 PHY_32
*2204 PHY_33
*2205 PHY_34
*2206 PHY_35
*2207 PHY_36
*2208 PHY_37
*2209 PHY_38
*2210 PHY_39
*2211 PHY_4
*2212 PHY_40
*2213 PHY_41
*2214 PHY_42
*2215 PHY_43
*2216 PHY_44
*2217 PHY_45
*2218 PHY_46
*2219 PHY_47
*2220 PHY_48
*2221 PHY_49
*2222 PHY_5
*2223 PHY_50
*2224 PHY_51
*2225 PHY_52
*2226 PHY_53
*2227 PHY_54
*2228 PHY_55
*2229 PHY_56
*2230 PHY_57
*2231 PHY_58
*2232 PHY_59
*2233 PHY_6
*2234 PHY_60
*2235 PHY_61
*2236 PHY_62
*2237 PHY_63
*2238 PHY_64
*2239 PHY_65
*2240 PHY_66
*2241 PHY_67
*2242 PHY_68
*2243 PHY_69
*2244 PHY_7
*2245 PHY_70
*2246 PHY_71
*2247 PHY_72
*2248 PHY_73
*2249 PHY_74
*2250 PHY_75
*2251 PHY_76
*2252 PHY_77
*2253 PHY_78
*2254 PHY_79
*2255 PHY_8
*2256 PHY_80
*2257 PHY_81
*2258 PHY_82
*2259 PHY_83
*2260 PHY_84
*2261 PHY_85
*2262 PHY_86
*2263 PHY_87
*2264 PHY_88
*2265 PHY_89
*2266 PHY_9
*2267 PHY_90
*2268 PHY_91
*2269 PHY_92
*2270 PHY_93
*2271 PHY_94
*2272 PHY_95
*2273 PHY_96
*2274 PHY_97
*2275 PHY_98
*2276 PHY_99
*2277 TAP_104
*2278 TAP_105
*2279 TAP_106
*2280 TAP_107
*2281 TAP_108
*2282 TAP_109
*2283 TAP_110
*2284 TAP_111
*2285 TAP_112
*2286 TAP_113
*2287 TAP_114
*2288 TAP_115
*2289 TAP_116
*2290 TAP_117
*2291 TAP_118
*2292 TAP_119
*2293 TAP_120
*2294 TAP_121
*2295 TAP_122
*2296 TAP_123
*2297 TAP_124
*2298 TAP_125
*2299 TAP_126
*2300 TAP_127
*2301 TAP_128
*2302 TAP_129
*2303 TAP_130
*2304 TAP_131
*2305 TAP_132
*2306 TAP_133
*2307 TAP_134
*2308 TAP_135
*2309 TAP_136
*2310 TAP_137
*2311 TAP_138
*2312 TAP_139
*2313 TAP_140
*2314 TAP_141
*2315 TAP_142
*2316 TAP_143
*2317 TAP_144
*2318 TAP_145
*2319 TAP_146
*2320 TAP_147
*2321 TAP_148
*2322 TAP_149
*2323 TAP_150
*2324 TAP_151
*2325 TAP_152
*2326 TAP_153
*2327 TAP_154
*2328 TAP_155
*2329 TAP_156
*2330 TAP_157
*2331 TAP_158
*2332 TAP_159
*2333 TAP_160
*2334 TAP_161
*2335 TAP_162
*2336 TAP_163
*2337 TAP_164
*2338 TAP_165
*2339 TAP_166
*2340 TAP_167
*2341 TAP_168
*2342 TAP_169
*2343 TAP_170
*2344 TAP_171
*2345 TAP_172
*2346 TAP_173
*2347 TAP_174
*2348 TAP_175
*2349 TAP_176
*2350 TAP_177
*2351 TAP_178
*2352 TAP_179
*2353 TAP_180
*2354 TAP_181
*2355 TAP_182
*2356 TAP_183
*2357 TAP_184
*2358 TAP_185
*2359 TAP_186
*2360 TAP_187
*2361 TAP_188
*2362 TAP_189
*2363 TAP_190
*2364 TAP_191
*2365 TAP_192
*2366 TAP_193
*2367 TAP_194
*2368 TAP_195
*2369 TAP_196
*2370 TAP_197
*2371 TAP_198
*2372 TAP_199
*2373 TAP_200
*2374 TAP_201
*2375 TAP_202
*2376 TAP_203
*2377 TAP_204
*2378 TAP_205
*2379 TAP_206
*2380 TAP_207
*2381 TAP_208
*2382 TAP_209
*2383 TAP_210
*2384 TAP_211
*2385 TAP_212
*2386 TAP_213
*2387 TAP_214
*2388 TAP_215
*2389 TAP_216
*2390 TAP_217
*2391 TAP_218
*2392 TAP_219
*2393 TAP_220
*2394 TAP_221
*2395 TAP_222
*2396 TAP_223
*2397 TAP_224
*2398 TAP_225
*2399 TAP_226
*2400 TAP_227
*2401 TAP_228
*2402 TAP_229
*2403 TAP_230
*2404 TAP_231
*2405 TAP_232
*2406 TAP_233
*2407 TAP_234
*2408 TAP_235
*2409 TAP_236
*2410 TAP_237
*2411 TAP_238
*2412 TAP_239
*2413 TAP_240
*2414 TAP_241
*2415 TAP_242
*2416 TAP_243
*2417 TAP_244
*2418 TAP_245
*2419 TAP_246
*2420 TAP_247
*2421 TAP_248
*2422 TAP_249
*2423 TAP_250
*2424 TAP_251
*2425 TAP_252
*2426 TAP_253
*2427 TAP_254
*2428 TAP_255
*2429 TAP_256
*2430 TAP_257
*2431 TAP_258
*2432 TAP_259
*2433 TAP_260
*2434 TAP_261
*2435 TAP_262
*2436 TAP_263
*2437 TAP_264
*2438 TAP_265
*2439 TAP_266
*2440 TAP_267
*2441 TAP_268
*2442 TAP_269
*2443 TAP_270
*2444 TAP_271
*2445 TAP_272
*2446 TAP_273
*2447 TAP_274
*2448 TAP_275
*2449 TAP_276
*2450 TAP_277
*2451 TAP_278
*2452 TAP_279
*2453 TAP_280
*2454 TAP_281
*2455 TAP_282
*2456 TAP_283
*2457 TAP_284
*2458 TAP_285
*2459 TAP_286
*2460 TAP_287
*2461 TAP_288
*2462 TAP_289
*2463 TAP_290
*2464 TAP_291
*2465 TAP_292
*2466 TAP_293
*2467 TAP_294
*2468 TAP_295
*2469 TAP_296
*2470 TAP_297
*2471 TAP_298
*2472 TAP_299
*2473 TAP_300
*2474 TAP_301
*2475 TAP_302
*2476 TAP_303
*2477 TAP_304
*2478 TAP_305
*2479 TAP_306
*2480 TAP_307
*2481 TAP_308
*2482 TAP_309
*2483 TAP_310
*2484 TAP_311
*2485 TAP_312
*2486 TAP_313
*2487 TAP_314
*2488 TAP_315
*2489 TAP_316
*2490 TAP_317
*2491 TAP_318
*2492 TAP_319
*2493 TAP_320
*2494 TAP_321
*2495 TAP_322
*2496 TAP_323
*2497 TAP_324
*2498 TAP_325
*2499 TAP_326
*2500 TAP_327
*2501 TAP_328
*2502 TAP_329
*2503 TAP_330
*2504 TAP_331
*2505 TAP_332
*2506 TAP_333
*2507 TAP_334
*2508 TAP_335
*2509 TAP_336
*2510 TAP_337
*2511 TAP_338
*2512 TAP_339
*2513 TAP_340
*2514 TAP_341
*2515 TAP_342
*2516 TAP_343
*2517 TAP_344
*2518 TAP_345
*2519 TAP_346
*2520 TAP_347
*2521 TAP_348
*2522 TAP_349
*2523 TAP_350
*2524 TAP_351
*2525 TAP_352
*2526 TAP_353
*2527 TAP_354
*2528 TAP_355
*2529 TAP_356
*2530 TAP_357
*2531 TAP_358
*2532 TAP_359
*2533 TAP_360
*2534 TAP_361
*2535 TAP_362
*2536 TAP_363
*2537 TAP_364
*2538 TAP_365
*2539 TAP_366
*2540 TAP_367
*2541 TAP_368
*2542 TAP_369
*2543 TAP_370
*2544 TAP_371
*2545 TAP_372
*2546 TAP_373
*2547 _0582_
*2548 _0583_
*2549 _0584_
*2550 _0585_
*2551 _0586_
*2552 _0587_
*2553 _0588_
*2554 _0589_
*2555 _0590_
*2556 _0591_
*2557 _0592_
*2558 _0593_
*2559 _0594_
*2560 _0595_
*2561 _0596_
*2562 _0597_
*2563 _0598_
*2564 _0599_
*2565 _0600_
*2566 _0601_
*2567 _0602_
*2568 _0603_
*2569 _0604_
*2570 _0605_
*2571 _0606_
*2572 _0607_
*2573 _0608_
*2574 _0609_
*2575 _0610_
*2576 _0611_
*2577 _0612_
*2578 _0613_
*2579 _0614_
*2580 _0615_
*2581 _0616_
*2582 _0617_
*2583 _0618_
*2584 _0619_
*2585 _0620_
*2586 _0621_
*2587 _0622_
*2588 _0623_
*2589 _0624_
*2590 _0625_
*2591 _0626_
*2592 _0627_
*2593 _0628_
*2594 _0629_
*2595 _0630_
*2596 _0631_
*2597 _0632_
*2598 _0633_
*2599 _0634_
*2600 _0635_
*2601 _0636_
*2602 _0637_
*2603 _0638_
*2604 _0639_
*2605 _0640_
*2606 _0641_
*2607 _0642_
*2608 _0643_
*2609 _0644_
*2610 _0645_
*2611 _0646_
*2612 _0647_
*2613 _0648_
*2614 _0649_
*2615 _0650_
*2616 _0651_
*2617 _0652_
*2618 _0653_
*2619 _0654_
*2620 _0655_
*2621 _0656_
*2622 _0657_
*2623 _0658_
*2624 _0659_
*2625 _0660_
*2626 _0661_
*2627 _0662_
*2628 _0663_
*2629 _0664_
*2630 _0665_
*2631 _0666_
*2632 _0667_
*2633 _0668_
*2634 _0669_
*2635 _0670_
*2636 _0671_
*2637 _0672_
*2638 _0673_
*2639 _0674_
*2640 _0675_
*2641 _0676_
*2642 _0677_
*2643 _0678_
*2644 _0679_
*2645 _0680_
*2646 _0681_
*2647 _0682_
*2648 _0683_
*2649 _0684_
*2650 _0685_
*2651 _0686_
*2652 _0687_
*2653 _0688_
*2654 _0689_
*2655 _0690_
*2656 _0691_
*2657 _0692_
*2658 _0693_
*2659 _0694_
*2660 _0695_
*2661 _0696_
*2662 _0697_
*2663 _0698_
*2664 _0699_
*2665 _0700_
*2666 _0701_
*2667 _0702_
*2668 _0703_
*2669 _0704_
*2670 _0705_
*2671 _0706_
*2672 _0707_
*2673 _0708_
*2674 _0709_
*2675 _0710_
*2676 _0711_
*2677 _0712_
*2678 _0713_
*2679 _0714_
*2680 _0715_
*2681 _0716_
*2682 _0717_
*2683 _0718_
*2684 _0719_
*2685 _0720_
*2686 _0721_
*2687 _0722_
*2688 _0723_
*2689 _0724_
*2690 _0725_
*2691 _0726_
*2692 _0727_
*2693 _0728_
*2694 _0729_
*2695 _0730_
*2696 _0731_
*2697 _0732_
*2698 _0733_
*2699 _0734_
*2700 _0735_
*2701 _0736_
*2702 _0737_
*2703 _0738_
*2704 _0739_
*2705 _0740_
*2706 _0741_
*2707 _0742_
*2708 _0743_
*2709 _0744_
*2710 _0745_
*2711 _0746_
*2712 _0747_
*2713 _0748_
*2714 _0749_
*2715 _0750_
*2716 _0751_
*2717 _0752_
*2718 _0753_
*2719 _0754_
*2720 _0755_
*2721 _0756_
*2722 _0757_
*2723 _0758_
*2724 _0759_
*2725 _0760_
*2726 _0761_
*2727 _0762_
*2728 _0763_
*2729 _0764_
*2730 _0765_
*2731 _0766_
*2732 _0767_
*2733 _0768_
*2734 _0769_
*2735 _0770_
*2736 _0771_
*2737 _0772_
*2738 _0773_
*2739 _0774_
*2740 _0775_
*2741 _0776_
*2742 _0777_
*2743 _0778_
*2744 _0779_
*2745 _0780_
*2746 _0781_
*2747 _0782_
*2748 _0783_
*2749 _0784_
*2750 _0785_
*2751 _0786_
*2752 _0787_
*2753 _0788_
*2754 _0789_
*2755 _0790_
*2756 _0791_
*2757 _0792_
*2758 _0793_
*2759 _0794_
*2760 _0795_
*2761 _0796_
*2762 _0797_
*2763 _0798_
*2764 _0799_
*2765 _0800_
*2766 _0801_
*2767 _0802_
*2768 _0803_
*2769 _0804_
*2770 _0805_
*2771 _0806_
*2772 _0807_
*2773 _0808_
*2774 _0809_
*2775 _0810_
*2776 _0811_
*2777 _0812_
*2778 _0813_
*2779 _0814_
*2780 _0815_
*2781 _0816_
*2782 _0817_
*2783 _0818_
*2784 _0819_
*2785 _0820_
*2786 _0821_
*2787 _0822_
*2788 _0823_
*2789 _0824_
*2790 _0825_
*2791 _0826_
*2792 _0827_
*2793 _0828_
*2794 _0829_
*2795 _0830_
*2796 _0831_
*2797 _0832_
*2798 _0833_
*2799 _0834_
*2800 _0835_
*2801 _0836_
*2802 _0837_
*2803 _0838_
*2804 _0839_
*2805 _0840_
*2806 _0841_
*2807 _0842_
*2808 _0843_
*2809 _0844_
*2810 _0845_
*2811 _0846_
*2812 _0847_
*2813 _0848_
*2814 _0849_
*2815 _0850_
*2816 _0851_
*2817 _0852_
*2818 _0853_
*2819 _0854_
*2820 _0855_
*2821 _0856_
*2822 _0857_
*2823 _0858_
*2824 _0859_
*2825 _0860_
*2826 _0861_
*2827 _0862_
*2828 _0863_
*2829 _0864_
*2830 _0865_
*2831 _0866_
*2832 _0867_
*2833 _0868_
*2834 _0869_
*2835 _0870_
*2836 _0871_
*2837 _0872_
*2838 _0873_
*2839 _0874_
*2840 _0875_
*2841 _0876_
*2842 _0877_
*2843 _0878_
*2844 _0879_
*2845 _0880_
*2846 _0881_
*2847 _0882_
*2848 _0883_
*2849 _0884_
*2850 _0885_
*2851 _0886_
*2852 _0887_
*2853 _0888_
*2854 _0889_
*2855 _0890_
*2856 _0891_
*2857 _0892_
*2858 _0893_
*2859 _0894_
*2860 _0895_
*2861 _0896_
*2862 _0897_
*2863 _0898_
*2864 _0899_
*2865 _0900_
*2866 _0901_
*2867 _0902_
*2868 _0903_
*2869 _0904_
*2870 _0905_
*2871 _0906_
*2872 _0907_
*2873 _0908_
*2874 _0909_
*2875 _0910_
*2876 _0911_
*2877 _0912_
*2878 _0913_
*2879 _0914_
*2880 _0915_
*2881 _0916_
*2882 _0917_
*2883 _0918_
*2884 _0919_
*2885 _0920_
*2886 _0921_
*2887 _0922_
*2888 _0923_
*2889 _0924_
*2890 _0925_
*2891 _0926_
*2892 _0927_
*2893 _0928_
*2894 _0929_
*2895 _0930_
*2896 _0931_
*2897 _0932_
*2898 _0933_
*2899 _0934_
*2900 _0935_
*2901 _0936_
*2902 _0937_
*2903 _0938_
*2904 _0939_
*2905 _0940_
*2906 _0941_
*2907 _0942_
*2908 _0943_
*2909 _0944_
*2910 _0945_
*2911 _0946_
*2912 _0947_
*2913 _0948_
*2914 _0949_
*2915 _0950_
*2916 _0951_
*2917 _0952_
*2918 _0953_
*2919 _0954_
*2920 _0955_
*2921 _0956_
*2922 _0957_
*2923 _0958_
*2924 _0959_
*2925 _0960_
*2926 _0961_
*2927 _0962_
*2928 _0963_
*2929 _0964_
*2930 _0965_
*2931 _0966_
*2932 _0967_
*2933 _0968_
*2934 _0969_
*2935 _0970_
*2936 _0971_
*2937 _0972_
*2938 _0973_
*2939 _0974_
*2940 _0975_
*2941 _0976_
*2942 _0977_
*2943 _0978_
*2944 _0979_
*2945 _0980_
*2946 _0981_
*2947 _0982_
*2948 _0983_
*2949 _0984_
*2950 _0985_
*2951 _0986_
*2952 _0987_
*2953 _0988_
*2954 _0989_
*2955 _0990_
*2956 _0991_
*2957 _0992_
*2958 _0993_
*2959 _0994_
*2960 _0995_
*2961 _0996_
*2962 _0997_
*2963 _0998_
*2964 _0999_
*2965 _1000_
*2966 _1001_
*2967 _1002_
*2968 _1003_
*2969 _1004_
*2970 _1005_
*2971 _1006_
*2972 _1007_
*2973 _1008_
*2974 _1009_
*2975 _1010_
*2976 _1011_
*2977 _1012_
*2978 _1013_
*2979 _1014_
*2980 _1015_
*2981 _1016_
*2982 _1017_
*2983 _1018_
*2984 _1019_
*2985 _1020_
*2986 _1021_
*2987 _1022_
*2988 _1023_
*2989 _1024_
*2990 _1025_
*2991 _1026_
*2992 _1027_
*2993 _1028_
*2994 _1029_
*2995 _1030_
*2996 _1031_
*2997 _1032_
*2998 _1033_
*2999 _1034_
*3000 _1035_
*3001 _1036_
*3002 _1037_
*3003 _1038_
*3004 _1039_
*3005 _1040_
*3006 _1041_
*3007 _1042_
*3008 _1043_
*3009 _1044_
*3010 _1045_
*3011 _1046_
*3012 _1047_
*3013 _1048_
*3014 _1049_
*3015 _1050_
*3016 _1051_
*3017 _1052_
*3018 _1053_
*3019 _1054_
*3020 _1055_
*3021 _1056_
*3022 _1057_
*3023 _1058_
*3024 _1059_
*3025 _1060_
*3026 _1061_
*3027 _1062_
*3028 _1063_
*3029 _1064_
*3030 _1065_
*3031 _1066_
*3032 _1067_
*3033 _1068_
*3034 _1069_
*3035 _1070_
*3036 _1071_
*3037 _1072_
*3038 _1073_
*3039 _1074_
*3040 _1075_
*3041 _1076_
*3042 _1077_
*3043 _1078_
*3044 _1079_
*3045 _1080_
*3046 _1081_
*3047 _1082_
*3048 _1083_
*3049 _1084_
*3050 _1085_
*3051 _1086_
*3052 _1087_
*3053 _1088_
*3054 _1089_
*3055 _1090_
*3056 _1091_
*3057 _1092_
*3058 _1093_
*3059 _1094_
*3060 _1095_
*3061 _1096_
*3062 _1097_
*3063 _1098_
*3064 _1099_
*3065 _1100_
*3066 _1101_
*3067 _1102_
*3068 _1103_
*3069 _1104_
*3070 _1105_
*3071 _1106_
*3072 _1107_
*3073 _1108_
*3074 _1109_
*3075 _1110_
*3076 _1111_
*3077 _1112_
*3078 _1113_
*3079 _1114_
*3080 _1115_
*3081 _1116_
*3082 _1117_
*3083 _1118_
*3084 _1119_
*3085 _1120_
*3086 _1121_
*3087 _1122_
*3088 _1123_
*3089 _1124_
*3090 _1125_
*3091 _1126_
*3092 _1127_
*3093 _1128_
*3094 _1129_
*3095 _1130_
*3096 _1131_
*3097 _1132_
*3098 _1133_
*3099 _1134_
*3100 _1135_
*3101 _1136_
*3102 _1137_
*3103 _1138_
*3104 _1139_
*3105 _1140_
*3106 _1141_
*3107 _1142_
*3108 _1143_
*3109 _1144_
*3110 _1145_
*3111 _1146_
*3112 _1147_
*3113 _1148_
*3114 _1149_
*3115 _1150_
*3116 _1151_
*3117 _1152_
*3118 _1153_
*3119 _1154_
*3120 _1155_
*3121 _1156_
*3122 _1157_
*3123 _1158_
*3124 _1159_
*3125 _1160_
*3126 _1161_
*3127 _1162_
*3128 _1163_
*3129 _1164_
*3130 _1165_
*3131 _1166_
*3132 _1167_
*3133 _1168_
*3134 _1169_
*3135 _1170_
*3136 _1171_
*3137 _1172_
*3138 _1173_
*3139 _1174_
*3140 _1175_
*3141 _1176_
*3142 _1177_
*3143 _1178_
*3144 _1179_
*3145 _1180_
*3146 _1181_
*3147 _1182_
*3148 _1183_
*3149 _1184_
*3150 _1185_
*3151 _1186_
*3152 _1187_
*3153 _1188_
*3154 _1189_
*3155 _1190_
*3156 _1191_
*3157 _1192_
*3158 _1193_
*3159 _1194_
*3160 _1195_
*3161 _1196_
*3162 _1197_
*3163 _1198_
*3164 _1199_
*3165 _1200_
*3166 _1201_
*3167 _1202_
*3168 _1203_
*3169 _1204_
*3170 _1205_
*3171 _1206_
*3172 _1207_
*3173 _1208_
*3174 _1209_
*3175 _1210_
*3176 _1211_
*3177 _1212_
*3178 _1213_
*3179 _1214_
*3180 _1215_
*3181 _1216_
*3182 _1217_
*3183 _1218_
*3184 _1219_
*3185 _1220_
*3186 _1221_
*3187 _1222_
*3188 _1223_
*3189 _1224_
*3190 _1225_
*3191 _1226_
*3192 _1227_
*3193 _1228_
*3194 _1229_
*3195 _1230_
*3196 _1231_
*3197 _1232_
*3198 _1233_
*3199 _1234_
*3200 _1235_
*3201 _1236_
*3202 _1237_
*3203 _1238_
*3204 _1239_
*3205 _1240_
*3206 _1241_
*3207 _1242_
*3208 _1243_
*3209 _1244_
*3210 _1245_
*3211 _1246_
*3212 _1247_
*3213 _1248_
*3214 _1249_
*3215 _1250_
*3216 _1251_
*3217 _1252_
*3218 _1253_
*3219 _1254_
*3220 _1255_
*3221 _1256_
*3222 _1257_
*3223 _1258_
*3224 _1259_
*3225 _1260_
*3226 _1261_
*3227 _1262_
*3228 _1263_
*3229 _1264_
*3230 _1265_
*3231 _1266_
*3232 _1267_
*3233 _1268_
*3234 _1269_
*3235 _1270_
*3236 _1271_
*3237 _1272_
*3238 _1273_
*3239 _1274_
*3240 _1275_
*3241 _1276_
*3242 _1277_
*3243 _1278_
*3244 _1279_
*3245 _1280_
*3246 _1281_
*3247 _1282_
*3248 _1283_
*3249 _1284_
*3250 _1285_
*3251 _1286_
*3252 _1287_
*3253 _1288_
*3254 _1289_
*3255 _1290_
*3256 _1291_
*3257 _1292_
*3258 _1293_
*3259 _1294_
*3260 _1295_
*3261 _1296_
*3262 _1297_
*3263 _1298_
*3264 _1299_
*3265 _1300_
*3266 _1301_
*3267 _1302_
*3268 _1303_
*3269 _1304_
*3270 _1305_
*3271 _1306_
*3272 _1307_
*3273 _1308_
*3274 _1309_
*3275 _1310_
*3276 _1311_
*3277 _1312_
*3278 _1313_
*3279 _1314_
*3280 _1315_
*3281 _1316_
*3282 _1317_
*3283 _1318_
*3284 _1319_
*3285 _1320_
*3286 _1321_
*3287 _1322_
*3288 _1323_
*3289 _1324_
*3290 _1325_
*3291 _1326_
*3292 _1327_
*3293 _1328_
*3294 _1329_
*3295 clkbuf_0_clk
*3296 clkbuf_4_0_0_clk
*3297 clkbuf_4_10_0_clk
*3298 clkbuf_4_11_0_clk
*3299 clkbuf_4_12_0_clk
*3300 clkbuf_4_13_0_clk
*3301 clkbuf_4_14_0_clk
*3302 clkbuf_4_15_0_clk
*3303 clkbuf_4_1_0_clk
*3304 clkbuf_4_2_0_clk
*3305 clkbuf_4_3_0_clk
*3306 clkbuf_4_4_0_clk
*3307 clkbuf_4_5_0_clk
*3308 clkbuf_4_6_0_clk
*3309 clkbuf_4_7_0_clk
*3310 clkbuf_4_8_0_clk
*3311 clkbuf_4_9_0_clk
*3312 fanout12
*3313 fanout13
*3314 fanout14
*3315 fanout15
*3316 fanout16
*3317 hold1
*3318 hold10
*3319 hold100
*3320 hold101
*3321 hold102
*3322 hold103
*3323 hold104
*3324 hold105
*3325 hold106
*3326 hold107
*3327 hold108
*3328 hold109
*3329 hold11
*3330 hold110
*3331 hold111
*3332 hold112
*3333 hold113
*3334 hold114
*3335 hold115
*3336 hold116
*3337 hold117
*3338 hold118
*3339 hold119
*3340 hold12
*3341 hold120
*3342 hold121
*3343 hold122
*3344 hold123
*3345 hold124
*3346 hold125
*3347 hold126
*3348 hold127
*3349 hold128
*3350 hold129
*3351 hold13
*3352 hold130
*3353 hold131
*3354 hold132
*3355 hold133
*3356 hold134
*3357 hold135
*3358 hold136
*3359 hold137
*3360 hold138
*3361 hold139
*3362 hold14
*3363 hold140
*3364 hold141
*3365 hold142
*3366 hold143
*3367 hold144
*3368 hold145
*3369 hold15
*3370 hold16
*3371 hold17
*3372 hold18
*3373 hold19
*3374 hold2
*3375 hold20
*3376 hold21
*3377 hold22
*3378 hold23
*3379 hold24
*3380 hold25
*3381 hold26
*3382 hold27
*3383 hold28
*3384 hold29
*3385 hold3
*3386 hold30
*3387 hold31
*3388 hold32
*3389 hold33
*3390 hold34
*3391 hold35
*3392 hold36
*3393 hold37
*3394 hold38
*3395 hold39
*3396 hold4
*3397 hold40
*3398 hold41
*3399 hold42
*3400 hold43
*3401 hold44
*3402 hold45
*3403 hold46
*3404 hold47
*3405 hold48
*3406 hold49
*3407 hold5
*3408 hold50
*3409 hold51
*3410 hold52
*3411 hold53
*3412 hold54
*3413 hold55
*3414 hold56
*3415 hold57
*3416 hold58
*3417 hold59
*3418 hold6
*3419 hold60
*3420 hold61
*3421 hold62
*3422 hold63
*3423 hold64
*3424 hold65
*3425 hold66
*3426 hold67
*3427 hold68
*3428 hold69
*3429 hold7
*3430 hold70
*3431 hold71
*3432 hold72
*3433 hold73
*3434 hold74
*3435 hold75
*3436 hold76
*3437 hold77
*3438 hold78
*3439 hold79
*3440 hold8
*3441 hold80
*3442 hold81
*3443 hold82
*3444 hold83
*3445 hold84
*3446 hold85
*3447 hold86
*3448 hold87
*3449 hold88
*3450 hold89
*3451 hold9
*3452 hold90
*3453 hold91
*3454 hold92
*3455 hold93
*3456 hold94
*3457 hold95
*3458 hold96
*3459 hold97
*3460 hold98
*3461 hold99
*3462 input1
*3463 input2
*3464 max_cap1
*3465 max_cap10
*3466 max_cap11
*3467 max_cap2
*3468 max_cap5
*3469 max_cap6
*3470 max_cap7
*3471 max_cap8
*3472 max_cap9
*3473 output3
*3474 output4

*PORTS
clk I
done O
pass_fail O
rst_n I
start I

*D_NET *3 0.0157059
*CONN
*P clk I
*I *3295:A I *D sky130_fd_sc_hd__clkbuf_16
*CAP
1 clk 0.0074454
2 *3295:A 0.0074454
3 *3295:A *2800:A2 0.000181462
4 *3295:A *3233:CLK 1.92979e-05
5 *3295:A *202:14 1.00941e-05
6 *3295:A *231:26 0
7 *3295:A *350:93 0.000109836
8 *3295:A *369:74 2.4321e-05
9 *3295:A *430:24 0.000109729
10 *3295:A *442:154 0.000110525
11 *3295:A *445:124 0.000119831
12 *3295:A *500:131 0
13 *3295:A *602:59 0.000130003
*RES
1 clk *3295:A 20.839 
*END

*D_NET *4 0.00132797
*CONN
*P done O
*I *3473:X O *D sky130_fd_sc_hd__clkbuf_4
*CAP
1 done 0.000663984
2 *3473:X 0.000663984
*RES
1 *3473:X done 14.925 
*END

*D_NET *5 0.000763859
*CONN
*P pass_fail O
*I *3474:X O *D sky130_fd_sc_hd__buf_2
*CAP
1 pass_fail 0.00038193
2 *3474:X 0.00038193
*RES
1 *3474:X pass_fail 7.71697 
*END

*D_NET *6 0.000920564
*CONN
*P rst_n I
*I *3462:A I *D sky130_fd_sc_hd__clkbuf_2
*CAP
1 rst_n 0.000460282
2 *3462:A 0.000460282
*RES
1 rst_n *3462:A 11.46 
*END

*D_NET *7 0.000763257
*CONN
*P start I
*I *3463:A I *D sky130_fd_sc_hd__buf_1
*CAP
1 start 0.000381629
2 *3463:A 0.000381629
*RES
1 start *3463:A 10.455 
*END

*D_NET *8 0.0041777
*CONN
*I *2643:A2 I *D sky130_fd_sc_hd__a22o_1
*I *2848:B1_N I *D sky130_fd_sc_hd__o21ba_2
*I *3136:D I *D sky130_fd_sc_hd__dfstp_1
*I *2826:X O *D sky130_fd_sc_hd__buf_1
*CAP
1 *2643:A2 0.000385531
2 *2848:B1_N 0.000182151
3 *3136:D 7.4055e-05
4 *2826:X 0
5 *8:10 0.000862313
6 *8:4 0.000991638
7 *2643:A2 *2643:A1 6.59154e-05
8 *2643:A2 *2643:B1 4.66108e-05
9 *2643:A2 *2643:B2 4.00366e-05
10 *2643:A2 *2820:A 4.00541e-06
11 *2643:A2 *2824:B2 0.000123915
12 *2643:A2 *3137:CLK 8.23457e-05
13 *2643:A2 *3318:A 0.000159964
14 *2643:A2 *310:12 5.20968e-05
15 *2643:A2 *596:40 0.00016031
16 *2643:A2 *596:44 5.36944e-05
17 *2643:A2 *780:12 0.000124473
18 *2848:B1_N *2823:D 0
19 *2848:B1_N *2847:B1 0
20 *2848:B1_N *3278:D 3.31204e-05
21 *2848:B1_N *3301:A 8.08153e-06
22 *2848:B1_N *334:10 0
23 *2848:B1_N *596:12 6.47516e-05
24 *2848:B1_N *597:14 0
25 *2848:B1_N *674:20 0
26 *3136:D *3278:D 4.58406e-05
27 *3136:D *3301:A 7.21296e-06
28 *3136:D *596:12 3.05373e-05
29 *3136:D *596:14 8.65961e-05
30 *3136:D *596:40 3.66286e-05
31 *8:10 *596:14 2.75145e-05
32 *8:10 *596:40 0.000428366
*RES
1 *2826:X *8:4 1.6 
2 *8:4 *8:10 9.8 
3 *8:10 *3136:D 5.61 
4 *8:10 *2848:B1_N 7.02 
5 *8:4 *2643:A2 14.8025 
*END

*D_NET *9 0.000142198
*CONN
*I *3137:D I *D sky130_fd_sc_hd__dfrtp_1
*I *2669:X O *D sky130_fd_sc_hd__clkbuf_1
*CAP
1 *3137:D 7.1099e-05
2 *2669:X 7.1099e-05
3 *3137:D *3474:A 0
*RES
1 *2669:X *3137:D 8.325 
*END

*D_NET *10 0.00550325
*CONN
*I *3292:D I *D sky130_fd_sc_hd__dfrtp_1
*I *2673:C1 I *D sky130_fd_sc_hd__a211o_1
*I *2645:A I *D sky130_fd_sc_hd__inv_2
*I *2671:X O *D sky130_fd_sc_hd__buf_1
*CAP
1 *3292:D 0.000383908
2 *2673:C1 0.000128363
3 *2645:A 0.000463394
4 *2671:X 0
5 *10:29 0.00134042
6 *10:4 0.00129154
7 *2645:A *2646:B2 0.000210411
8 *2645:A *2648:A1 0.000181456
9 *2645:A *2670:B 7.60965e-05
10 *2645:A *2671:A 0.000352569
11 *2645:A *2674:A2 1.83756e-05
12 *2645:A *2674:B1 0.000134516
13 *2645:A *3340:A 4.43871e-06
14 *2645:A *793:16 9.94353e-05
15 *2673:C1 *2673:A1 5.20193e-05
16 *2673:C1 *2673:A2 0.000136645
17 *2673:C1 *2673:B1 3.84271e-05
18 *2673:C1 *593:95 2.01644e-05
19 *3292:D *2673:A1 0.000157543
20 *3292:D *3288:D 9.84159e-05
21 *3292:D *593:95 0
22 *3292:D *641:20 0
23 *3292:D *786:12 0.00014131
24 *10:29 *2657:A 5.40088e-05
25 *10:29 *2657:B 2.747e-05
26 *10:29 *2671:A 1.7396e-05
27 *10:29 *2674:B1 7.49311e-05
*RES
1 *2671:X *10:4 1.6 
2 *10:4 *2645:A 16.715 
3 *10:4 *10:29 15.175 
4 *10:29 *2673:C1 8.525 
5 *10:29 *3292:D 13.55 
*END

*D_NET *11 0.00867602
*CONN
*I *2648:S I *D sky130_fd_sc_hd__mux2_1
*I *2663:C1 I *D sky130_fd_sc_hd__a221o_1
*I *2666:A I *D sky130_fd_sc_hd__or3b_1
*I *3294:D I *D sky130_fd_sc_hd__dfrtp_1
*I *2870:A2 I *D sky130_fd_sc_hd__o21bai_1
*I *2662:X O *D sky130_fd_sc_hd__clkbuf_2
*CAP
1 *2648:S 0.000198557
2 *2663:C1 0
3 *2666:A 0
4 *3294:D 0.00113117
5 *2870:A2 0.000365331
6 *2662:X 0
7 *11:43 0.00172126
8 *11:29 0.00106106
9 *11:15 0.000866965
10 *11:4 0.000562766
11 *2870:A2 *2870:A1 0.000233565
12 *2870:A2 *3145:D 0.000123961
13 *2870:A2 *3407:A 6.50953e-05
14 *3294:D *2660:A_N 1.73877e-05
15 *3294:D *2666:B 0.000160314
16 *3294:D *2667:A 7.17811e-05
17 *3294:D *3293:D 6.74079e-05
18 *3294:D *3294:RESET_B 2.3536e-06
19 *3294:D *163:32 0
20 *3294:D *315:12 0
21 *3294:D *682:14 0.000400565
22 *11:29 *2648:A0 3.96214e-05
23 *11:29 *2648:A1 0
24 *11:29 *2649:A 0.000136685
25 *11:29 *3289:D 0.000178314
26 *11:29 *3289:RESET_B 4.91189e-05
27 *11:29 *157:18 9.47156e-05
28 *11:29 *641:22 0.000139467
29 *11:29 *793:16 0.000134509
30 *11:29 *795:12 7.08931e-05
31 *11:43 *2660:A_N 0
32 *11:43 *2663:A1 0.000160635
33 *11:43 *2663:A2 1.46828e-05
34 *11:43 *2663:B2 2.48591e-05
35 *11:43 *2676:A 7.68414e-06
36 *11:43 *2677:B 4.21973e-05
37 *11:43 *3289:D 3.26889e-05
38 *11:43 *157:27 5.90428e-05
39 *11:43 *630:54 0.000306373
40 *11:43 *793:24 0.000135002
*RES
1 *2662:X *11:4 1.6 
2 *11:4 *2870:A2 7.93 
3 *11:4 *11:15 2.52 
4 *11:15 *11:29 15.925 
5 *11:29 *11:43 13.12 
6 *11:43 *3294:D 25.34 
7 *11:43 *2666:A 1.6 
8 *11:29 *2663:C1 1.6 
9 *11:15 *2648:S 4.39 
*END

*D_NET *12 0.00335547
*CONN
*I *3281:D I *D sky130_fd_sc_hd__dfrtp_1
*I *2819:X O *D sky130_fd_sc_hd__o31a_1
*CAP
1 *3281:D 0.000741646
2 *2819:X 0.000741646
3 *3281:D *2633:S 0.000175653
4 *3281:D *2634:A 4.66108e-05
5 *3281:D *2818:A1 8.65961e-05
6 *3281:D *2819:A1 8.696e-05
7 *3281:D *2819:A2 7.47551e-05
8 *3281:D *2819:A3 0.00016031
9 *3281:D *2819:B1 0.000336084
10 *3281:D *2837:A 4.89295e-05
11 *3281:D *3280:D 0.000183043
12 *3281:D *3351:A 0.000272984
13 *3281:D *316:22 4.21973e-05
14 *3281:D *316:36 2.75145e-05
15 *3281:D *325:8 3.81652e-05
16 *3281:D *351:150 0.000292381
*RES
1 *2819:X *3281:D 24.69 
*END

*D_NET *13 0.00140733
*CONN
*I *3280:D I *D sky130_fd_sc_hd__dfrtp_1
*I *2763:X O *D sky130_fd_sc_hd__o221a_1
*CAP
1 *3280:D 0.000382514
2 *2763:X 0.000382514
3 *3280:D *2763:C1 2.21886e-05
4 *3280:D *2818:A1 0
5 *3280:D *2818:A2 0.000186204
6 *3280:D *2818:B1 0.000145241
7 *3280:D *351:150 9.68865e-05
8 *3280:D *680:8 8.73389e-06
9 *3281:D *3280:D 0.000183043
*RES
1 *2763:X *3280:D 15.285 
*END

*D_NET *14 0.00041426
*CONN
*I *3134:D I *D sky130_fd_sc_hd__dfxtp_1
*I *2840:X O *D sky130_fd_sc_hd__clkbuf_1
*CAP
1 *3134:D 0.000150644
2 *2840:X 0.000150644
3 *3134:D *599:61 7.1624e-05
4 *3134:D *693:32 4.13484e-05
*RES
1 *2840:X *3134:D 9.79875 
*END

*D_NET *15 0.000887274
*CONN
*I *3135:D I *D sky130_fd_sc_hd__dfxtp_1
*I *2843:X O *D sky130_fd_sc_hd__clkbuf_1
*CAP
1 *3135:D 0.000199348
2 *2843:X 0.000199348
3 *3135:D *2840:A 0.000136548
4 *3135:D *2896:A 0.000132465
5 *3135:D *187:112 8.33341e-05
6 *3135:D *599:59 0.000127106
7 *3135:D *599:61 9.12494e-06
*RES
1 *2843:X *3135:D 11.3588 
*END

*D_NET *16 0.000377935
*CONN
*I *3138:D I *D sky130_fd_sc_hd__dfrtp_1
*I *2850:X O *D sky130_fd_sc_hd__o21a_1
*CAP
1 *3138:D 0.000103298
2 *2850:X 0.000103298
3 *3138:D *2857:A3 4.92062e-05
4 *3138:D *3139:D 0
5 *3138:D *318:117 2.66935e-05
6 *3138:D *663:34 9.54399e-05
*RES
1 *2850:X *3138:D 9.12 
*END

*D_NET *17 0.0016133
*CONN
*I *3139:D I *D sky130_fd_sc_hd__dfrtp_1
*I *2854:X O *D sky130_fd_sc_hd__a2bb2o_1
*CAP
1 *3139:D 0.000404576
2 *2854:X 0.000404576
3 *3139:D *2831:A 4.99619e-05
4 *3139:D *2854:B1 0
5 *3139:D *2859:A 0.000201407
6 *3139:D *3141:D 5.20968e-05
7 *3139:D *318:117 0.00012904
8 *3139:D *318:123 7.19383e-05
9 *3139:D *340:10 1.52776e-05
10 *3139:D *595:10 0.000254385
11 *3139:D *663:32 0
12 *3139:D *773:18 3.00381e-05
13 *3138:D *3139:D 0
*RES
1 *2854:X *3139:D 16.665 
*END

*D_NET *18 0.000516693
*CONN
*I *3140:D I *D sky130_fd_sc_hd__dfrtp_2
*I *2859:X O *D sky130_fd_sc_hd__clkbuf_1
*CAP
1 *3140:D 0.000139386
2 *2859:X 0.000139386
3 *3140:D *2859:A 0
4 *3140:D *3274:RESET_B 4.54719e-05
5 *3140:D *595:36 0
6 *3140:D *663:24 0.000163199
7 *3140:D *663:30 2.92496e-05
*RES
1 *2859:X *3140:D 9.555 
*END

*D_NET *19 0.00060649
*CONN
*I *3141:D I *D sky130_fd_sc_hd__dfrtp_4
*I *2863:X O *D sky130_fd_sc_hd__a2bb2o_1
*CAP
1 *3141:D 0.000151728
2 *2863:X 0.000151728
3 *3141:D *2863:B1 0.000155497
4 *3141:D *340:10 9.54399e-05
5 *3139:D *3141:D 5.20968e-05
*RES
1 *2863:X *3141:D 9.81 
*END

*D_NET *20 0.000915468
*CONN
*I *3142:D I *D sky130_fd_sc_hd__dfrtp_4
*I *2867:X O *D sky130_fd_sc_hd__clkbuf_1
*CAP
1 *3142:D 0.000241946
2 *2867:X 0.000241946
3 *3142:D *2853:A 6.17024e-05
4 *3142:D *2853:B 3.12916e-05
5 *3142:D *3142:CLK 8.64599e-05
6 *3142:D *334:21 9.12494e-06
7 *3142:D *334:40 0.000242997
*RES
1 *2867:X *3142:D 12.765 
*END

*D_NET *21 0.000290746
*CONN
*I *3143:D I *D sky130_fd_sc_hd__dfrtp_4
*I *2869:X O *D sky130_fd_sc_hd__a2bb2o_1
*CAP
1 *3143:D 6.42062e-05
2 *2869:X 6.42062e-05
3 *3143:D *2869:B1 9.22206e-05
4 *3143:D *3143:CLK 7.01132e-05
*RES
1 *2869:X *3143:D 5.045 
*END

*D_NET *22 0.000662554
*CONN
*I *3407:A I *D sky130_fd_sc_hd__dlygate4sd3_1
*I *2870:Y O *D sky130_fd_sc_hd__o21bai_1
*CAP
1 *3407:A 0.000181947
2 *2870:Y 0.000181947
3 *3407:A *2870:A1 0.000233565
4 *2870:A2 *3407:A 6.50953e-05
*RES
1 *2870:Y *3407:A 6.77 
*END

*D_NET *23 0.000519664
*CONN
*I *3146:D I *D sky130_fd_sc_hd__dfxtp_1
*I *2879:X O *D sky130_fd_sc_hd__clkbuf_1
*CAP
1 *3146:D 0.000225204
2 *2879:X 0.000225204
3 *3146:D *2879:A 6.92569e-05
*RES
1 *2879:X *3146:D 10.2 
*END

*D_NET *24 0.000799897
*CONN
*I *3147:D I *D sky130_fd_sc_hd__dfxtp_1
*I *2883:X O *D sky130_fd_sc_hd__clkbuf_1
*CAP
1 *3147:D 0.000180574
2 *2883:X 0.000180574
3 *3147:D *2883:A 0.00011852
4 *3147:D *2969:A 0.000115119
5 *3147:D *3147:CLK 8.65905e-05
6 *3147:D *921:10 0.00011852
*RES
1 *2883:X *3147:D 11.49 
*END

*D_NET *25 0.00110824
*CONN
*I *3148:D I *D sky130_fd_sc_hd__dfxtp_1
*I *2887:X O *D sky130_fd_sc_hd__clkbuf_1
*CAP
1 *3148:D 0.000176433
2 *2887:X 0.000176433
3 *3148:D *202:14 4.79946e-05
4 *3148:D *359:12 0.000420319
5 *3148:D *606:27 0.000239069
6 *3148:D *715:58 4.79946e-05
*RES
1 *2887:X *3148:D 12.2587 
*END

*D_NET *26 0.000707868
*CONN
*I *3149:D I *D sky130_fd_sc_hd__dfxtp_1
*I *2889:X O *D sky130_fd_sc_hd__clkbuf_1
*CAP
1 *3149:D 0.000149038
2 *2889:X 0.000149038
3 *3149:D *2577:A 0
4 *3149:D *2760:A1 8.76265e-05
5 *3149:D *2889:A 4.05358e-05
6 *3149:D *2935:B 8.93021e-05
7 *3149:D *299:32 4.25903e-05
8 *3149:D *391:43 0.000139572
9 *3149:D *606:42 1.01661e-05
*RES
1 *2889:X *3149:D 11.1938 
*END

*D_NET *27 0.000648822
*CONN
*I *3150:D I *D sky130_fd_sc_hd__dfxtp_1
*I *2893:X O *D sky130_fd_sc_hd__clkbuf_1
*CAP
1 *3150:D 0.000147885
2 *2893:X 0.000147885
3 *3150:D *3150:CLK 0.000108614
4 *3150:D *3328:A 3.25831e-05
5 *3150:D *208:26 5.92191e-05
6 *3150:D *358:28 1.17309e-05
7 *3150:D *385:16 0.000140905
*RES
1 *2893:X *3150:D 10.5638 
*END

*D_NET *28 0.000850278
*CONN
*I *3151:D I *D sky130_fd_sc_hd__dfxtp_1
*I *2895:X O *D sky130_fd_sc_hd__clkbuf_1
*CAP
1 *3151:D 0.000160428
2 *2895:X 0.000160428
3 *3151:D *2735:B2 6.8229e-05
4 *3151:D *2895:A 7.0104e-05
5 *3151:D *187:112 0.000120679
6 *3151:D *208:58 0.000270409
*RES
1 *2895:X *3151:D 11.7338 
*END

*D_NET *29 0.000959854
*CONN
*I *3152:D I *D sky130_fd_sc_hd__dfxtp_1
*I *2901:X O *D sky130_fd_sc_hd__clkbuf_1
*CAP
1 *3152:D 0.000226053
2 *2901:X 0.000226053
3 *3152:D *2901:A 0.00011577
4 *3152:D *2926:A1 0.000178321
5 *3152:D *374:40 2.14129e-05
6 *3152:D *605:31 0.000112105
7 *3152:D *605:37 4.43871e-06
8 *3152:D *605:73 7.56999e-05
*RES
1 *2901:X *3152:D 12.15 
*END

*D_NET *30 0.000195151
*CONN
*I *3153:D I *D sky130_fd_sc_hd__dfxtp_1
*I *2904:X O *D sky130_fd_sc_hd__clkbuf_1
*CAP
1 *3153:D 6.43412e-05
2 *2904:X 6.43412e-05
3 *3153:D *2904:A 5.20968e-05
4 *3153:D *2926:A0 0
5 *3153:D *605:37 1.43717e-05
*RES
1 *2904:X *3153:D 8.46375 
*END

*D_NET *31 0.00104532
*CONN
*I *3154:D I *D sky130_fd_sc_hd__dfxtp_1
*I *2908:X O *D sky130_fd_sc_hd__clkbuf_1
*CAP
1 *3154:D 0.000321159
2 *2908:X 0.000321159
3 *3154:D *2582:A 2.87161e-05
4 *3154:D *2745:B1 0.000146781
5 *3154:D *2748:C1 5.14473e-05
6 *3154:D *2799:C1 4.61482e-05
7 *3154:D *231:38 4.46271e-05
8 *3154:D *231:44 8.52845e-05
*RES
1 *2908:X *3154:D 12.3638 
*END

*D_NET *32 0.0014153
*CONN
*I *3155:D I *D sky130_fd_sc_hd__dfxtp_1
*I *2910:X O *D sky130_fd_sc_hd__clkbuf_1
*CAP
1 *3155:D 0.000295438
2 *2910:X 0.000295438
3 *3155:D *2744:B 0.000157287
4 *3155:D *2910:A 0.000231662
5 *3155:D *3006:B 4.77719e-05
6 *3155:D *3220:CLK 0.000348792
7 *3155:D *231:26 1.7635e-05
8 *3155:D *380:38 2.12738e-05
*RES
1 *2910:X *3155:D 14.3138 
*END

*D_NET *33 0.00110683
*CONN
*I *3156:D I *D sky130_fd_sc_hd__dfxtp_1
*I *2914:X O *D sky130_fd_sc_hd__clkbuf_1
*CAP
1 *3156:D 0.000393582
2 *2914:X 0.000393582
3 *3156:D *2798:A1 0.000157937
4 *3156:D *2798:B1 6.9864e-06
5 *3156:D *2914:A 2.3358e-05
6 *3156:D *174:112 2.69217e-05
7 *3156:D *316:60 7.65168e-05
8 *3156:D *600:81 2.79481e-05
*RES
1 *2914:X *3156:D 8.9 
*END

*D_NET *34 0.00038472
*CONN
*I *3157:D I *D sky130_fd_sc_hd__dfxtp_1
*I *2916:X O *D sky130_fd_sc_hd__clkbuf_1
*CAP
1 *3157:D 8.15287e-05
2 *2916:X 8.15287e-05
3 *3157:D *2572:A 1.43717e-05
4 *3157:D *395:57 9.17274e-05
5 *3157:D *528:28 4.66108e-05
6 *3157:D *528:62 8.53113e-06
7 *3157:D *600:12 3.80855e-05
8 *3157:D *600:18 1.43717e-05
9 *3157:D *600:66 7.9642e-06
*RES
1 *2916:X *3157:D 8.91375 
*END

*D_NET *35 0.000763758
*CONN
*I *3158:D I *D sky130_fd_sc_hd__dfxtp_1
*I *2920:X O *D sky130_fd_sc_hd__clkbuf_1
*CAP
1 *3158:D 0.000334156
2 *2920:X 0.000334156
3 *3158:D *2919:A1 0
4 *3158:D *2937:A 9.54469e-05
5 *3158:D *901:16 0
*RES
1 *2920:X *3158:D 12.7388 
*END

*D_NET *36 0.000670708
*CONN
*I *3159:D I *D sky130_fd_sc_hd__dfxtp_1
*I *2922:X O *D sky130_fd_sc_hd__clkbuf_1
*CAP
1 *3159:D 0.000249528
2 *2922:X 0.000249528
3 *3159:D *3158:CLK 0.000106893
4 *3159:D *599:88 6.47594e-05
*RES
1 *2922:X *3159:D 11.2987 
*END

*D_NET *37 0.000451424
*CONN
*I *3160:D I *D sky130_fd_sc_hd__dfxtp_1
*I *2925:X O *D sky130_fd_sc_hd__clkbuf_1
*CAP
1 *3160:D 0.00010903
2 *2925:X 0.00010903
3 *3160:D *2812:B2 3.39151e-05
4 *3160:D *2919:A0 0.000149488
5 *3160:D *2926:S 0
6 *3160:D *3160:CLK 4.99619e-05
*RES
1 *2925:X *3160:D 9.69375 
*END

*D_NET *38 0.000306763
*CONN
*I *3161:D I *D sky130_fd_sc_hd__dfxtp_1
*I *2927:X O *D sky130_fd_sc_hd__clkbuf_1
*CAP
1 *3161:D 8.9885e-05
2 *2927:X 8.9885e-05
3 *3161:D *3161:CLK 0.000113663
4 *3161:D *907:8 1.33293e-05
*RES
1 *2927:X *3161:D 4.92875 
*END

*D_NET *39 0.000547752
*CONN
*I *3162:D I *D sky130_fd_sc_hd__dfxtp_1
*I *2931:X O *D sky130_fd_sc_hd__clkbuf_1
*CAP
1 *3162:D 0.000194
2 *2931:X 0.000194
3 *3162:D *2735:A2 0
4 *3162:D *2797:B2 0
5 *3162:D *2838:A 2.30258e-05
6 *3162:D *3151:CLK 0.000136726
*RES
1 *2931:X *3162:D 10.6538 
*END

*D_NET *40 0.000573412
*CONN
*I *3163:D I *D sky130_fd_sc_hd__dfxtp_1
*I *2933:X O *D sky130_fd_sc_hd__clkbuf_1
*CAP
1 *3163:D 9.08765e-05
2 *2933:X 9.08765e-05
3 *3163:D *2577:A 0.000201897
4 *3163:D *2735:A2 3.39064e-05
5 *3163:D *2811:A2 4.51665e-05
6 *3163:D *183:85 1.76179e-05
7 *3163:D *359:18 9.30717e-05
*RES
1 *2933:X *3163:D 10.1888 
*END

*D_NET *41 0.000341818
*CONN
*I *3164:D I *D sky130_fd_sc_hd__dfxtp_1
*I *2937:X O *D sky130_fd_sc_hd__clkbuf_1
*CAP
1 *3164:D 0.000109878
2 *2937:X 0.000109878
3 *3164:D *2937:A 0.000122062
*RES
1 *2937:X *3164:D 5.435 
*END

*D_NET *42 0.000609921
*CONN
*I *3165:D I *D sky130_fd_sc_hd__dfxtp_1
*I *2939:X O *D sky130_fd_sc_hd__clkbuf_1
*CAP
1 *3165:D 0.000277161
2 *2939:X 0.000277161
3 *3165:D *2922:A 0
4 *3165:D *599:65 0
5 *3165:D *599:75 1.9872e-05
6 *3165:D *599:88 3.57275e-05
*RES
1 *2939:X *3165:D 11.0588 
*END

*D_NET *43 0.000789322
*CONN
*I *3166:D I *D sky130_fd_sc_hd__dfxtp_1
*I *2943:X O *D sky130_fd_sc_hd__clkbuf_1
*CAP
1 *3166:D 0.000135374
2 *2943:X 0.000135374
3 *3166:D *2943:A 0.000120273
4 *3166:D *2945:A 0.000115585
5 *3166:D *3166:CLK 8.35068e-05
6 *3166:D *3167:D 0.00015984
7 *3166:D *737:46 3.93697e-05
*RES
1 *2943:X *3166:D 7.505 
*END

*D_NET *44 0.00088944
*CONN
*I *3167:D I *D sky130_fd_sc_hd__dfxtp_1
*I *2945:X O *D sky130_fd_sc_hd__clkbuf_1
*CAP
1 *3167:D 0.000115648
2 *2945:X 0.000115648
3 *3167:D *2943:A 0.000161521
4 *3167:D *2945:A 0.000112123
5 *3167:D *231:116 2.16389e-05
6 *3167:D *374:76 1.43717e-05
7 *3167:D *606:8 1.43717e-05
8 *3167:D *759:34 0.000174279
9 *3166:D *3167:D 0.00015984
*RES
1 *2945:X *3167:D 10.9688 
*END

*D_NET *45 0.000218588
*CONN
*I *3168:D I *D sky130_fd_sc_hd__dfxtp_1
*I *2949:X O *D sky130_fd_sc_hd__clkbuf_1
*CAP
1 *3168:D 4.64566e-05
2 *2949:X 4.64566e-05
3 *3168:D *2812:B2 4.75977e-05
4 *3168:D *3168:CLK 1.43717e-05
5 *3168:D *369:132 1.43717e-05
6 *3168:D *715:58 4.93336e-05
*RES
1 *2949:X *3168:D 8.46375 
*END

*D_NET *46 0.000306712
*CONN
*I *3169:D I *D sky130_fd_sc_hd__dfxtp_1
*I *2951:X O *D sky130_fd_sc_hd__clkbuf_1
*CAP
1 *3169:D 0.000145785
2 *2951:X 0.000145785
3 *3169:D *2951:A 1.51429e-05
*RES
1 *2951:X *3169:D 5.27375 
*END

*D_NET *47 0.000383013
*CONN
*I *3170:D I *D sky130_fd_sc_hd__dfxtp_1
*I *2955:X O *D sky130_fd_sc_hd__clkbuf_1
*CAP
1 *3170:D 0.000166234
2 *2955:X 0.000166234
3 *3170:D *3170:CLK 5.05437e-05
*RES
1 *2955:X *3170:D 5.37875 
*END

*D_NET *48 0.000559688
*CONN
*I *3171:D I *D sky130_fd_sc_hd__dfxtp_1
*I *2957:X O *D sky130_fd_sc_hd__clkbuf_1
*CAP
1 *3171:D 7.05013e-05
2 *2957:X 7.05013e-05
3 *3171:D *2954:A1 8.83522e-05
4 *3171:D *3171:CLK 8.71823e-05
5 *3171:D *359:119 0.000156916
6 *3171:D *592:28 7.15571e-05
7 *3171:D *592:30 1.46781e-05
*RES
1 *2957:X *3171:D 9.91875 
*END

*D_NET *49 0.000679093
*CONN
*I *3172:D I *D sky130_fd_sc_hd__dfxtp_1
*I *2961:X O *D sky130_fd_sc_hd__clkbuf_1
*CAP
1 *3172:D 0.000142496
2 *2961:X 0.000142496
3 *3172:D *2737:A1 7.53557e-05
4 *3172:D *2737:A2 2.60579e-05
5 *3172:D *3395:A 4.7072e-06
6 *3172:D *218:126 0.000137571
7 *3172:D *605:8 9.50342e-06
8 *3172:D *605:18 0.000140905
*RES
1 *2961:X *3172:D 10.35 
*END

*D_NET *50 0.000961988
*CONN
*I *3173:D I *D sky130_fd_sc_hd__dfxtp_1
*I *2963:X O *D sky130_fd_sc_hd__clkbuf_1
*CAP
1 *3173:D 0.000214882
2 *2963:X 0.000214882
3 *3173:D *2737:A2 7.90245e-05
4 *3173:D *2810:C1 0.000195476
5 *3173:D *211:47 0.000139238
6 *3173:D *350:48 7.45772e-05
7 *3173:D *359:111 4.39079e-05
*RES
1 *2963:X *3173:D 11.385 
*END

*D_NET *51 0.000572968
*CONN
*I *3174:D I *D sky130_fd_sc_hd__dfxtp_1
*I *2967:X O *D sky130_fd_sc_hd__clkbuf_1
*CAP
1 *3174:D 0.000247917
2 *2967:X 0.000247917
3 *3174:D *2919:A0 7.71334e-05
4 *3174:D *3146:CLK 0
*RES
1 *2967:X *3174:D 10.695 
*END

*D_NET *52 0.000982712
*CONN
*I *3175:D I *D sky130_fd_sc_hd__dfxtp_1
*I *2969:X O *D sky130_fd_sc_hd__clkbuf_1
*CAP
1 *3175:D 0.000142513
2 *2969:X 0.000142513
3 *3175:D *2883:A 3.57846e-05
4 *3175:D *2968:A1 0
5 *3175:D *3175:CLK 0.000313834
6 *3175:D *3357:A 0.000348068
*RES
1 *2969:X *3175:D 11.97 
*END

*D_NET *53 0.00138428
*CONN
*I *3176:D I *D sky130_fd_sc_hd__dfxtp_1
*I *2975:X O *D sky130_fd_sc_hd__clkbuf_1
*CAP
1 *3176:D 0.000432611
2 *2975:X 0.000432611
3 *3176:D *3085:A 0.000134818
4 *3176:D *207:12 9.79246e-05
5 *3176:D *207:86 0
6 *3176:D *365:64 9.79246e-05
7 *3176:D *590:246 0.000188395
*RES
1 *2975:X *3176:D 14.5312 
*END

*D_NET *54 0.000609879
*CONN
*I *3177:D I *D sky130_fd_sc_hd__dfxtp_1
*I *2977:X O *D sky130_fd_sc_hd__clkbuf_1
*CAP
1 *3177:D 0.000111862
2 *2977:X 0.000111862
3 *3177:D *2990:B 0.0001809
4 *3177:D *3085:A 0.000205255
*RES
1 *2977:X *3177:D 5.96375 
*END

*D_NET *55 0.000326728
*CONN
*I *3178:D I *D sky130_fd_sc_hd__dfxtp_1
*I *2980:X O *D sky130_fd_sc_hd__clkbuf_1
*CAP
1 *3178:D 9.90102e-05
2 *2980:X 9.90102e-05
3 *3178:D *3178:CLK 9.12671e-06
4 *3178:D *3268:CLK 2.69153e-05
5 *3178:D *593:57 9.26654e-05
*RES
1 *2980:X *3178:D 5.435 
*END

*D_NET *56 0.00127242
*CONN
*I *3179:D I *D sky130_fd_sc_hd__dfxtp_1
*I *2982:X O *D sky130_fd_sc_hd__clkbuf_1
*CAP
1 *3179:D 0.000559879
2 *2982:X 0.000559879
3 *3179:D *2790:A1 2.11084e-05
4 *3179:D *884:10 0.000131549
*RES
1 *2982:X *3179:D 11.0487 
*END

*D_NET *57 0.000376428
*CONN
*I *3180:D I *D sky130_fd_sc_hd__dfxtp_1
*I *2985:X O *D sky130_fd_sc_hd__clkbuf_1
*CAP
1 *3180:D 0.000188214
2 *2985:X 0.000188214
3 *3180:D *323:62 0
4 *3180:D *593:77 0
*RES
1 *2985:X *3180:D 9.84375 
*END

*D_NET *58 0.000245336
*CONN
*I *3181:D I *D sky130_fd_sc_hd__dfxtp_1
*I *2988:X O *D sky130_fd_sc_hd__clkbuf_1
*CAP
1 *3181:D 0.0001024
2 *2988:X 0.0001024
3 *3181:D *2988:A 4.05358e-05
4 *3181:D *3181:CLK 0
*RES
1 *2988:X *3181:D 8.91375 
*END

*D_NET *59 0.000407751
*CONN
*I *3182:D I *D sky130_fd_sc_hd__dfxtp_1
*I *2992:X O *D sky130_fd_sc_hd__clkbuf_1
*CAP
1 *3182:D 0.000131855
2 *2992:X 0.000131855
3 *3182:D *2992:A 2.75145e-05
4 *3182:D *3182:CLK 0.000113663
5 *3182:D *197:108 2.86265e-06
*RES
1 *2992:X *3182:D 5.37875 
*END

*D_NET *60 0.000227607
*CONN
*I *3183:D I *D sky130_fd_sc_hd__dfxtp_1
*I *2994:X O *D sky130_fd_sc_hd__clkbuf_1
*CAP
1 *3183:D 5.83777e-05
2 *2994:X 5.83777e-05
3 *3183:D *430:74 1.54049e-05
4 *3183:D *432:143 9.54469e-05
*RES
1 *2994:X *3183:D 8.46375 
*END

*D_NET *61 0.000770011
*CONN
*I *3184:D I *D sky130_fd_sc_hd__dfxtp_1
*I *2997:X O *D sky130_fd_sc_hd__clkbuf_1
*CAP
1 *3184:D 0.000219285
2 *2997:X 0.000219285
3 *3184:D *2592:C 6.63219e-06
4 *3184:D *2595:A0 4.82319e-06
5 *3184:D *2761:C 0.000175528
6 *3184:D *2761:D 9.0501e-05
7 *3184:D *2997:A 2.86975e-05
8 *3184:D *370:33 0
9 *3184:D *370:54 0
10 *3184:D *606:102 1.43717e-05
11 *3184:D *759:28 1.08879e-05
*RES
1 *2997:X *3184:D 11.4637 
*END

*D_NET *62 0.000461714
*CONN
*I *3185:D I *D sky130_fd_sc_hd__dfxtp_1
*I *2999:X O *D sky130_fd_sc_hd__clkbuf_1
*CAP
1 *3185:D 9.98186e-05
2 *2999:X 9.98186e-05
3 *3185:D *2761:C 7.95007e-05
4 *3185:D *2996:A1 7.32433e-05
5 *3185:D *2999:A 9.50342e-06
6 *3185:D *3185:CLK 3.25831e-05
7 *3185:D *370:54 4.70982e-05
8 *3185:D *436:14 2.0148e-05
*RES
1 *2999:X *3185:D 9.76875 
*END

*D_NET *63 0.00117213
*CONN
*I *3186:D I *D sky130_fd_sc_hd__dfxtp_1
*I *3002:X O *D sky130_fd_sc_hd__clkbuf_1
*CAP
1 *3186:D 0.000271726
2 *3002:X 0.000271726
3 *3186:D *2775:A1 0
4 *3186:D *2775:B2 0.00020084
5 *3186:D *2977:A 8.17292e-05
6 *3186:D *2993:A1 6.28843e-05
7 *3186:D *3186:CLK 9.00919e-05
8 *3186:D *181:16 7.18452e-06
9 *3186:D *181:134 9.75342e-05
10 *3186:D *207:39 8.84163e-05
*RES
1 *3002:X *3186:D 13.9987 
*END

*D_NET *64 0.000986824
*CONN
*I *3187:D I *D sky130_fd_sc_hd__dfxtp_1
*I *3004:X O *D sky130_fd_sc_hd__clkbuf_1
*CAP
1 *3187:D 0.000213931
2 *3004:X 0.000213931
3 *3187:D *3002:A 3.18219e-05
4 *3187:D *3004:A 0.000209486
5 *3187:D *3187:CLK 0.00011006
6 *3187:D *197:108 2.26717e-05
7 *3187:D *215:24 0.000184922
*RES
1 *3004:X *3187:D 11.5238 
*END

*D_NET *65 0.000788344
*CONN
*I *3188:D I *D sky130_fd_sc_hd__dfxtp_1
*I *3008:X O *D sky130_fd_sc_hd__clkbuf_1
*CAP
1 *3188:D 0.000186701
2 *3008:X 0.000186701
3 *3188:D *2612:A 0.000116158
4 *3188:D *2804:A2 6.10014e-05
5 *3188:D *3008:A 0.00016063
6 *3188:D *3188:CLK 7.7152e-05
*RES
1 *3008:X *3188:D 10.785 
*END

*D_NET *66 0.000382535
*CONN
*I *3189:D I *D sky130_fd_sc_hd__dfxtp_1
*I *3011:X O *D sky130_fd_sc_hd__clkbuf_1
*CAP
1 *3189:D 4.10785e-05
2 *3011:X 4.10785e-05
3 *3189:D *2612:A 0.000140905
4 *3189:D *2804:A2 0.000139245
5 *3189:D *3008:A 1.54049e-05
6 *3189:D *212:91 4.82319e-06
*RES
1 *3011:X *3189:D 8.97375 
*END

*D_NET *67 0.00190614
*CONN
*I *3190:D I *D sky130_fd_sc_hd__dfxtp_1
*I *3014:X O *D sky130_fd_sc_hd__clkbuf_1
*CAP
1 *3190:D 0.000495126
2 *3014:X 0.000495126
3 *3190:D *3014:A 2.68526e-05
4 *3190:D *3457:A 9.12494e-06
5 *3190:D *317:66 0.000211163
6 *3190:D *336:25 0.000233283
7 *3190:D *678:12 7.56644e-05
8 *3190:D *759:12 0.000359803
*RES
1 *3014:X *3190:D 17.0737 
*END

*D_NET *68 0.000398317
*CONN
*I *3191:D I *D sky130_fd_sc_hd__dfxtp_1
*I *3016:X O *D sky130_fd_sc_hd__clkbuf_1
*CAP
1 *3191:D 0.000178891
2 *3016:X 0.000178891
3 *3191:D *3016:A 4.05358e-05
4 *3191:D *183:56 0
*RES
1 *3016:X *3191:D 9.94875 
*END

*D_NET *69 0.000432761
*CONN
*I *3192:D I *D sky130_fd_sc_hd__dfxtp_1
*I *3019:X O *D sky130_fd_sc_hd__clkbuf_1
*CAP
1 *3192:D 9.12693e-05
2 *3019:X 9.12693e-05
3 *3192:D *3080:A 1.43717e-05
4 *3192:D *445:70 4.82319e-06
5 *3192:D *474:49 7.65181e-05
6 *3192:D *590:222 0.000154509
*RES
1 *3019:X *3192:D 9.42375 
*END

*D_NET *70 0.00191373
*CONN
*I *3193:D I *D sky130_fd_sc_hd__dfxtp_1
*I *3021:X O *D sky130_fd_sc_hd__clkbuf_1
*CAP
1 *3193:D 0.000393037
2 *3021:X 0.000393037
3 *3193:D *3080:A 0.000650887
4 *3193:D *3449:A 0.000108886
5 *3193:D *285:16 0
6 *3193:D *590:222 4.69214e-05
7 *3193:D *603:39 1.22464e-05
8 *3193:D *868:6 0.000308719
*RES
1 *3021:X *3193:D 16.0537 
*END

*D_NET *71 0.000356187
*CONN
*I *3194:D I *D sky130_fd_sc_hd__dfxtp_1
*I *3024:X O *D sky130_fd_sc_hd__clkbuf_1
*CAP
1 *3194:D 0.000175874
2 *3024:X 0.000175874
3 *3194:D *3194:CLK 4.43871e-06
4 *3194:D *3195:CLK 0
*RES
1 *3024:X *3194:D 9.51375 
*END

*D_NET *72 0.000254232
*CONN
*I *3195:D I *D sky130_fd_sc_hd__dfxtp_1
*I *3026:X O *D sky130_fd_sc_hd__clkbuf_1
*CAP
1 *3195:D 7.78322e-05
2 *3026:X 7.78322e-05
3 *3195:D *3024:A 1.54049e-05
4 *3195:D *3026:A 7.89767e-05
5 *3195:D *3195:CLK 4.18603e-06
*RES
1 *3026:X *3195:D 8.97375 
*END

*D_NET *73 0.000352165
*CONN
*I *3196:D I *D sky130_fd_sc_hd__dfxtp_1
*I *3029:X O *D sky130_fd_sc_hd__clkbuf_1
*CAP
1 *3196:D 0.000141931
2 *3029:X 0.000141931
3 *3196:D *3029:A 4.66108e-05
4 *3196:D *3196:CLK 2.16917e-05
*RES
1 *3029:X *3196:D 5.27375 
*END

*D_NET *74 0.00118459
*CONN
*I *3197:D I *D sky130_fd_sc_hd__dfxtp_1
*I *3031:X O *D sky130_fd_sc_hd__clkbuf_1
*CAP
1 *3197:D 0.000307397
2 *3031:X 0.000307397
3 *3197:D *3023:A0 0.000122331
4 *3197:D *3029:A 5.83121e-06
5 *3197:D *3031:A 0.00016925
6 *3197:D *3196:CLK 0.000186099
7 *3197:D *3197:CLK 3.79986e-05
8 *3197:D *866:8 4.82863e-05
*RES
1 *3031:X *3197:D 13.5037 
*END

*D_NET *75 0.000275445
*CONN
*I *3198:D I *D sky130_fd_sc_hd__dfxtp_1
*I *3034:X O *D sky130_fd_sc_hd__clkbuf_1
*CAP
1 *3198:D 0.000124458
2 *3034:X 0.000124458
3 *3198:D *604:53 9.83921e-06
4 *3198:D *604:55 1.66897e-05
*RES
1 *3034:X *3198:D 9.15375 
*END

*D_NET *76 0.000767938
*CONN
*I *3199:D I *D sky130_fd_sc_hd__dfxtp_1
*I *3036:X O *D sky130_fd_sc_hd__clkbuf_1
*CAP
1 *3199:D 0.00010205
2 *3036:X 0.00010205
3 *3199:D *2692:B1 0.000136052
4 *3199:D *2764:B2 3.43232e-05
5 *3199:D *3036:A 7.1624e-05
6 *3199:D *430:116 0.000223643
7 *3199:D *432:133 9.81958e-05
*RES
1 *3036:X *3199:D 10.935 
*END

*D_NET *77 0.00070717
*CONN
*I *3200:D I *D sky130_fd_sc_hd__dfxtp_1
*I *3039:X O *D sky130_fd_sc_hd__clkbuf_1
*CAP
1 *3200:D 0.000314097
2 *3039:X 0.000314097
3 *3200:D *3039:A 7.89767e-05
*RES
1 *3039:X *3200:D 12.4237 
*END

*D_NET *78 0.00088759
*CONN
*I *3201:D I *D sky130_fd_sc_hd__dfxtp_1
*I *3041:X O *D sky130_fd_sc_hd__clkbuf_1
*CAP
1 *3201:D 0.000178443
2 *3041:X 0.000178443
3 *3201:D *3041:A 6.28843e-05
4 *3201:D *604:156 0.000353328
5 *3201:D *861:14 0.000114492
*RES
1 *3041:X *3201:D 11.8237 
*END

*D_NET *79 0.000504103
*CONN
*I *3202:D I *D sky130_fd_sc_hd__dfxtp_1
*I *3044:X O *D sky130_fd_sc_hd__clkbuf_1
*CAP
1 *3202:D 0.000226346
2 *3044:X 0.000226346
3 *3202:D *2697:B2 1.08758e-05
4 *3202:D *3044:A 4.05358e-05
*RES
1 *3044:X *3202:D 10.6388 
*END

*D_NET *80 0.00033706
*CONN
*I *3203:D I *D sky130_fd_sc_hd__dfxtp_1
*I *3046:X O *D sky130_fd_sc_hd__clkbuf_1
*CAP
1 *3203:D 8.17089e-05
2 *3046:X 8.17089e-05
3 *3203:D *2765:A1 9.78012e-05
4 *3203:D *3202:CLK 5.12859e-05
5 *3203:D *3203:CLK 1.43717e-05
6 *3203:D *595:97 1.0183e-05
*RES
1 *3046:X *3203:D 9.22875 
*END

*D_NET *81 0.00040619
*CONN
*I *3204:D I *D sky130_fd_sc_hd__dfxtp_1
*I *3049:X O *D sky130_fd_sc_hd__clkbuf_1
*CAP
1 *3204:D 0.000160015
2 *3049:X 0.000160015
3 *3204:D *2765:B2 7.70553e-06
4 *3204:D *3205:CLK 2.97004e-06
5 *3204:D *3205:D 7.54849e-05
6 *3204:D *3461:A 0
*RES
1 *3049:X *3204:D 9.76875 
*END

*D_NET *82 0.00104466
*CONN
*I *3205:D I *D sky130_fd_sc_hd__dfxtp_1
*I *3051:X O *D sky130_fd_sc_hd__clkbuf_1
*CAP
1 *3205:D 0.000484585
2 *3051:X 0.000484585
3 *3205:D *2765:B1 0
4 *3205:D *3041:A 0
5 *3205:D *3205:CLK 0
6 *3204:D *3205:D 7.54849e-05
*RES
1 *3051:X *3205:D 14.9288 
*END

*D_NET *83 0.00105035
*CONN
*I *3206:D I *D sky130_fd_sc_hd__dfxtp_1
*I *3054:X O *D sky130_fd_sc_hd__clkbuf_1
*CAP
1 *3206:D 0.000317085
2 *3054:X 0.000317085
3 *3206:D *3053:A1 0.000114201
4 *3206:D *3054:A 3.89366e-05
5 *3206:D *595:65 0.00016031
6 *3206:D *595:82 0.000102737
*RES
1 *3054:X *3206:D 13.785 
*END

*D_NET *84 0.000436986
*CONN
*I *3207:D I *D sky130_fd_sc_hd__dfxtp_1
*I *3056:X O *D sky130_fd_sc_hd__clkbuf_1
*CAP
1 *3207:D 0.000139903
2 *3056:X 0.000139903
3 *3207:D *2766:A1 1.43717e-05
4 *3207:D *3043:A0 7.01276e-05
5 *3207:D *3053:A0 4.89395e-05
6 *3207:D *595:82 2.37415e-05
*RES
1 *3056:X *3207:D 10.0387 
*END

*D_NET *85 0.000627991
*CONN
*I *3208:D I *D sky130_fd_sc_hd__dfxtp_1
*I *3062:X O *D sky130_fd_sc_hd__clkbuf_1
*CAP
1 *3208:D 0.000226132
2 *3062:X 0.000226132
3 *3208:D *3209:CLK 5.72004e-05
4 *3208:D *3209:D 0.000118527
*RES
1 *3062:X *3208:D 11.2987 
*END

*D_NET *86 0.000576312
*CONN
*I *3209:D I *D sky130_fd_sc_hd__dfxtp_1
*I *3064:X O *D sky130_fd_sc_hd__clkbuf_1
*CAP
1 *3209:D 0.000228893
2 *3064:X 0.000228893
3 *3209:D *3063:A1 0
4 *3209:D *3209:CLK 0
5 *3209:D *602:59 0
6 *3208:D *3209:D 0.000118527
*RES
1 *3064:X *3209:D 10.9537 
*END

*D_NET *87 0.000987145
*CONN
*I *3210:D I *D sky130_fd_sc_hd__dfxtp_1
*I *3067:X O *D sky130_fd_sc_hd__clkbuf_1
*CAP
1 *3210:D 0.000314135
2 *3067:X 0.000314135
3 *3210:D *3210:CLK 0.00015492
4 *3210:D *361:36 7.03219e-05
5 *3210:D *407:14 7.03219e-05
6 *3210:D *415:52 5.83121e-06
7 *3210:D *775:57 5.74791e-05
*RES
1 *3067:X *3210:D 11.6287 
*END

*D_NET *88 0.000312283
*CONN
*I *3211:D I *D sky130_fd_sc_hd__dfxtp_1
*I *3069:X O *D sky130_fd_sc_hd__clkbuf_1
*CAP
1 *3211:D 0.000148956
2 *3069:X 0.000148956
3 *3211:D *3239:CLK 1.43717e-05
4 *3211:D *323:62 0
5 *3211:D *597:14 0
*RES
1 *3069:X *3211:D 9.16875 
*END

*D_NET *89 0.000396528
*CONN
*I *3212:D I *D sky130_fd_sc_hd__dfxtp_1
*I *3072:X O *D sky130_fd_sc_hd__clkbuf_1
*CAP
1 *3212:D 0.000141951
2 *3072:X 0.000141951
3 *3212:D *3072:A 3.89366e-05
4 *3212:D *3212:CLK 7.36892e-05
5 *3212:D *3213:CLK 0
*RES
1 *3072:X *3212:D 9.76875 
*END

*D_NET *90 0.000321122
*CONN
*I *3213:D I *D sky130_fd_sc_hd__dfxtp_1
*I *3074:X O *D sky130_fd_sc_hd__clkbuf_1
*CAP
1 *3213:D 0.000115418
2 *3074:X 0.000115418
3 *3213:D *3074:A 4.25081e-05
4 *3213:D *3213:CLK 4.77769e-05
*RES
1 *3074:X *3213:D 5.27375 
*END

*D_NET *91 0.000668058
*CONN
*I *3214:D I *D sky130_fd_sc_hd__dfxtp_1
*I *3077:X O *D sky130_fd_sc_hd__clkbuf_1
*CAP
1 *3214:D 9.91269e-05
2 *3077:X 9.91269e-05
3 *3214:D *2743:B1 0.000137571
4 *3214:D *3076:A1 0.000139245
5 *3214:D *197:108 7.63106e-05
6 *3214:D *285:16 0.000116677
*RES
1 *3077:X *3214:D 10.6987 
*END

*D_NET *92 0.000459475
*CONN
*I *3215:D I *D sky130_fd_sc_hd__dfxtp_1
*I *3079:X O *D sky130_fd_sc_hd__clkbuf_1
*CAP
1 *3215:D 0.000173871
2 *3079:X 0.000173871
3 *3215:D *2741:A1 0
4 *3215:D *2792:A1 2.67022e-05
5 *3215:D *2792:B2 0
6 *3215:D *442:108 1.08321e-05
7 *3215:D *602:101 7.4199e-05
*RES
1 *3079:X *3215:D 10.0238 
*END

*D_NET *93 0.000503966
*CONN
*I *3216:D I *D sky130_fd_sc_hd__dfxtp_1
*I *3082:X O *D sky130_fd_sc_hd__clkbuf_1
*CAP
1 *3216:D 0.00013991
2 *3082:X 0.00013991
3 *3216:D *3084:A 5.72004e-05
4 *3216:D *3216:CLK 0.000166946
*RES
1 *3082:X *3216:D 10.3538 
*END

*D_NET *94 0.000378834
*CONN
*I *3217:D I *D sky130_fd_sc_hd__dfxtp_1
*I *3084:X O *D sky130_fd_sc_hd__clkbuf_1
*CAP
1 *3217:D 0.000106769
2 *3084:X 0.000106769
3 *3217:D *3084:A 1.33293e-05
4 *3217:D *602:53 0.000102006
5 *3217:D *602:59 4.99619e-05
*RES
1 *3084:X *3217:D 5.27375 
*END

*D_NET *95 0.00124845
*CONN
*I *3218:D I *D sky130_fd_sc_hd__dfxtp_1
*I *3087:X O *D sky130_fd_sc_hd__clkbuf_1
*CAP
1 *3218:D 0.000277868
2 *3087:X 0.000277868
3 *3218:D *3082:A 0.000231423
4 *3218:D *3089:A 8.15676e-05
5 *3218:D *3341:A 0.000116165
6 *3218:D *442:64 0.000112123
7 *3218:D *442:77 0.000151432
*RES
1 *3087:X *3218:D 13.6088 
*END

*D_NET *96 0.00117712
*CONN
*I *3219:D I *D sky130_fd_sc_hd__dfxtp_1
*I *3089:X O *D sky130_fd_sc_hd__clkbuf_1
*CAP
1 *3219:D 0.000456677
2 *3089:X 0.000456677
3 *3219:D *3084:A 0.000240852
4 *3219:D *3219:CLK 2.2917e-05
5 *3219:D *602:25 0
6 *3219:D *602:53 0
7 *3219:D *602:59 0
8 *3219:D *843:18 0
*RES
1 *3089:X *3219:D 15.2963 
*END

*D_NET *97 0.0012079
*CONN
*I *3220:D I *D sky130_fd_sc_hd__dfxtp_1
*I *3092:X O *D sky130_fd_sc_hd__clkbuf_1
*CAP
1 *3220:D 0.000164372
2 *3092:X 0.000164372
3 *3220:D *3221:D 0.000241856
4 *3220:D *193:26 5.17877e-05
5 *3220:D *193:56 0.000102346
6 *3220:D *291:24 5.01066e-05
7 *3220:D *391:43 0.000433059
*RES
1 *3092:X *3220:D 12.8888 
*END

*D_NET *98 0.000792322
*CONN
*I *3221:D I *D sky130_fd_sc_hd__dfxtp_1
*I *3094:X O *D sky130_fd_sc_hd__clkbuf_1
*CAP
1 *3221:D 0.000122235
2 *3094:X 0.000122235
3 *3221:D *2800:A1 4.66108e-05
4 *3221:D *3091:A0 1.43717e-05
5 *3221:D *3091:S 4.82319e-06
6 *3221:D *193:56 0.000240189
7 *3220:D *3221:D 0.000241856
*RES
1 *3094:X *3221:D 10.6987 
*END

*D_NET *99 0.000498735
*CONN
*I *3222:D I *D sky130_fd_sc_hd__dfxtp_1
*I *3097:X O *D sky130_fd_sc_hd__clkbuf_1
*CAP
1 *3222:D 9.14603e-05
2 *3097:X 9.14603e-05
3 *3222:D *2704:B1 4.82919e-05
4 *3222:D *183:56 4.82319e-06
5 *3222:D *374:141 0.00013026
6 *3222:D *376:84 0.000132439
*RES
1 *3097:X *3222:D 9.42375 
*END

*D_NET *100 0.000918948
*CONN
*I *3223:D I *D sky130_fd_sc_hd__dfxtp_1
*I *3100:X O *D sky130_fd_sc_hd__clkbuf_1
*CAP
1 *3223:D 0.000249101
2 *3100:X 0.000249101
3 *3223:D *2772:A1 0.000162996
4 *3223:D *2772:A3 2.01259e-05
5 *3223:D *2772:B1 0.00017995
6 *3223:D *2778:B 4.89395e-05
7 *3223:D *194:41 8.73389e-06
*RES
1 *3100:X *3223:D 8.3 
*END

*D_NET *101 0.000848617
*CONN
*I *3224:D I *D sky130_fd_sc_hd__dfxtp_1
*I *3103:X O *D sky130_fd_sc_hd__clkbuf_1
*CAP
1 *3224:D 0.000187081
2 *3103:X 0.000187081
3 *3224:D *2776:A1 4.66108e-05
4 *3224:D *3130:A0 1.54049e-05
5 *3224:D *3225:D 9.24825e-05
6 *3224:D *197:128 0
7 *3224:D *601:10 0.000112907
8 *3224:D *601:12 0.000133085
9 *3224:D *601:14 7.39642e-05
*RES
1 *3103:X *3224:D 11.4637 
*END

*D_NET *102 0.000336327
*CONN
*I *3225:D I *D sky130_fd_sc_hd__dfxtp_1
*I *3105:X O *D sky130_fd_sc_hd__clkbuf_1
*CAP
1 *3225:D 9.57294e-05
2 *3105:X 9.57294e-05
3 *3225:D *2714:A1 4.78698e-06
4 *3225:D *2776:A1 4.75991e-05
5 *3224:D *3225:D 9.24825e-05
*RES
1 *3105:X *3225:D 8.91375 
*END

*D_NET *103 0.000384091
*CONN
*I *3226:D I *D sky130_fd_sc_hd__dfxtp_1
*I *3108:X O *D sky130_fd_sc_hd__clkbuf_1
*CAP
1 *3226:D 9.94924e-05
2 *3108:X 9.94924e-05
3 *3226:D *358:114 8.63492e-05
4 *3226:D *476:56 9.87571e-05
*RES
1 *3108:X *3226:D 5.75375 
*END

*D_NET *104 0.000924063
*CONN
*I *3227:D I *D sky130_fd_sc_hd__dfxtp_1
*I *3110:X O *D sky130_fd_sc_hd__clkbuf_1
*CAP
1 *3227:D 0.000216945
2 *3110:X 0.000216945
3 *3227:D *2804:A2 0
4 *3227:D *3112:S 2.42236e-05
5 *3227:D *3114:A0 0.000138961
6 *3227:D *235:18 0
7 *3227:D *350:93 0
8 *3227:D *399:34 0.000203484
9 *3227:D *500:131 0.000123503
*RES
1 *3110:X *3227:D 12.0487 
*END

*D_NET *105 0.000530647
*CONN
*I *3228:D I *D sky130_fd_sc_hd__dfxtp_1
*I *3113:X O *D sky130_fd_sc_hd__clkbuf_1
*CAP
1 *3228:D 0.000107622
2 *3113:X 0.000107622
3 *3228:D *2622:A 0.000115464
4 *3228:D *2773:A 0.000118632
5 *3228:D *2777:B1 1.91597e-05
6 *3228:D *3127:B 4.77757e-05
7 *3228:D *3227:CLK 1.43717e-05
*RES
1 *3113:X *3228:D 9.51375 
*END

*D_NET *106 0.000515606
*CONN
*I *3229:D I *D sky130_fd_sc_hd__dfxtp_1
*I *3115:X O *D sky130_fd_sc_hd__clkbuf_1
*CAP
1 *3229:D 7.56277e-05
2 *3115:X 7.56277e-05
3 *3229:D *3117:A 7.62528e-05
4 *3229:D *3229:CLK 0.00011504
5 *3229:D *445:8 1.15688e-05
6 *3229:D *726:38 0.00013646
7 *3229:D *829:14 2.50284e-05
*RES
1 *3115:X *3229:D 9.555 
*END

*D_NET *107 0.000515847
*CONN
*I *3230:D I *D sky130_fd_sc_hd__dfxtp_1
*I *3119:X O *D sky130_fd_sc_hd__clkbuf_1
*CAP
1 *3230:D 0.000146918
2 *3119:X 0.000146918
3 *3230:D *3121:A 0.000106557
4 *3230:D *3128:A0 4.66108e-05
5 *3230:D *601:22 6.88421e-05
*RES
1 *3119:X *3230:D 10.0238 
*END

*D_NET *108 0.000431804
*CONN
*I *3231:D I *D sky130_fd_sc_hd__dfxtp_1
*I *3121:X O *D sky130_fd_sc_hd__clkbuf_1
*CAP
1 *3231:D 0.00018019
2 *3121:X 0.00018019
3 *3231:D *3231:CLK 7.14241e-05
*RES
1 *3121:X *3231:D 9.79875 
*END

*D_NET *109 0.00258668
*CONN
*I *3232:D I *D sky130_fd_sc_hd__dfxtp_1
*I *3124:X O *D sky130_fd_sc_hd__clkbuf_1
*CAP
1 *3232:D 0.000444029
2 *3124:X 0.000444029
3 *3232:D *2791:C 0.000252369
4 *3232:D *2800:C1 0.000362513
5 *3232:D *3125:A1 0.000544856
6 *3232:D *3232:CLK 6.21763e-05
7 *3232:D *187:64 0.000100919
8 *3232:D *370:54 9.29751e-06
9 *3232:D *594:26 0.000366494
*RES
1 *3124:X *3232:D 18.9037 
*END

*D_NET *110 0.00145577
*CONN
*I *3233:D I *D sky130_fd_sc_hd__dfxtp_1
*I *3126:X O *D sky130_fd_sc_hd__clkbuf_1
*CAP
1 *3233:D 0.000390771
2 *3126:X 0.000390771
3 *3233:D *3124:A 3.86529e-05
4 *3233:D *3233:CLK 0.000127419
5 *3233:D *202:14 0
6 *3233:D *231:98 2.28346e-05
7 *3233:D *350:83 0.000122331
8 *3233:D *737:36 0.000362991
*RES
1 *3126:X *3233:D 16.2337 
*END

*D_NET *111 0.000267982
*CONN
*I *3234:D I *D sky130_fd_sc_hd__dfxtp_1
*I *3129:X O *D sky130_fd_sc_hd__clkbuf_1
*CAP
1 *3234:D 0.00010901
2 *3129:X 0.00010901
3 *3234:D *3234:CLK 4.99619e-05
*RES
1 *3129:X *3234:D 4.92875 
*END

*D_NET *112 0.000596388
*CONN
*I *3235:D I *D sky130_fd_sc_hd__dfxtp_1
*I *3131:X O *D sky130_fd_sc_hd__clkbuf_1
*CAP
1 *3235:D 0.000266027
2 *3131:X 0.000266027
3 *3235:D *3129:A 4.99619e-05
4 *3235:D *3131:A 0
5 *3235:D *3234:CLK 0
6 *3235:D *601:99 1.43717e-05
*RES
1 *3131:X *3235:D 11.4637 
*END

*D_NET *113 0.000538454
*CONN
*I *3236:D I *D sky130_fd_sc_hd__dfxtp_1
*I *2547:X O *D sky130_fd_sc_hd__clkbuf_1
*CAP
1 *3236:D 8.13396e-05
2 *2547:X 8.13396e-05
3 *3236:D *3133:A1 0.000156916
4 *3236:D *212:20 0.000158845
5 *3236:D *594:22 6.00132e-05
*RES
1 *2547:X *3236:D 10.0387 
*END

*D_NET *114 0.000268444
*CONN
*I *3237:D I *D sky130_fd_sc_hd__dfxtp_1
*I *2549:X O *D sky130_fd_sc_hd__clkbuf_1
*CAP
1 *3237:D 0.000113987
2 *2549:X 0.000113987
3 *3237:D *176:54 4.04711e-05
*RES
1 *2549:X *3237:D 4.92875 
*END

*D_NET *115 0.00143873
*CONN
*I *3238:D I *D sky130_fd_sc_hd__dfxtp_1
*I *2552:X O *D sky130_fd_sc_hd__clkbuf_1
*CAP
1 *3238:D 0.000490203
2 *2552:X 0.000490203
3 *3238:D *2552:A 2.49909e-05
4 *3238:D *2749:A 5.17934e-05
5 *3238:D *2750:B1 1.4399e-05
6 *3238:D *2780:A 0.000126084
7 *3238:D *2989:A 0.000132581
8 *3238:D *3383:A 7.06865e-05
9 *3238:D *511:150 0
10 *3238:D *819:6 3.77879e-05
*RES
1 *2552:X *3238:D 14.8687 
*END

*D_NET *116 0.000351768
*CONN
*I *3239:D I *D sky130_fd_sc_hd__dfxtp_1
*I *2554:X O *D sky130_fd_sc_hd__clkbuf_1
*CAP
1 *3239:D 0.000102827
2 *2554:X 0.000102827
3 *3239:D *2554:A 8.66171e-05
4 *3239:D *3239:CLK 5.94962e-05
*RES
1 *2554:X *3239:D 5.03375 
*END

*D_NET *117 0.000355911
*CONN
*I *3240:D I *D sky130_fd_sc_hd__dfxtp_1
*I *2559:X O *D sky130_fd_sc_hd__clkbuf_1
*CAP
1 *3240:D 0.000138821
2 *2559:X 0.000138821
3 *3240:D *3240:CLK 7.82691e-05
4 *3240:D *591:18 0
*RES
1 *2559:X *3240:D 9.3 
*END

*D_NET *118 0.000574783
*CONN
*I *3241:D I *D sky130_fd_sc_hd__dfxtp_1
*I *2561:X O *D sky130_fd_sc_hd__clkbuf_1
*CAP
1 *3241:D 0.000168033
2 *2561:X 0.000168033
3 *3241:D *2559:A 5.76361e-05
4 *3241:D *2561:A 6.90876e-05
5 *3241:D *591:14 0.000111993
*RES
1 *2561:X *3241:D 6.30875 
*END

*D_NET *119 0.000364002
*CONN
*I *3242:D I *D sky130_fd_sc_hd__dfxtp_1
*I *2564:X O *D sky130_fd_sc_hd__clkbuf_1
*CAP
1 *3242:D 0.000182001
2 *2564:X 0.000182001
*RES
1 *2564:X *3242:D 10.0087 
*END

*D_NET *120 0.000499107
*CONN
*I *3243:D I *D sky130_fd_sc_hd__dfxtp_1
*I *2566:X O *D sky130_fd_sc_hd__clkbuf_1
*CAP
1 *3243:D 0.000192722
2 *2566:X 0.000192722
3 *3243:D *3243:CLK 0.000113663
4 *3243:D *511:66 0
*RES
1 *2566:X *3243:D 10.4587 
*END

*D_NET *121 0.000461466
*CONN
*I *3244:D I *D sky130_fd_sc_hd__dfxtp_1
*I *2569:X O *D sky130_fd_sc_hd__clkbuf_1
*CAP
1 *3244:D 0.000184726
2 *2569:X 0.000184726
3 *3244:D *2569:A 0
4 *3244:D *3244:CLK 9.20132e-05
*RES
1 *2569:X *3244:D 10.3538 
*END

*D_NET *122 0.000496988
*CONN
*I *3245:D I *D sky130_fd_sc_hd__dfxtp_1
*I *2571:X O *D sky130_fd_sc_hd__clkbuf_1
*CAP
1 *3245:D 0.000166022
2 *2571:X 0.000166022
3 *3245:D *2568:A1 0
4 *3245:D *2571:A 4.05358e-05
5 *3245:D *591:92 0.000124408
*RES
1 *2571:X *3245:D 10.6987 
*END

*D_NET *123 0.000273428
*CONN
*I *3246:D I *D sky130_fd_sc_hd__dfxtp_1
*I *2574:X O *D sky130_fd_sc_hd__clkbuf_1
*CAP
1 *3246:D 0.000116446
2 *2574:X 0.000116446
3 *3246:D *591:22 4.05358e-05
*RES
1 *2574:X *3246:D 9.10875 
*END

*D_NET *124 0.000453941
*CONN
*I *3247:D I *D sky130_fd_sc_hd__dfxtp_1
*I *2576:X O *D sky130_fd_sc_hd__clkbuf_1
*CAP
1 *3247:D 0.000145026
2 *2576:X 0.000145026
3 *3247:D *2574:A 0.00016389
*RES
1 *2576:X *3247:D 9.76875 
*END

*D_NET *125 0.000697508
*CONN
*I *3248:D I *D sky130_fd_sc_hd__dfxtp_1
*I *2579:X O *D sky130_fd_sc_hd__clkbuf_1
*CAP
1 *3248:D 0.000348754
2 *2579:X 0.000348754
*RES
1 *2579:X *3248:D 8.18375 
*END

*D_NET *126 0.00045595
*CONN
*I *3249:D I *D sky130_fd_sc_hd__dfxtp_1
*I *2581:X O *D sky130_fd_sc_hd__clkbuf_1
*CAP
1 *3249:D 0.000115715
2 *2581:X 0.000115715
3 *3249:D *3249:CLK 0.000125139
4 *3249:D *3347:A 5.14627e-05
5 *3249:D *197:134 4.79189e-05
*RES
1 *2581:X *3249:D 10.0087 
*END

*D_NET *127 0.000369877
*CONN
*I *3250:D I *D sky130_fd_sc_hd__dfxtp_1
*I *2584:X O *D sky130_fd_sc_hd__clkbuf_1
*CAP
1 *3250:D 0.00017566
2 *2584:X 0.00017566
3 *3250:D *598:72 1.43717e-05
4 *3250:D *598:82 4.18603e-06
*RES
1 *2584:X *3250:D 9.51375 
*END

*D_NET *128 0.000862456
*CONN
*I *3251:D I *D sky130_fd_sc_hd__dfxtp_1
*I *2586:X O *D sky130_fd_sc_hd__clkbuf_1
*CAP
1 *3251:D 0.000350224
2 *2586:X 0.000350224
3 *3251:D *2586:A 7.1624e-05
4 *3251:D *511:79 0
5 *3251:D *598:82 7.20071e-05
6 *3251:D *806:10 1.83756e-05
*RES
1 *2586:X *3251:D 12.9487 
*END

*D_NET *129 0.000457106
*CONN
*I *3252:D I *D sky130_fd_sc_hd__dfxtp_1
*I *2589:X O *D sky130_fd_sc_hd__clkbuf_1
*CAP
1 *3252:D 0.000174543
2 *2589:X 0.000174543
3 *3252:D *3459:A 5.72091e-05
4 *3252:D *197:134 4.66446e-05
5 *3252:D *511:96 4.1652e-06
*RES
1 *2589:X *3252:D 10.3538 
*END

*D_NET *130 0.00041755
*CONN
*I *3253:D I *D sky130_fd_sc_hd__dfxtp_1
*I *2591:X O *D sky130_fd_sc_hd__clkbuf_1
*CAP
1 *3253:D 9.6103e-05
2 *2591:X 9.6103e-05
3 *3253:D *544:22 9.12019e-05
4 *3253:D *598:62 9.53428e-06
5 *3253:D *598:66 2.67184e-05
6 *3253:D *598:122 9.78895e-05
*RES
1 *2591:X *3253:D 5.78 
*END

*D_NET *131 0.000488571
*CONN
*I *3254:D I *D sky130_fd_sc_hd__dfxtp_1
*I *2594:X O *D sky130_fd_sc_hd__clkbuf_1
*CAP
1 *3254:D 9.16805e-05
2 *2594:X 9.16805e-05
3 *3254:D *3255:CLK 1.43717e-05
4 *3254:D *174:83 8.73389e-06
5 *3254:D *208:18 0.000131602
6 *3254:D *322:61 4.82319e-06
7 *3254:D *371:61 0.00013426
8 *3254:D *374:90 1.14192e-05
*RES
1 *2594:X *3254:D 9.42375 
*END

*D_NET *132 0.000892476
*CONN
*I *3255:D I *D sky130_fd_sc_hd__dfxtp_1
*I *2596:X O *D sky130_fd_sc_hd__clkbuf_1
*CAP
1 *3255:D 0.000270649
2 *2596:X 0.000270649
3 *3255:D *2995:B 6.02035e-05
4 *3255:D *2996:A1 0.000244543
5 *3255:D *3391:A 1.85674e-05
6 *3255:D *436:14 2.78641e-05
*RES
1 *2596:X *3255:D 9.11375 
*END

*D_NET *133 0.000336033
*CONN
*I *3256:D I *D sky130_fd_sc_hd__dfxtp_1
*I *2599:X O *D sky130_fd_sc_hd__clkbuf_1
*CAP
1 *3256:D 0.000130467
2 *2599:X 0.000130467
3 *3256:D *2601:A 6.9735e-05
4 *3256:D *811:10 5.36384e-06
*RES
1 *2599:X *3256:D 9.42375 
*END

*D_NET *134 0.000272051
*CONN
*I *3257:D I *D sky130_fd_sc_hd__dfxtp_1
*I *2601:X O *D sky130_fd_sc_hd__clkbuf_1
*CAP
1 *3257:D 0.000125041
2 *2601:X 0.000125041
3 *3257:D *3256:CLK 1.71824e-05
4 *3257:D *3473:A 4.78698e-06
*RES
1 *2601:X *3257:D 8.91375 
*END

*D_NET *135 0.000996005
*CONN
*I *3258:D I *D sky130_fd_sc_hd__dfxtp_1
*I *2604:X O *D sky130_fd_sc_hd__clkbuf_1
*CAP
1 *3258:D 0.000336254
2 *2604:X 0.000336254
3 *3258:D *2557:B 0
4 *3258:D *2606:A 4.99619e-05
5 *3258:D *2804:B1 0.000122313
6 *3258:D *599:42 4.82919e-05
7 *3258:D *599:53 0.00010293
*RES
1 *2604:X *3258:D 13.23 
*END

*D_NET *136 0.000724453
*CONN
*I *3259:D I *D sky130_fd_sc_hd__dfxtp_1
*I *2606:X O *D sky130_fd_sc_hd__clkbuf_1
*CAP
1 *3259:D 0.000246327
2 *2606:X 0.000246327
3 *3259:D *2605:A1 0
4 *3259:D *2805:B2 0
5 *3259:D *3265:CLK 1.43521e-05
6 *3259:D *208:58 1.54049e-05
7 *3259:D *599:14 2.03578e-05
8 *3259:D *599:16 7.45794e-05
9 *3259:D *599:42 2.0514e-05
10 *3259:D *599:53 8.65905e-05
*RES
1 *2606:X *3259:D 11.3888 
*END

*D_NET *137 0.000681401
*CONN
*I *3260:D I *D sky130_fd_sc_hd__dfxtp_1
*I *2609:X O *D sky130_fd_sc_hd__clkbuf_1
*CAP
1 *3260:D 0.000212469
2 *2609:X 0.000212469
3 *3260:D *2577:A 2.84434e-05
4 *3260:D *2609:A 3.00381e-05
5 *3260:D *2804:A2 3.95347e-05
6 *3260:D *3260:CLK 1.43717e-05
7 *3260:D *3261:CLK 1.34503e-05
8 *3260:D *3261:D 7.55097e-05
9 *3260:D *316:78 5.51158e-05
*RES
1 *2609:X *3260:D 10.8038 
*END

*D_NET *138 0.000595578
*CONN
*I *3261:D I *D sky130_fd_sc_hd__dfxtp_1
*I *2611:X O *D sky130_fd_sc_hd__clkbuf_1
*CAP
1 *3261:D 0.000171075
2 *2611:X 0.000171075
3 *3261:D *2577:A 1.54049e-05
4 *3261:D *2760:A1 3.1562e-06
5 *3261:D *2804:A2 0.000139231
6 *3261:D *3260:CLK 2.01259e-05
7 *3261:D *316:78 0
8 *3260:D *3261:D 7.55097e-05
*RES
1 *2611:X *3261:D 10.1138 
*END

*D_NET *139 0.00121856
*CONN
*I *3262:D I *D sky130_fd_sc_hd__dfxtp_1
*I *2614:X O *D sky130_fd_sc_hd__clkbuf_1
*CAP
1 *3262:D 0.000307718
2 *2614:X 0.000307718
3 *3262:D *2614:A 0.000136276
4 *3262:D *2724:B2 0.000139238
5 *3262:D *2728:A 7.44375e-05
6 *3262:D *3262:CLK 0.000120655
7 *3262:D *511:30 0.000123017
8 *3262:D *817:10 9.50342e-06
*RES
1 *2614:X *3262:D 13.11 
*END

*D_NET *140 0.000707999
*CONN
*I *3263:D I *D sky130_fd_sc_hd__dfxtp_1
*I *2616:X O *D sky130_fd_sc_hd__clkbuf_1
*CAP
1 *3263:D 0.000146204
2 *2616:X 0.000146204
3 *3263:D *2557:A 2.49909e-05
4 *3263:D *2557:B 0.000131284
5 *3263:D *2604:A 0
6 *3263:D *2615:A1 6.28843e-05
7 *3263:D *2616:A 8.09809e-05
8 *3263:D *2804:B1 0
9 *3263:D *2808:A2 2.97004e-06
10 *3263:D *538:22 2.96383e-05
11 *3263:D *892:8 8.28433e-05
*RES
1 *2616:X *3263:D 10.9163 
*END

*D_NET *141 0.00159866
*CONN
*I *3264:D I *D sky130_fd_sc_hd__dfxtp_1
*I *2619:X O *D sky130_fd_sc_hd__clkbuf_1
*CAP
1 *3264:D 0.000610568
2 *2619:X 0.000610568
3 *3264:D *2727:B2 0.000114524
4 *3264:D *871:10 0.000262996
*RES
1 *2619:X *3264:D 18.7087 
*END

*D_NET *142 0.000326338
*CONN
*I *3265:D I *D sky130_fd_sc_hd__dfxtp_1
*I *2621:X O *D sky130_fd_sc_hd__clkbuf_1
*CAP
1 *3265:D 6.14101e-05
2 *2621:X 6.14101e-05
3 *3265:D *2621:A 1.54665e-05
4 *3265:D *3265:CLK 0.000109537
5 *3265:D *3473:A 7.85138e-05
*RES
1 *2621:X *3265:D 5.435 
*END

*D_NET *143 0.000319494
*CONN
*I *3266:D I *D sky130_fd_sc_hd__dfxtp_1
*I *2624:X O *D sky130_fd_sc_hd__clkbuf_1
*CAP
1 *3266:D 0.000159747
2 *2624:X 0.000159747
*RES
1 *2624:X *3266:D 5.27375 
*END

*D_NET *144 0.000988901
*CONN
*I *3267:D I *D sky130_fd_sc_hd__dfxtp_1
*I *2626:X O *D sky130_fd_sc_hd__clkbuf_1
*CAP
1 *3267:D 0.000226117
2 *2626:X 0.000226117
3 *3267:D *2572:A 7.23533e-05
4 *3267:D *2622:B 0
5 *3267:D *2623:A0 6.25711e-06
6 *3267:D *2626:A 4.99619e-05
7 *3267:D *2802:A1 0.000146948
8 *3267:D *2802:B1 0.000204306
9 *3267:D *2808:B1 0
10 *3267:D *3267:CLK 4.28112e-06
11 *3267:D *174:112 1.86443e-05
12 *3267:D *527:40 3.39151e-05
*RES
1 *2626:X *3267:D 12.405 
*END

*D_NET *145 0.000569339
*CONN
*I *3268:D I *D sky130_fd_sc_hd__dfxtp_1
*I *2629:X O *D sky130_fd_sc_hd__clkbuf_1
*CAP
1 *3268:D 0.000119235
2 *2629:X 0.000119235
3 *3268:D *2629:A 0.000134181
4 *3268:D *2790:A1 1.43717e-05
5 *3268:D *215:86 8.35106e-05
6 *3268:D *415:52 2.17842e-05
7 *3268:D *827:10 7.70216e-05
*RES
1 *2629:X *3268:D 9.76875 
*END

*D_NET *146 0.00093058
*CONN
*I *3269:D I *D sky130_fd_sc_hd__dfxtp_1
*I *2631:X O *D sky130_fd_sc_hd__clkbuf_1
*CAP
1 *3269:D 0.00024799
2 *2631:X 0.00024799
3 *3269:D *2595:A0 5.22119e-05
4 *3269:D *2628:A0 7.97197e-06
5 *3269:D *2629:A 6.16289e-05
6 *3269:D *2631:A 5.83121e-06
7 *3269:D *2763:B2 0.000192673
8 *3269:D *2978:A 2.4057e-05
9 *3269:D *3269:CLK 1.19928e-05
10 *3269:D *322:10 1.79483e-05
11 *3269:D *827:10 6.02846e-05
*RES
1 *2631:X *3269:D 10.1756 
*END

*D_NET *147 0.000644632
*CONN
*I *3270:D I *D sky130_fd_sc_hd__dfxtp_1
*I *2634:X O *D sky130_fd_sc_hd__clkbuf_1
*CAP
1 *3270:D 0.000196554
2 *2634:X 0.000196554
3 *3270:D *2818:A1 0.000158302
4 *3270:D *351:150 0
5 *3270:D *592:18 4.66108e-05
6 *3270:D *592:22 4.66108e-05
*RES
1 *2634:X *3270:D 10.4587 
*END

*D_NET *148 0.000990207
*CONN
*I *3271:D I *D sky130_fd_sc_hd__dfxtp_1
*I *2636:X O *D sky130_fd_sc_hd__clkbuf_1
*CAP
1 *3271:D 0.000166751
2 *2636:X 0.000166751
3 *3271:D *2632:B 0.000266618
4 *3271:D *2683:B 2.49909e-05
5 *3271:D *3271:CLK 7.20896e-05
6 *3271:D *328:149 0.000182104
7 *3271:D *574:8 7.32433e-05
8 *3271:D *608:37 3.76596e-05
*RES
1 *2636:X *3271:D 12.2587 
*END

*D_NET *149 0.000313853
*CONN
*I *3272:D I *D sky130_fd_sc_hd__dfrtp_1
*I *2638:X O *D sky130_fd_sc_hd__clkbuf_1
*CAP
1 *3272:D 0.000136709
2 *2638:X 0.000136709
3 *3272:D *2655:A 1.37328e-05
4 *3272:D *3272:RESET_B 2.67022e-05
*RES
1 *2638:X *3272:D 9.225 
*END

*D_NET *150 0.000403948
*CONN
*I *3282:D I *D sky130_fd_sc_hd__dfrtp_4
*I *2639:Y O *D sky130_fd_sc_hd__xnor2_1
*CAP
1 *3282:D 0.000141646
2 *2639:Y 0.000141646
3 *3282:D *2639:B 0.000120655
*RES
1 *2639:Y *3282:D 5.045 
*END

*D_NET *151 0.000540568
*CONN
*I *3283:D I *D sky130_fd_sc_hd__dfrtp_1
*I *2641:X O *D sky130_fd_sc_hd__clkbuf_1
*CAP
1 *3283:D 0.000227636
2 *2641:X 0.000227636
3 *3283:D *2731:A1 8.52972e-05
*RES
1 *2641:X *3283:D 10.155 
*END

*D_NET *152 0.000366491
*CONN
*I *3285:D I *D sky130_fd_sc_hd__dfrtp_1
*I *2643:X O *D sky130_fd_sc_hd__a22o_1
*CAP
1 *3285:D 0.000168863
2 *2643:X 0.000168863
3 *3285:D *2643:B2 2.18634e-06
4 *3285:D *2677:A 2.65792e-05
*RES
1 *2643:X *3285:D 9.675 
*END

*D_NET *153 0.000547117
*CONN
*I *3451:A I *D sky130_fd_sc_hd__dlygate4sd3_1
*I *2646:X O *D sky130_fd_sc_hd__a221o_1
*CAP
1 *3451:A 0.000216277
2 *2646:X 0.000216277
3 *3451:A *2646:A2 4.05358e-05
4 *3451:A *781:16 7.4027e-05
*RES
1 *2646:X *3451:A 10.86 
*END

*D_NET *154 0.000707819
*CONN
*I *3288:D I *D sky130_fd_sc_hd__dfrtp_1
*I *2649:X O *D sky130_fd_sc_hd__clkbuf_1
*CAP
1 *3288:D 0.00017344
2 *2649:X 0.00017344
3 *3288:D *641:22 0.000262524
4 *3292:D *3288:D 9.84159e-05
*RES
1 *2649:X *3288:D 11.16 
*END

*D_NET *155 0.000670187
*CONN
*I *3293:D I *D sky130_fd_sc_hd__dfstp_1
*I *2655:X O *D sky130_fd_sc_hd__clkbuf_1
*CAP
1 *3293:D 0.000281133
2 *2655:X 0.000281133
3 *3293:D *315:12 4.05127e-05
4 *3294:D *3293:D 6.74079e-05
*RES
1 *2655:X *3293:D 11.1 
*END

*D_NET *156 0.00264992
*CONN
*I *2663:A2 I *D sky130_fd_sc_hd__a221o_1
*I *2677:B I *D sky130_fd_sc_hd__and2_1
*I *2656:X O *D sky130_fd_sc_hd__and3b_1
*CAP
1 *2663:A2 2.71308e-05
2 *2677:B 0.000623907
3 *2656:X 5.17136e-05
4 *156:10 0.000702751
5 *2663:A2 *2663:A1 0.000104854
6 *2663:A2 *2675:B 0.000130428
7 *2677:B *2664:A2 0.000114858
8 *2677:B *2664:C1 1.70935e-05
9 *2677:B *2666:B 2.67022e-05
10 *2677:B *2673:B1 1.61461e-05
11 *2677:B *2675:B 0.000187988
12 *2677:B *3284:RESET_B 1.53577e-05
13 *2677:B *3301:A 8.08439e-05
14 *2677:B *323:10 2.75145e-05
15 *2677:B *630:42 4.05674e-06
16 *2677:B *630:54 0.000186104
17 *2677:B *792:19 0.000137795
18 *2677:B *793:24 2.54824e-05
19 *156:10 *630:54 4.94326e-05
20 *156:10 *794:33 6.28765e-05
21 *11:43 *2663:A2 1.46828e-05
22 *11:43 *2677:B 4.21973e-05
*RES
1 *2656:X *156:10 6.98 
2 *156:10 *2677:B 20.355 
3 *156:10 *2663:A2 2.9125 
*END

*D_NET *157 0.00259961
*CONN
*I *2675:C I *D sky130_fd_sc_hd__and3_1
*I *2674:A3 I *D sky130_fd_sc_hd__a31o_1
*I *2670:C I *D sky130_fd_sc_hd__and3b_1
*I *2663:B1 I *D sky130_fd_sc_hd__a221o_1
*I *2657:Y O *D sky130_fd_sc_hd__nor2_1
*CAP
1 *2675:C 0.000149499
2 *2674:A3 0
3 *2670:C 5.35924e-05
4 *2663:B1 0
5 *2657:Y 0.000290696
6 *157:40 0.000168379
7 *157:27 0.000159013
8 *157:18 0.000377237
9 *2670:C *3289:D 3.09164e-05
10 *2670:C *793:16 4.19884e-05
11 *2670:C *795:12 4.44927e-05
12 *2670:C *795:16 9.71067e-05
13 *2675:C *2674:A1 5.68868e-05
14 *2675:C *2674:B1 1.12643e-05
15 *2675:C *2675:B 2.04339e-05
16 *2675:C *2676:A 0.000168383
17 *157:18 *2657:B 0
18 *157:18 *2676:A 5.39961e-05
19 *157:18 *3289:RESET_B 0.000120186
20 *157:18 *641:22 0.000158673
21 *157:18 *794:33 0
22 *157:18 *794:46 0
23 *157:18 *795:29 9.50342e-06
24 *157:18 *795:54 0.000162751
25 *157:27 *2663:B2 2.48591e-05
26 *157:27 *2675:B 4.00541e-06
27 *157:27 *2676:A 0.00018955
28 *157:40 *2674:A1 5.83121e-06
29 *157:40 *2676:A 4.66108e-05
30 *11:29 *157:18 9.47156e-05
31 *11:43 *157:27 5.90428e-05
*RES
1 *2657:Y *157:18 16.215 
2 *157:18 *2663:B1 1.6 
3 *157:18 *157:27 2.19 
4 *157:27 *2670:C 7.235 
5 *157:27 *157:40 0.45 
6 *157:40 *2674:A3 1.6 
7 *157:40 *2675:C 4.72 
*END

*D_NET *158 0.00218765
*CONN
*I *2659:C I *D sky130_fd_sc_hd__and3_1
*I *2664:B1 I *D sky130_fd_sc_hd__a211oi_1
*I *2835:C I *D sky130_fd_sc_hd__or4b_2
*I *2658:Y O *D sky130_fd_sc_hd__inv_2
*CAP
1 *2659:C 0.000226185
2 *2664:B1 0.000152885
3 *2835:C 0
4 *2658:Y 5.77745e-05
5 *158:6 0.000436844
6 *2659:C *2661:B1 0.000156344
7 *2659:C *2673:A2 2.44601e-05
8 *2659:C *2673:B1 7.04628e-05
9 *2659:C *2677:A 0.000194019
10 *2659:C *159:12 3.64998e-06
11 *2659:C *793:32 5.88634e-05
12 *2659:C *793:47 7.47038e-05
13 *2664:B1 *2664:A1 0.000267175
14 *2664:B1 *2677:A 0.000253973
15 *2664:B1 *795:54 2.98446e-05
16 *2664:B1 *795:62 2.01504e-05
17 *158:6 *795:54 0.000160314
*RES
1 *2658:Y *158:6 3.085 
2 *158:6 *2835:C 1.6 
3 *158:6 *2664:B1 5.77 
4 *158:6 *2659:C 11.27 
*END

*D_NET *159 0.00625621
*CONN
*I *2673:A2 I *D sky130_fd_sc_hd__a211o_1
*I *2661:A2 I *D sky130_fd_sc_hd__a21o_1
*I *2823:C I *D sky130_fd_sc_hd__and4_1
*I *2847:B1 I *D sky130_fd_sc_hd__o21a_1
*I *2659:X O *D sky130_fd_sc_hd__and3_1
*CAP
1 *2673:A2 0.000150762
2 *2661:A2 3.31611e-05
3 *2823:C 6.08137e-05
4 *2847:B1 0.00011117
5 *2659:X 0
6 *159:20 0.00105644
7 *159:12 0.00108
8 *159:4 0.000313141
9 *2673:A2 *2657:A 0.000410367
10 *2673:A2 *2673:B1 6.48201e-05
11 *2823:C *2823:D 0.000234973
12 *2823:C *775:14 0.000112717
13 *2823:C *775:21 0.000158532
14 *2847:B1 *2823:D 0.000118081
15 *2847:B1 *313:10 2.8185e-05
16 *2847:B1 *674:20 0.000139238
17 *2847:B1 *775:14 4.66108e-05
18 *159:12 *2673:B1 1.74678e-05
19 *159:12 *2677:A 0.000199245
20 *159:20 *2643:B1 0
21 *159:20 *2677:A 0
22 *159:20 *2824:A2 3.56184e-05
23 *159:20 *2824:A3 0
24 *159:20 *2835:D_N 0.000839802
25 *159:20 *2852:B 0
26 *159:20 *3145:D 9.44361e-05
27 *159:20 *3285:RESET_B 0.00044111
28 *159:20 *3318:A 5.56629e-05
29 *159:20 *3369:A 0.000130846
30 *159:20 *310:57 0
31 *159:20 *674:20 0.000129006
32 *159:20 *775:14 2.92496e-05
33 *159:20 *779:14 0
34 *2659:C *2673:A2 2.44601e-05
35 *2659:C *159:12 3.64998e-06
36 *2673:C1 *2673:A2 0.000136645
37 *2848:B1_N *2847:B1 0
*RES
1 *2659:X *159:4 1.6 
2 *159:4 *159:12 7.195 
3 *159:12 *159:20 24.805 
4 *159:20 *2847:B1 8.375 
5 *159:20 *2823:C 4.12 
6 *159:12 *2661:A2 2.05 
7 *159:4 *2673:A2 6.67 
*END

*D_NET *160 0.00106993
*CONN
*I *2661:B1 I *D sky130_fd_sc_hd__a21o_1
*I *2660:X O *D sky130_fd_sc_hd__and4bb_1
*CAP
1 *2661:B1 0.000320667
2 *2660:X 0.000320667
3 *2661:B1 *2659:A 3.06256e-05
4 *2661:B1 *2660:C 7.8726e-06
5 *2661:B1 *2661:A1 4.77757e-05
6 *2661:B1 *2677:A 6.62607e-05
7 *2661:B1 *2870:A1 6.69608e-06
8 *2661:B1 *793:47 7.01359e-05
9 *2661:B1 *795:81 4.28819e-05
10 *2659:C *2661:B1 0.000156344
*RES
1 *2660:X *2661:B1 12.9 
*END

*D_NET *161 0.000771689
*CONN
*I *2662:A I *D sky130_fd_sc_hd__clkbuf_2
*I *2661:X O *D sky130_fd_sc_hd__a21o_1
*CAP
1 *2662:A 0.000175167
2 *2661:X 0.000175167
3 *2662:A *2673:A1 0.000122197
4 *2662:A *2870:A1 8.64421e-05
5 *2662:A *593:95 7.59067e-05
6 *2662:A *786:12 0.000136809
*RES
1 *2661:X *2662:A 10.665 
*END

*D_NET *162 0.00371752
*CONN
*I *2673:B1 I *D sky130_fd_sc_hd__a211o_1
*I *2666:B I *D sky130_fd_sc_hd__or3b_1
*I *2664:Y O *D sky130_fd_sc_hd__a211oi_1
*CAP
1 *2673:B1 0.000827695
2 *2666:B 0.000303924
3 *2664:Y 0
4 *162:6 0.00113162
5 *2666:B *2660:A_N 0.000337531
6 *2666:B *2667:A 0.000159005
7 *2666:B *3301:A 0
8 *2666:B *590:121 0
9 *2666:B *593:8 4.65607e-05
10 *2673:B1 *2660:A_N 0.000270745
11 *2673:B1 *2664:C1 0.000136884
12 *2673:B1 *2835:D_N 0.000109218
13 *2673:B1 *3301:A 0
14 *2659:C *2673:B1 7.04628e-05
15 *2673:A2 *2673:B1 6.48201e-05
16 *2673:C1 *2673:B1 3.84271e-05
17 *2677:B *2666:B 2.67022e-05
18 *2677:B *2673:B1 1.61461e-05
19 *3294:D *2666:B 0.000160314
20 *159:12 *2673:B1 1.74678e-05
*RES
1 *2664:Y *162:6 3.6 
2 *162:6 *2666:B 10.755 
3 *162:6 *2673:B1 16.335 
*END

*D_NET *163 0.00674199
*CONN
*I *2666:C_N I *D sky130_fd_sc_hd__or3b_1
*I *2640:S I *D sky130_fd_sc_hd__mux2_1
*I *2639:B I *D sky130_fd_sc_hd__xnor2_1
*I *2665:X O *D sky130_fd_sc_hd__or3b_2
*CAP
1 *2666:C_N 0
2 *2640:S 0
3 *2639:B 0.000290145
4 *2665:X 0.00055376
5 *163:32 0.00144399
6 *163:18 0.00170761
7 *2639:B *2640:A0 2.78732e-05
8 *2639:B *2641:A 9.14049e-05
9 *2639:B *3282:CLK 2.75229e-05
10 *2639:B *315:22 0.000198945
11 *2639:B *592:102 0.000217192
12 *2639:B *630:12 0
13 *163:18 *2656:A_N 4.82863e-05
14 *163:18 *793:18 2.88568e-05
15 *163:18 *793:24 0.000311688
16 *163:18 *794:29 8.49205e-05
17 *163:18 *795:18 0.000197264
18 *163:18 *795:109 9.13926e-05
19 *163:32 *315:12 3.45117e-05
20 *163:32 *315:22 0.000351268
21 *163:32 *592:102 0.000630999
22 *163:32 *592:113 0.000206158
23 *163:32 *793:24 7.75559e-05
24 *3282:D *2639:B 0.000120655
25 *3294:D *163:32 0
*RES
1 *2665:X *163:18 11.29 
2 *163:18 *163:32 24.385 
3 *163:32 *2639:B 12.11 
4 *163:32 *2640:S 1.6 
5 *163:18 *2666:C_N 1.6 
*END

*D_NET *164 0.000948645
*CONN
*I *2667:A I *D sky130_fd_sc_hd__clkbuf_1
*I *2666:X O *D sky130_fd_sc_hd__or3b_1
*CAP
1 *2667:A 0.000211298
2 *2666:X 0.000211298
3 *2667:A *2660:A_N 7.23602e-05
4 *2667:A *3290:CLK 0.000122325
5 *2667:A *3290:D 2.75229e-05
6 *2667:A *682:14 7.30547e-05
7 *2666:B *2667:A 0.000159005
8 *3294:D *2667:A 7.17811e-05
*RES
1 *2666:X *2667:A 11.46 
*END

*D_NET *165 0.000344292
*CONN
*I *2669:A I *D sky130_fd_sc_hd__clkbuf_1
*I *2668:X O *D sky130_fd_sc_hd__or2_1
*CAP
1 *2669:A 0.000128013
2 *2668:X 0.000128013
3 *2669:A *2668:A 8.8266e-05
*RES
1 *2668:X *2669:A 5.39 
*END

*D_NET *166 0.00149156
*CONN
*I *2671:A I *D sky130_fd_sc_hd__buf_1
*I *2670:X O *D sky130_fd_sc_hd__and3b_1
*CAP
1 *2671:A 0.000351204
2 *2670:X 0.000351204
3 *2671:A *2665:A 9.53428e-06
4 *2671:A *2665:B 0.000158072
5 *2671:A *2665:C_N 4.66108e-05
6 *2671:A *2674:B1 3.76596e-05
7 *2671:A *2675:A 5.51245e-05
8 *2671:A *793:16 4.82919e-05
9 *2671:A *795:109 6.3889e-05
10 *2645:A *2671:A 0.000352569
11 *10:29 *2671:A 1.7396e-05
*RES
1 *2670:X *2671:A 15.315 
*END

*D_NET *167 0.00189867
*CONN
*I *2673:A1 I *D sky130_fd_sc_hd__a211o_1
*I *2870:A1 I *D sky130_fd_sc_hd__o21bai_1
*I *2672:Y O *D sky130_fd_sc_hd__inv_2
*CAP
1 *2673:A1 0.000166606
2 *2870:A1 0.000211418
3 *2672:Y 0
4 *167:4 0.000378024
5 *2673:A1 *786:12 0.000134133
6 *2870:A1 *2661:A1 4.10688e-05
7 *2870:A1 *2677:A 4.66967e-05
8 *2870:A1 *786:12 2.86975e-05
9 *2661:B1 *2870:A1 6.69608e-06
10 *2662:A *2673:A1 0.000122197
11 *2662:A *2870:A1 8.64421e-05
12 *2673:C1 *2673:A1 5.20193e-05
13 *2870:A2 *2870:A1 0.000233565
14 *3292:D *2673:A1 0.000157543
15 *3407:A *2870:A1 0.000233565
*RES
1 *2672:Y *167:4 1.6 
2 *167:4 *2870:A1 11.255 
3 *167:4 *2673:A1 9.83 
*END

*D_NET *168 0.001818
*CONN
*I *2674:B1 I *D sky130_fd_sc_hd__a31o_1
*I *2673:X O *D sky130_fd_sc_hd__a211o_1
*CAP
1 *2674:B1 0.000449883
2 *2673:X 0.000449883
3 *2674:B1 *2648:A1 0.000507533
4 *2674:B1 *2657:A 3.12916e-05
5 *2674:B1 *2657:B 0.000121043
6 *2645:A *2674:B1 0.000134516
7 *2671:A *2674:B1 3.76596e-05
8 *2675:C *2674:B1 1.12643e-05
9 *10:29 *2674:B1 7.49311e-05
*RES
1 *2673:X *2674:B1 17.1938 
*END

*D_NET *169 0.00238361
*CONN
*I *2676:A I *D sky130_fd_sc_hd__clkbuf_1
*I *2675:X O *D sky130_fd_sc_hd__and3_1
*CAP
1 *2676:A 0.000578029
2 *2675:X 0.000578029
3 *2676:A *2648:A1 0
4 *2676:A *2663:A1 3.64998e-06
5 *2676:A *2670:B 0
6 *2676:A *2674:A2 0
7 *2676:A *2675:B 0.000444845
8 *2676:A *630:54 0
9 *2676:A *630:73 0
10 *2676:A *793:16 8.09021e-06
11 *2676:A *794:10 9.37731e-05
12 *2676:A *794:29 7.30547e-05
13 *2676:A *794:33 5.97969e-05
14 *2676:A *795:29 7.81221e-05
15 *2675:C *2676:A 0.000168383
16 *11:43 *2676:A 7.68414e-06
17 *157:18 *2676:A 5.39961e-05
18 *157:27 *2676:A 0.00018955
19 *157:40 *2676:A 4.66108e-05
*RES
1 *2675:X *2676:A 19.515 
*END

*D_NET *170 0.000278178
*CONN
*I *2678:A I *D sky130_fd_sc_hd__clkbuf_1
*I *2677:X O *D sky130_fd_sc_hd__and2_1
*CAP
1 *2678:A 7.80115e-05
2 *2677:X 7.80115e-05
3 *2678:A *323:10 0.000122155
*RES
1 *2677:X *2678:A 5.03 
*END

*D_NET *171 0.00838673
*CONN
*I *2702:C I *D sky130_fd_sc_hd__nor4b_2
*I *2690:D_N I *D sky130_fd_sc_hd__nor4b_2
*I *2716:D I *D sky130_fd_sc_hd__and4bb_4
*I *2695:B_N I *D sky130_fd_sc_hd__and4bb_4
*I *2710:B I *D sky130_fd_sc_hd__and4b_4
*I *2689:C I *D sky130_fd_sc_hd__and4bb_4
*I *2693:C I *D sky130_fd_sc_hd__nor4b_2
*I *2715:B_N I *D sky130_fd_sc_hd__and4bb_4
*I *2705:D I *D sky130_fd_sc_hd__and4_4
*I *2680:D I *D sky130_fd_sc_hd__nor4_1
*I *2679:X O *D sky130_fd_sc_hd__buf_2
*CAP
1 *2702:C 7.16309e-05
2 *2690:D_N 0
3 *2716:D 0
4 *2695:B_N 0
5 *2710:B 0.000156562
6 *2689:C 0
7 *2693:C 0.000171753
8 *2715:B_N 4.04236e-05
9 *2705:D 8.44155e-05
10 *2680:D 7.21243e-05
11 *2679:X 0.00018968
12 *171:97 0.000341018
13 *171:60 0.000483984
14 *171:41 0.000396311
15 *171:37 0.00026422
16 *171:31 0.000408588
17 *171:29 0.000145527
18 *171:23 0.000264805
19 *171:10 0.000236009
20 *171:8 0.000305918
21 *2680:D *187:64 0.000159575
22 *2680:D *194:8 0.000111324
23 *2693:C *2693:A 0.000194874
24 *2693:C *3037:A 6.11009e-05
25 *2693:C *180:44 3.26889e-05
26 *2693:C *180:61 0.000116165
27 *2702:C *2702:B 0
28 *2702:C *2702:D_N 0.000134429
29 *2702:C *178:8 6.71882e-05
30 *2702:C *187:64 2.34423e-05
31 *2702:C *194:8 2.7881e-05
32 *2705:D *2705:B 4.66108e-05
33 *2705:D *3037:A 2.04648e-05
34 *2705:D *178:43 0.000222123
35 *2705:D *179:31 0.000304468
36 *2705:D *179:41 4.82863e-05
37 *2710:B *2710:D 0
38 *2710:B *183:22 0
39 *2710:B *187:16 0
40 *2715:B_N *3003:S 4.41506e-05
41 *2715:B_N *179:58 0.000123225
42 *171:8 *178:8 0.000270415
43 *171:10 *187:64 4.31189e-05
44 *171:10 *194:8 4.75576e-05
45 *171:23 *2690:B 0.0001947
46 *171:23 *2726:B 8.34281e-06
47 *171:23 *2726:D 2.75145e-05
48 *171:23 *3037:A 0.000192125
49 *171:23 *180:138 3.87066e-05
50 *171:23 *182:10 1.33285e-05
51 *171:23 *800:19 0.000122331
52 *171:29 *2690:B 0
53 *171:29 *2716:A_N 8.49205e-05
54 *171:29 *2716:B_N 0
55 *171:29 *3037:A 0.000184071
56 *171:29 *179:31 1.34594e-05
57 *171:29 *179:84 9.77147e-05
58 *171:29 *182:10 4.66108e-05
59 *171:37 *2689:B_N 0.000100184
60 *171:37 *2689:D 4.82863e-05
61 *171:37 *178:41 8.53113e-06
62 *171:37 *179:12 2.60986e-05
63 *171:37 *183:56 0
64 *171:37 *391:16 7.4542e-05
65 *171:41 *183:56 0.000113524
66 *171:41 *208:10 0.000113524
67 *171:60 *2715:D 0.000191673
68 *171:60 *179:58 5.42949e-05
69 *171:60 *180:63 0
70 *171:60 *183:56 0.000155928
71 *171:60 *208:10 4.14369e-05
72 *171:97 *2693:D_N 0.000134434
73 *171:97 *178:41 0.000195932
74 *171:97 *178:74 0.000136884
75 *171:97 *179:12 0.000106885
76 *171:97 *180:44 7.92461e-05
77 *171:97 *183:22 0
78 *171:97 *187:12 4.94404e-05
*RES
1 *2679:X *171:8 6.12 
2 *171:8 *171:10 1.125 
3 *171:10 *2680:D 6 
4 *171:10 *171:23 5.555 
5 *171:23 *171:29 3.93 
6 *171:29 *171:31 2 
7 *171:31 *171:37 6.155 
8 *171:37 *171:41 3.38 
9 *171:41 *2705:D 6.81 
10 *171:41 *171:60 7.04 
11 *171:60 *2715:B_N 2.74 
12 *171:60 *2693:C 9.53 
13 *171:37 *2689:C 1.6 
14 *171:31 *171:97 7.43 
15 *171:97 *2710:B 8 
16 *171:97 *2695:B_N 1.6 
17 *171:29 *2716:D 1.6 
18 *171:23 *2690:D_N 1.6 
19 *171:8 *2702:C 5.715 
*END

*D_NET *172 0.00368757
*CONN
*I *3464:A I *D sky130_fd_sc_hd__buf_1
*I *2766:A2 I *D sky130_fd_sc_hd__a221o_1
*I *2697:A2 I *D sky130_fd_sc_hd__a221o_1
*I *2680:Y O *D sky130_fd_sc_hd__nor4_1
*CAP
1 *3464:A 0.000265927
2 *2766:A2 5.49035e-05
3 *2697:A2 7.18416e-06
4 *2680:Y 0.00016934
5 *172:14 0.0006659
6 *172:10 0.00103908
7 *2697:A2 *2697:C1 1.2818e-05
8 *2766:A2 *2766:B1 0.000157418
9 *2766:A2 *2767:C1 5.94242e-05
10 *2766:A2 *3050:A1 1.74776e-05
11 *2766:A2 *595:97 6.8725e-06
12 *3464:A *2726:D 5.83121e-06
13 *3464:A *800:6 3.72916e-05
14 *3464:A *800:19 1.54874e-05
15 *172:10 *2680:B 2.16389e-05
16 *172:10 *2688:A 0.000121437
17 *172:10 *798:27 0.000158953
18 *172:14 *2680:B 8.53113e-06
19 *172:14 *2720:A_N 0.000132842
20 *172:14 *2766:B1 4.87939e-05
21 *172:14 *2767:C1 7.01276e-05
22 *172:14 *185:27 3.5644e-05
23 *172:14 *421:12 0
24 *172:14 *465:12 0.000142686
25 *172:14 *468:12 0
26 *172:14 *678:12 0
27 *172:14 *798:21 5.13593e-05
28 *172:14 *798:27 9.32656e-05
29 *172:14 *799:53 0.000287337
*RES
1 *2680:Y *172:10 6.3 
2 *172:10 *172:14 11.865 
3 *172:14 *2697:A2 3.72375 
4 *172:14 *2766:A2 5.61375 
5 *172:10 *3464:A 6.735 
*END

*D_NET *173 0.00160492
*CONN
*I *2682:A I *D sky130_fd_sc_hd__buf_2
*I *2779:C I *D sky130_fd_sc_hd__and3_1
*I *2681:Y O *D sky130_fd_sc_hd__nor2_1
*CAP
1 *2682:A 9.45485e-05
2 *2779:C 9.14525e-05
3 *2681:Y 0.00026062
4 *173:12 0.000446621
5 *2682:A *2755:B1 5.16348e-05
6 *2682:A *2779:A 9.15582e-05
7 *2682:A *2978:B 5.53249e-06
8 *2682:A *211:41 0
9 *2682:A *419:14 2.42236e-05
10 *2682:A *419:16 0.00010844
11 *2779:C *2779:A 4.82919e-05
12 *2779:C *3277:RESET_B 4.6194e-05
13 *173:12 *2699:B 7.47284e-05
14 *173:12 *2984:S 4.43871e-06
15 *173:12 *2987:S 4.13443e-05
16 *173:12 *3277:RESET_B 0.000215298
17 *173:12 *419:14 0
*RES
1 *2681:Y *173:12 9.665 
2 *173:12 *2779:C 2.8 
3 *173:12 *2682:A 8.51 
*END

*D_NET *174 0.0210497
*CONN
*I *2750:A3 I *D sky130_fd_sc_hd__a31o_1
*I *2758:B I *D sky130_fd_sc_hd__and2_1
*I *2760:A3 I *D sky130_fd_sc_hd__a311o_1
*I *2756:B I *D sky130_fd_sc_hd__and3_1
*I *2784:B I *D sky130_fd_sc_hd__and3_1
*I *2798:B2 I *D sky130_fd_sc_hd__a32o_1
*I *2729:B1 I *D sky130_fd_sc_hd__o21a_1
*I *2808:B1 I *D sky130_fd_sc_hd__o31a_1
*I *2747:B2 I *D sky130_fd_sc_hd__a32o_1
*I *2683:B I *D sky130_fd_sc_hd__nand2_1
*I *2682:X O *D sky130_fd_sc_hd__buf_2
*CAP
1 *2750:A3 0
2 *2758:B 0
3 *2760:A3 2.14525e-05
4 *2756:B 0
5 *2784:B 0.000394376
6 *2798:B2 0
7 *2729:B1 0.00028673
8 *2808:B1 0.000402793
9 *2747:B2 1.02931e-05
10 *2683:B 0.000174105
11 *2682:X 0.000314939
12 *174:112 0.00127463
13 *174:104 0.000885323
14 *174:83 0.00106771
15 *174:69 0.00143831
16 *174:61 0.000826971
17 *174:43 0.000730063
18 *174:35 0.000547876
19 *174:18 0.00104082
20 *174:14 0.00080215
21 *2683:B *2632:B 0.00015663
22 *2683:B *2683:A 0
23 *2683:B *322:10 2.3429e-05
24 *2683:B *608:18 2.97593e-05
25 *2683:B *608:37 3.09164e-05
26 *2729:B1 *2623:A1 0.000108927
27 *2729:B1 *2625:A1 8.27307e-05
28 *2729:B1 *2721:A1 0.000114356
29 *2729:B1 *2802:B1 7.05354e-05
30 *2729:B1 *3267:CLK 0
31 *2729:B1 *218:42 2.54345e-05
32 *2729:B1 *350:120 7.9709e-05
33 *2747:B2 *2747:A1 4.77719e-05
34 *2747:B2 *2747:B1 4.77719e-05
35 *2760:A3 *2760:B1 0
36 *2784:B *2592:B 2.03356e-05
37 *2784:B *2593:A1 6.81888e-05
38 *2784:B *2593:S 7.22613e-05
39 *2784:B *2788:A 8.53113e-06
40 *2784:B *3373:A 7.32625e-05
41 *2784:B *361:54 0.000377775
42 *2784:B *370:54 1.17309e-05
43 *2784:B *436:14 4.82863e-05
44 *2784:B *550:6 2.0187e-05
45 *2784:B *715:30 5.03222e-05
46 *2784:B *715:47 0.000317014
47 *2784:B *929:12 0.00019608
48 *2808:B1 *2612:B 0
49 *2808:B1 *2613:A0 2.61015e-05
50 *2808:B1 *2625:A1 0.000197505
51 *2808:B1 *2626:A 9.44791e-05
52 *2808:B1 *2802:B1 0.000168724
53 *2808:B1 *2807:A2 0.00015958
54 *2808:B1 *2808:A1 0.000206926
55 *2808:B1 *2808:A2 2.70988e-05
56 *2808:B1 *2808:A3 4.66108e-05
57 *2808:B1 *328:71 3.52357e-05
58 *2808:B1 *538:22 7.29995e-05
59 *174:14 *2750:A2 5.39961e-05
60 *174:14 *2750:B1 4.59354e-05
61 *174:14 *2755:B1 8.23457e-05
62 *174:14 *419:61 0.000216573
63 *174:14 *619:39 4.66108e-05
64 *174:18 *2629:A 0.000441758
65 *174:18 *2632:B 0.000136023
66 *174:18 *2750:A1 1.23543e-05
67 *174:18 *322:10 0.00026034
68 *174:18 *571:18 0.000293739
69 *174:18 *827:10 1.38207e-05
70 *174:35 *2758:A 0.000675952
71 *174:35 *2877:A 8.41307e-05
72 *174:35 *2877:B 8.46717e-05
73 *174:35 *250:8 7.10578e-05
74 *174:35 *322:12 5.7342e-05
75 *174:35 *322:16 4.35432e-05
76 *174:43 *2760:B1 0.000434815
77 *174:43 *2762:A 0
78 *174:43 *2944:A0 8.53113e-06
79 *174:43 *187:98 9.88745e-05
80 *174:43 *359:12 7.67345e-05
81 *174:43 *759:28 0.000109947
82 *174:61 *2567:A 2.82975e-05
83 *174:61 *2760:B1 8.41307e-05
84 *174:61 *2819:A1 0.000130354
85 *174:61 *2899:B 0.00013654
86 *174:61 *2918:B 0.000193129
87 *174:61 *359:12 1.19928e-05
88 *174:61 *361:54 0.000132498
89 *174:61 *370:33 7.54194e-05
90 *174:61 *737:36 0
91 *174:61 *759:28 2.49909e-05
92 *174:69 *2593:A0 9.97121e-06
93 *174:69 *2757:B1 0.000152071
94 *174:69 *2918:B 0.000194914
95 *174:69 *202:14 0.000253151
96 *174:69 *322:61 0
97 *174:83 *2592:B 0.000157394
98 *174:83 *2593:A1 8.73389e-06
99 *174:83 *2594:A 2.69153e-05
100 *174:83 *2747:A1 0.000121659
101 *174:83 *2747:B1 7.32625e-05
102 *174:83 *2915:A0 0.00016031
103 *174:83 *2915:A1 4.40028e-05
104 *174:83 *2915:S 0.000337478
105 *174:83 *208:18 7.08673e-05
106 *174:83 *322:61 3.44105e-05
107 *174:83 *374:90 0.000118138
108 *174:104 *2747:A1 5.06382e-06
109 *174:104 *2747:B1 6.00623e-05
110 *174:104 *2798:B1 1.9488e-05
111 *174:104 *2914:A 5.98276e-05
112 *174:104 *211:85 0.000500975
113 *174:104 *316:60 0.000391026
114 *174:104 *395:57 4.03869e-05
115 *174:104 *527:26 2.47229e-05
116 *174:112 *2623:A0 0.000311813
117 *174:112 *2914:A 5.18608e-05
118 *174:112 *3267:CLK 4.66108e-05
119 *174:112 *848:8 0.000193123
120 *3156:D *174:112 2.69217e-05
121 *3254:D *174:83 8.73389e-06
122 *3267:D *2808:B1 0
123 *3267:D *174:112 1.86443e-05
124 *3271:D *2683:B 2.49909e-05
*RES
1 *2682:X *174:14 8.925 
2 *174:14 *174:18 10.845 
3 *174:18 *2683:B 6.9 
4 *174:18 *174:35 10.73 
5 *174:35 *174:43 9.7 
6 *174:43 *174:61 13.885 
7 *174:61 *174:69 8.995 
8 *174:69 *174:83 18.31 
9 *174:83 *2747:B2 2.05 
10 *174:83 *174:104 8.04547 
11 *174:104 *174:112 12.83 
12 *174:112 *2808:B1 13.38 
13 *174:112 *2729:B1 9.87 
14 *174:104 *2798:B2 1.6 
15 *174:69 *2784:B 15.86 
16 *174:61 *2756:B 1.6 
17 *174:43 *2760:A3 1.96 
18 *174:35 *2758:B 1.6 
19 *174:14 *2750:A3 3.6 
*END

*D_NET *175 0.00163838
*CONN
*I *2818:A2 I *D sky130_fd_sc_hd__o21a_1
*I *2763:A2 I *D sky130_fd_sc_hd__o221a_1
*I *2683:Y O *D sky130_fd_sc_hd__nand2_1
*CAP
1 *2818:A2 0.000230251
2 *2763:A2 0
3 *2683:Y 0.000181451
4 *175:8 0.000411702
5 *2818:A2 *2763:C1 0.000464505
6 *2818:A2 *2818:B1 8.89829e-05
7 *2818:A2 *619:62 0
8 *175:8 *2763:C1 5.78185e-05
9 *175:8 *608:16 6.07575e-06
10 *175:8 *608:18 1.1392e-05
11 *3280:D *2818:A2 0.000186204
*RES
1 *2683:Y *175:8 4.39 
2 *175:8 *2763:A2 1.6 
3 *175:8 *2818:A2 12.095 
*END

*D_NET *176 0.020881
*CONN
*I *2785:B I *D sky130_fd_sc_hd__and3_1
*I *2708:B I *D sky130_fd_sc_hd__and3_1
*I *2771:B I *D sky130_fd_sc_hd__and3_1
*I *2685:A I *D sky130_fd_sc_hd__clkbuf_4
*I *2770:A2 I *D sky130_fd_sc_hd__a311o_1
*I *2795:B I *D sky130_fd_sc_hd__and3_1
*I *2744:B I *D sky130_fd_sc_hd__and3_1
*I *2782:B I *D sky130_fd_sc_hd__and3_1
*I *2754:B I *D sky130_fd_sc_hd__and3_1
*I *2684:Y O *D sky130_fd_sc_hd__nor2b_2
*CAP
1 *2785:B 0.000135449
2 *2708:B 0.000475035
3 *2771:B 0
4 *2685:A 0
5 *2770:A2 0.000548406
6 *2795:B 0
7 *2744:B 0.000605916
8 *2782:B 7.10515e-05
9 *2754:B 7.96967e-05
10 *2684:Y 0.000173764
11 *176:74 0.000966882
12 *176:70 0.00134042
13 *176:64 0.000855351
14 *176:54 0.000957969
15 *176:44 0.00180781
16 *176:27 0.00138951
17 *176:23 0.000786354
18 *176:8 0.00038501
19 *2708:B *2708:C 1.87786e-05
20 *2708:B *3419:A 6.30072e-05
21 *2708:B *187:64 3.64074e-05
22 *2708:B *218:108 0.000436267
23 *2708:B *352:34 0.000156778
24 *2708:B *403:49 0.000117278
25 *2708:B *619:14 6.98629e-05
26 *2708:B *715:30 0.000233887
27 *2744:B *2587:A 4.82919e-05
28 *2744:B *2745:B1 4.82863e-05
29 *2744:B *2910:A 0.000173305
30 *2744:B *3220:CLK 5.11658e-05
31 *2744:B *183:75 2.69138e-05
32 *2744:B *600:109 6.6564e-05
33 *2744:B *910:10 0.000222806
34 *2754:B *215:72 0.000244511
35 *2754:B *608:16 0.000242837
36 *2770:A2 *2704:B1 1.88602e-05
37 *2770:A2 *2763:B1 0.000381695
38 *2770:A2 *2770:C1 0
39 *2770:A2 *2777:B1 0.000168178
40 *2770:A2 *2777:B2 6.11903e-06
41 *2770:A2 *177:147 4.64676e-05
42 *2770:A2 *183:69 0.000118731
43 *2770:A2 *193:60 7.12211e-05
44 *2770:A2 *193:76 0.000213909
45 *2770:A2 *369:74 6.15019e-05
46 *2782:B *2751:A 3.89528e-05
47 *2782:B *231:14 4.82863e-05
48 *2782:B *411:14 9.14049e-05
49 *2785:B *2783:B 2.15594e-05
50 *2785:B *2783:C 0.000230869
51 *2785:B *215:68 0.000109016
52 *2785:B *215:72 0.000164686
53 *2785:B *430:30 1.7824e-05
54 *176:8 *2739:B 8.96017e-05
55 *176:8 *774:92 2.11518e-05
56 *176:8 *802:18 1.16578e-05
57 *176:23 *215:72 0.00019662
58 *176:23 *608:16 0.000204463
59 *176:27 *2783:C 8.40269e-05
60 *176:27 *2783:D 1.91597e-05
61 *176:27 *2788:B 0.000411781
62 *176:27 *2791:B 0.000140138
63 *176:27 *2791:D 8.35068e-05
64 *176:44 *2548:A1 7.23602e-05
65 *176:44 *2751:A 1.32017e-05
66 *176:44 *2787:A 0.000192456
67 *176:44 *2788:C 0.000153001
68 *176:44 *2941:B 0.000142915
69 *176:44 *3377:A 8.49205e-05
70 *176:44 *3414:A 1.52945e-05
71 *176:44 *212:20 0
72 *176:44 *411:14 0.00096322
73 *176:44 *619:39 0
74 *176:54 *2709:A3 7.15297e-05
75 *176:54 *194:26 5.60308e-05
76 *176:54 *370:54 6.98629e-05
77 *176:54 *759:12 1.42598e-05
78 *176:54 *759:28 0.000191343
79 *176:64 *2713:C 0.000127566
80 *176:64 *3096:A0 6.02714e-05
81 *176:64 *3096:S 5.83121e-06
82 *176:64 *3097:A 0.000122699
83 *176:64 *194:26 7.39703e-06
84 *176:64 *202:14 0
85 *176:64 *384:43 0.000154775
86 *176:70 *2703:A 0.000119762
87 *176:70 *2703:C 1.79408e-05
88 *176:70 *2713:C 4.85206e-05
89 *176:70 *2713:D 4.66108e-05
90 *176:70 *3097:A 0.000104149
91 *176:74 *2910:A 2.25106e-05
92 *176:74 *183:69 0.000167967
93 *176:74 *183:75 0.000751942
94 *176:74 *321:63 0.000114677
95 *176:74 *369:74 0.000863314
96 *3155:D *2744:B 0.000157287
97 *3237:D *176:54 4.04711e-05
*RES
1 *2684:Y *176:8 5.775 
2 *176:8 *2754:B 6.51 
3 *176:8 *176:23 5.195 
4 *176:23 *176:27 11.42 
5 *176:27 *2782:B 5.175 
6 *176:27 *176:44 17.915 
7 *176:44 *176:54 10.945 
8 *176:54 *176:64 10.93 
9 *176:64 *176:70 7.295 
10 *176:70 *176:74 11.52 
11 *176:74 *2744:B 14.16 
12 *176:74 *2795:B 3.6 
13 *176:70 *2770:A2 9.11047 
14 *176:64 *2685:A 1.6 
15 *176:54 *2771:B 1.6 
16 *176:44 *2708:B 16.25 
17 *176:23 *2785:B 9.215 
*END

*D_NET *177 0.0214142
*CONN
*I *2777:A1 I *D sky130_fd_sc_hd__a22o_1
*I *2730:A1 I *D sky130_fd_sc_hd__a2111o_1
*I *2718:B2 I *D sky130_fd_sc_hd__a22o_1
*I *2707:A2 I *D sky130_fd_sc_hd__a31o_1
*I *2774:A2 I *D sky130_fd_sc_hd__a31o_1
*I *2712:A2 I *D sky130_fd_sc_hd__a31o_1
*I *2800:A1 I *D sky130_fd_sc_hd__a2111o_1
*I *2752:A2 I *D sky130_fd_sc_hd__a311o_1
*I *2755:A2 I *D sky130_fd_sc_hd__a31o_1
*I *2790:A2 I *D sky130_fd_sc_hd__a31o_1
*I *2685:X O *D sky130_fd_sc_hd__clkbuf_4
*CAP
1 *2777:A1 2.12693e-05
2 *2730:A1 0.00017942
3 *2718:B2 0.000324016
4 *2707:A2 0
5 *2774:A2 1.29939e-05
6 *2712:A2 0.000120056
7 *2800:A1 0.00034414
8 *2752:A2 0.000285547
9 *2755:A2 0.000448643
10 *2790:A2 0.00026631
11 *2685:X 0.000155877
12 *177:147 0.000677702
13 *177:116 0.000253916
14 *177:112 0.00021041
15 *177:106 0.000416688
16 *177:100 0.00087838
17 *177:28 0.000880736
18 *177:24 0.00168383
19 *177:10 0.00185575
20 *177:8 0.00113923
21 *2712:A2 *2713:D 0.000156774
22 *2712:A2 *202:67 3.09866e-05
23 *2712:A2 *202:77 2.01737e-05
24 *2712:A2 *399:34 4.31127e-05
25 *2718:B2 *2718:A1 0.000225285
26 *2718:B2 *2718:A2 1.01759e-05
27 *2718:B2 *192:57 4.92014e-05
28 *2718:B2 *192:67 0
29 *2718:B2 *193:76 4.77757e-05
30 *2730:A1 *2730:A2 2.01934e-05
31 *2730:A1 *2730:C1 7.11235e-06
32 *2730:A1 *2730:D1 2.52029e-05
33 *2730:A1 *193:76 3.6355e-05
34 *2730:A1 *603:68 4.77757e-05
35 *2752:A2 *2750:B1 2.56752e-06
36 *2752:A2 *2752:B1 3.60024e-06
37 *2752:A2 *2752:C1 0.000327759
38 *2752:A2 *350:50 2.43962e-05
39 *2755:A2 *2595:A0 0.000105343
40 *2755:A2 *2628:A0 0.000122801
41 *2755:A2 *2628:A1 0.000104345
42 *2755:A2 *2630:S 9.47267e-06
43 *2755:A2 *2761:B 0.000653463
44 *2755:A2 *3337:A 0.000112414
45 *2755:A2 *350:48 0.000269292
46 *2755:A2 *419:61 0.000177292
47 *2755:A2 *606:102 0.000264598
48 *2774:A2 *2774:A3 9.12671e-06
49 *2790:A2 *2762:A 0.000111139
50 *2790:A2 *2790:A1 4.77807e-05
51 *2790:A2 *2997:A 0
52 *2790:A2 *187:98 0
53 *2790:A2 *218:126 6.06097e-05
54 *2790:A2 *316:46 1.91597e-05
55 *2790:A2 *527:12 6.64112e-05
56 *2800:A1 *3093:A1 0.000215585
57 *2800:A1 *3094:A 4.66108e-05
58 *177:8 *2713:C 0.000105508
59 *177:10 *3099:A0 0.000162714
60 *177:10 *193:56 0.000765475
61 *177:10 *197:28 0.000129951
62 *177:10 *365:22 0.000284808
63 *177:10 *500:131 8.03844e-05
64 *177:24 *2752:C1 0.0001947
65 *177:24 *2998:A0 1.46828e-05
66 *177:24 *2998:A1 0.000859581
67 *177:24 *193:20 0.000606666
68 *177:24 *193:56 0.000115187
69 *177:24 *202:14 0.000334396
70 *177:24 *291:24 0.000158965
71 *177:24 *365:22 5.95556e-05
72 *177:24 *384:43 0
73 *177:24 *839:8 4.66108e-05
74 *177:28 *2752:A1 0.000126298
75 *177:28 *2782:A 3.57768e-05
76 *177:28 *218:126 1.30872e-05
77 *177:28 *527:12 6.94525e-05
78 *177:28 *619:39 0.000185398
79 *177:28 *878:8 2.68721e-05
80 *177:28 *879:8 0.000112001
81 *177:100 *2703:A 7.50287e-05
82 *177:100 *2772:A2 3.98098e-05
83 *177:100 *3099:A0 0.000134291
84 *177:100 *3100:A 0.000176608
85 *177:100 *183:56 5.38957e-05
86 *177:100 *193:56 9.35082e-05
87 *177:100 *208:18 0.000271446
88 *177:100 *365:22 1.88889e-05
89 *177:100 *603:82 5.91496e-05
90 *177:100 *603:91 0.000131077
91 *177:100 *726:26 0.000799702
92 *177:106 *2777:B2 6.12027e-05
93 *177:106 *207:86 5.94242e-05
94 *177:106 *726:26 7.24756e-05
95 *177:112 *2707:A3 8.41384e-05
96 *177:112 *2770:B1 4.77807e-05
97 *177:112 *2770:C1 8.33066e-06
98 *177:112 *2777:B2 2.78827e-05
99 *177:112 *2778:C 1.91597e-05
100 *177:112 *207:86 3.39303e-05
101 *177:116 *2707:B1 0.000121659
102 *177:116 *2713:D 0.000364513
103 *177:116 *2770:B1 0
104 *177:116 *2774:A3 2.69153e-05
105 *177:116 *2778:C 2.1553e-05
106 *177:116 *202:52 5.4606e-05
107 *177:116 *399:34 1.32102e-05
108 *177:147 *2777:B1 3.30339e-06
109 *177:147 *2777:B2 0.000170584
110 *177:147 *2778:C 0.000119873
111 *177:147 *197:60 4.02996e-05
112 *2770:A2 *177:147 4.64676e-05
113 *3221:D *2800:A1 4.66108e-05
*RES
1 *2685:X *177:8 5.43 
2 *177:8 *177:10 9.285 
3 *177:10 *177:24 27.045 
4 *177:24 *177:28 6.695 
5 *177:28 *2790:A2 8.685 
6 *177:28 *2755:A2 16.605 
7 *177:24 *2752:A2 9.425 
8 *177:10 *2800:A1 8.31 
9 *177:8 *177:100 22.335 
10 *177:100 *177:106 5.21 
11 *177:106 *177:112 4.01 
12 *177:112 *177:116 3.915 
13 *177:116 *2712:A2 4.48 
14 *177:116 *2774:A2 1.96 
15 *177:112 *2707:A2 1.6 
16 *177:106 *177:147 9.285 
17 *177:147 *2718:B2 5.77 
18 *177:147 *2730:A1 3.775 
19 *177:100 *2777:A1 1.96 
*END

*D_NET *178 0.00804387
*CONN
*I *2702:B I *D sky130_fd_sc_hd__nor4b_2
*I *2690:B I *D sky130_fd_sc_hd__nor4b_2
*I *2691:D I *D sky130_fd_sc_hd__and4bb_4
*I *2710:D I *D sky130_fd_sc_hd__and4b_4
*I *2695:D I *D sky130_fd_sc_hd__and4bb_4
*I *2693:D_N I *D sky130_fd_sc_hd__nor4b_2
*I *2716:B_N I *D sky130_fd_sc_hd__and4bb_4
*I *2689:A_N I *D sky130_fd_sc_hd__and4bb_4
*I *2705:B I *D sky130_fd_sc_hd__and4_4
*I *2715:D I *D sky130_fd_sc_hd__and4bb_4
*I *2686:X O *D sky130_fd_sc_hd__buf_2
*CAP
1 *2702:B 4.50702e-05
2 *2690:B 0.000111416
3 *2691:D 0
4 *2710:D 0.000128235
5 *2695:D 2.1704e-05
6 *2693:D_N 0.000257468
7 *2716:B_N 2.08101e-05
8 *2689:A_N 8.94252e-05
9 *2705:B 1.83028e-05
10 *2715:D 0.00024618
11 *2686:X 0.000110372
12 *178:76 0.000279172
13 *178:74 0.000206567
14 *178:43 0.000186497
15 *178:41 0.000267666
16 *178:31 0.000258183
17 *178:29 6.08278e-05
18 *178:10 0.000446837
19 *178:8 0.000528047
20 *178:6 0.000420481
21 *2689:A_N *2689:D 0.000125448
22 *2689:A_N *3003:S 0.00015669
23 *2689:A_N *208:10 0
24 *2689:A_N *391:16 3.00381e-05
25 *2690:B *2690:C 5.2433e-06
26 *2690:B *2726:B 5.05437e-05
27 *2690:B *179:84 2.16917e-05
28 *2690:B *180:138 9.53428e-06
29 *2690:B *182:10 8.23457e-05
30 *2690:B *432:73 0.00013521
31 *2690:B *759:12 0.00013521
32 *2693:D_N *2693:A 4.82863e-05
33 *2693:D_N *2695:A_N 0
34 *2693:D_N *180:44 0.000143436
35 *2695:D *180:44 4.66108e-05
36 *2702:B *2702:A 1.08758e-05
37 *2702:B *2702:D_N 2.16833e-05
38 *2705:B *3037:A 1.56428e-05
39 *2710:D *2710:A_N 0.000213371
40 *2710:D *2710:C 6.42765e-05
41 *2710:D *421:18 8.8266e-05
42 *2715:D *2691:B_N 7.37365e-05
43 *2715:D *2715:A_N 0.000162311
44 *2715:D *179:58 3.25635e-05
45 *2715:D *183:8 1.61831e-05
46 *2715:D *187:12 7.67415e-06
47 *2716:B_N *179:77 0
48 *178:6 *2702:A 1.91597e-05
49 *178:6 *2702:D_N 3.79854e-05
50 *178:6 *801:6 4.82863e-05
51 *178:8 *2691:C 5.83121e-06
52 *178:8 *2702:D_N 5.2711e-05
53 *178:8 *187:64 8.73389e-06
54 *178:8 *800:23 0.000126584
55 *178:10 *2691:A_N 0.000158965
56 *178:10 *2691:C 5.16479e-05
57 *178:29 *2691:C 1.08758e-05
58 *178:29 *183:8 0
59 *178:29 *187:12 8.34281e-06
60 *178:31 *187:12 2.49909e-05
61 *178:41 *3037:A 4.58166e-05
62 *178:41 *179:31 9.21168e-05
63 *178:41 *183:56 0
64 *178:41 *187:12 4.41506e-05
65 *178:41 *208:10 4.99619e-05
66 *178:43 *3037:A 7.25441e-05
67 *178:43 *179:31 4.08514e-05
68 *178:43 *208:10 0.000119762
69 *178:74 *2710:A_N 4.14369e-05
70 *178:74 *179:12 0.000114492
71 *178:74 *183:22 0
72 *2702:C *2702:B 0
73 *2702:C *178:8 6.71882e-05
74 *2705:D *2705:B 4.66108e-05
75 *2705:D *178:43 0.000222123
76 *2710:B *2710:D 0
77 *171:8 *178:8 0.000270415
78 *171:23 *2690:B 0.0001947
79 *171:29 *2690:B 0
80 *171:29 *2716:B_N 0
81 *171:37 *178:41 8.53113e-06
82 *171:60 *2715:D 0.000191673
83 *171:97 *2693:D_N 0.000134434
84 *171:97 *178:41 0.000195932
85 *171:97 *178:74 0.000136884
*RES
1 *2686:X *178:6 3.43 
2 *178:6 *178:8 5.625 
3 *178:8 *178:10 2.52 
4 *178:10 *2715:D 7.36 
5 *178:10 *178:29 1.17 
6 *178:29 *178:31 0.45 
7 *178:31 *178:41 8.68 
8 *178:41 *178:43 2.865 
9 *178:43 *2705:B 2.05 
10 *178:43 *2689:A_N 7.94 
11 *178:41 *2716:B_N 1.96 
12 *178:31 *178:74 3.89 
13 *178:74 *178:76 2 
14 *178:76 *2693:D_N 6.895 
15 *178:76 *2695:D 2.05 
16 *178:74 *2710:D 6.9 
17 *178:29 *2691:D 1.6 
18 *178:8 *2690:B 9.425 
19 *178:6 *2702:B 2.77 
*END

*D_NET *179 0.0084537
*CONN
*I *2695:A_N I *D sky130_fd_sc_hd__and4bb_4
*I *2710:A_N I *D sky130_fd_sc_hd__and4b_4
*I *2726:B I *D sky130_fd_sc_hd__and4b_4
*I *2690:C I *D sky130_fd_sc_hd__nor4b_2
*I *2716:C I *D sky130_fd_sc_hd__and4bb_4
*I *2705:C I *D sky130_fd_sc_hd__and4_4
*I *2691:B_N I *D sky130_fd_sc_hd__and4bb_4
*I *2715:C I *D sky130_fd_sc_hd__and4bb_4
*I *2693:B I *D sky130_fd_sc_hd__nor4b_2
*I *2689:B_N I *D sky130_fd_sc_hd__and4bb_4
*I *2687:X O *D sky130_fd_sc_hd__buf_2
*CAP
1 *2695:A_N 3.55506e-05
2 *2710:A_N 0.000104909
3 *2726:B 0.000158876
4 *2690:C 2.31083e-05
5 *2716:C 0
6 *2705:C 0
7 *2691:B_N 4.77357e-05
8 *2715:C 0
9 *2693:B 0.00014319
10 *2689:B_N 9.86765e-05
11 *2687:X 0.000147262
12 *179:84 0.000415206
13 *179:77 0.000254032
14 *179:58 0.000214132
15 *179:41 0.000467881
16 *179:31 0.000586646
17 *179:29 0.000474824
18 *179:12 0.000260716
19 *179:10 0.000447875
20 *179:6 0.0003894
21 *2689:B_N *202:8 9.5433e-05
22 *2689:B_N *391:16 9.60203e-05
23 *2690:C *180:138 3.73119e-07
24 *2691:B_N *2715:A_N 0.000162311
25 *2691:B_N *183:8 0.000114024
26 *2691:B_N *183:22 0.000124895
27 *2693:B *3003:S 4.59445e-05
28 *2693:B *3027:A 0.000141606
29 *2695:A_N *180:44 0
30 *2710:A_N *2710:C 4.41506e-05
31 *2710:A_N *202:8 0.00022448
32 *2710:A_N *421:18 8.8266e-05
33 *2726:B *2726:C 4.66108e-05
34 *2726:B *2726:D 0.000182143
35 *2726:B *180:138 0.000196914
36 *179:10 *180:36 3.57349e-05
37 *179:10 *180:44 4.66108e-05
38 *179:12 *202:8 0.000349499
39 *179:31 *3037:A 2.8585e-06
40 *179:41 *3027:A 0.000143501
41 *179:41 *3037:A 0.000157355
42 *179:41 *207:12 5.37442e-05
43 *179:58 *3003:S 8.34281e-06
44 *179:84 *2716:A_N 8.49205e-05
45 *179:84 *180:138 1.08758e-05
46 *179:84 *182:10 0.000158066
47 *2690:B *2690:C 5.2433e-06
48 *2690:B *2726:B 5.05437e-05
49 *2690:B *179:84 2.16917e-05
50 *2693:D_N *2695:A_N 0
51 *2705:D *179:31 0.000304468
52 *2705:D *179:41 4.82863e-05
53 *2710:D *2710:A_N 0.000213371
54 *2715:B_N *179:58 0.000123225
55 *2715:D *2691:B_N 7.37365e-05
56 *2715:D *179:58 3.25635e-05
57 *2716:B_N *179:77 0
58 *171:23 *2726:B 8.34281e-06
59 *171:29 *179:31 1.34594e-05
60 *171:29 *179:84 9.77147e-05
61 *171:37 *2689:B_N 0.000100184
62 *171:37 *179:12 2.60986e-05
63 *171:60 *179:58 5.42949e-05
64 *171:97 *179:12 0.000106885
65 *178:41 *179:31 9.21168e-05
66 *178:43 *179:31 4.08514e-05
67 *178:74 *2710:A_N 4.14369e-05
68 *178:74 *179:12 0.000114492
*RES
1 *2687:X *179:6 3.085 
2 *179:6 *179:10 4.175 
3 *179:10 *179:12 4.185 
4 *179:12 *2689:B_N 6.225 
5 *179:12 *179:29 2.45 
6 *179:29 *179:31 5.625 
7 *179:31 *179:41 8.065 
8 *179:41 *2693:B 8.375 
9 *179:41 *179:58 2.88 
10 *179:58 *2715:C 1.6 
11 *179:58 *2691:B_N 4.12 
12 *179:31 *2705:C 1.6 
13 *179:29 *179:77 0.36 
14 *179:77 *2716:C 1.6 
15 *179:77 *179:84 4.245 
16 *179:84 *2690:C 1.96 
17 *179:84 *2726:B 5.155 
18 *179:10 *2710:A_N 7.41 
19 *179:6 *2695:A_N 2.215 
*END

*D_NET *180 0.00869878
*CONN
*I *2726:D I *D sky130_fd_sc_hd__and4b_4
*I *2690:A I *D sky130_fd_sc_hd__nor4b_2
*I *2710:C I *D sky130_fd_sc_hd__and4b_4
*I *2695:C I *D sky130_fd_sc_hd__and4bb_4
*I *2715:A_N I *D sky130_fd_sc_hd__and4bb_4
*I *2705:A I *D sky130_fd_sc_hd__and4_4
*I *2689:D I *D sky130_fd_sc_hd__and4bb_4
*I *2693:A I *D sky130_fd_sc_hd__nor4b_2
*I *2691:A_N I *D sky130_fd_sc_hd__and4bb_4
*I *2716:A_N I *D sky130_fd_sc_hd__and4bb_4
*I *2688:X O *D sky130_fd_sc_hd__buf_2
*CAP
1 *2726:D 8.471e-05
2 *2690:A 0
3 *2710:C 0.000138293
4 *2695:C 0
5 *2715:A_N 0.000152115
6 *2705:A 0
7 *2689:D 0.000233663
8 *2693:A 0.000225046
9 *2691:A_N 3.30042e-05
10 *2716:A_N 1.8095e-05
11 *2688:X 0
12 *180:138 0.000292781
13 *180:63 0.000336425
14 *180:61 0.000373834
15 *180:44 0.000784517
16 *180:36 0.000463557
17 *180:32 0.000216735
18 *180:21 0.000153204
19 *180:10 0.000367473
20 *180:4 0.000492647
21 *2689:D *3003:S 1.26626e-05
22 *2689:D *208:10 0
23 *2689:D *391:16 0.000106378
24 *2691:A_N *2691:C 0.000158965
25 *2710:C *185:14 0.000232099
26 *2710:C *187:16 0.000183731
27 *2710:C *202:8 0.0001752
28 *2710:C *421:18 2.4526e-05
29 *2726:D *2726:C 2.16917e-05
30 *2726:D *800:19 8.30885e-05
31 *180:10 *3015:A0 6.10014e-05
32 *180:10 *202:8 0.000117832
33 *180:10 *215:24 3.1562e-06
34 *180:10 *391:16 0.000102913
35 *180:21 *3015:A0 9.60047e-05
36 *180:21 *202:8 0.000171179
37 *180:32 *3015:A0 3.50033e-05
38 *180:32 *187:16 9.14049e-05
39 *180:32 *202:8 0.000147397
40 *180:61 *3037:A 1.52945e-05
41 *180:61 *183:22 5.21714e-05
42 *180:61 *183:56 0
43 *180:63 *3003:S 7.07801e-05
44 *180:63 *183:56 0
45 *180:63 *207:12 9.3062e-06
46 *180:63 *208:10 0
47 *180:138 *3037:A 8.30297e-05
48 *180:138 *187:64 4.9968e-05
49 *180:138 *215:24 4.40325e-06
50 *180:138 *678:12 7.23602e-05
51 *2689:A_N *2689:D 0.000125448
52 *2690:B *180:138 9.53428e-06
53 *2690:C *180:138 3.73119e-07
54 *2691:B_N *2715:A_N 0.000162311
55 *2693:C *2693:A 0.000194874
56 *2693:C *180:44 3.26889e-05
57 *2693:C *180:61 0.000116165
58 *2693:D_N *2693:A 4.82863e-05
59 *2693:D_N *180:44 0.000143436
60 *2695:A_N *180:44 0
61 *2695:D *180:44 4.66108e-05
62 *2710:A_N *2710:C 4.41506e-05
63 *2710:D *2710:C 6.42765e-05
64 *2715:D *2715:A_N 0.000162311
65 *2726:B *2726:D 0.000182143
66 *2726:B *180:138 0.000196914
67 *3464:A *2726:D 5.83121e-06
68 *171:23 *2726:D 2.75145e-05
69 *171:23 *180:138 3.87066e-05
70 *171:29 *2716:A_N 8.49205e-05
71 *171:37 *2689:D 4.82863e-05
72 *171:60 *180:63 0
73 *171:97 *180:44 7.92461e-05
74 *178:10 *2691:A_N 0.000158965
75 *179:10 *180:36 3.57349e-05
76 *179:10 *180:44 4.66108e-05
77 *179:84 *2716:A_N 8.49205e-05
78 *179:84 *180:138 1.08758e-05
*RES
1 *2688:X *180:4 1.6 
2 *180:4 *180:10 6.245 
3 *180:10 *2716:A_N 4.395 
4 *180:10 *180:21 2.145 
5 *180:21 *2691:A_N 5.085 
6 *180:21 *180:32 1.89 
7 *180:32 *180:36 2.45 
8 *180:36 *180:44 6.36 
9 *180:44 *2693:A 5.98 
10 *180:44 *180:61 4.145 
11 *180:61 *180:63 1.89 
12 *180:63 *2689:D 8.235 
13 *180:63 *2705:A 3.6 
14 *180:61 *2715:A_N 6.225 
15 *180:36 *2695:C 1.6 
16 *180:32 *2710:C 8.535 
17 *180:4 *180:138 12.11 
18 *180:138 *2690:A 1.6 
19 *180:138 *2726:D 4.12 
*END

*D_NET *181 0.0238404
*CONN
*I *2698:A2 I *D sky130_fd_sc_hd__a211o_1
*I *2764:A2 I *D sky130_fd_sc_hd__a22o_1
*I *2706:B I *D sky130_fd_sc_hd__and3_1
*I *2768:B I *D sky130_fd_sc_hd__and3_1
*I *2746:A2 I *D sky130_fd_sc_hd__a22o_1
*I *2813:A2 I *D sky130_fd_sc_hd__a22o_1
*I *2733:A2 I *D sky130_fd_sc_hd__a22o_1
*I *2797:A2 I *D sky130_fd_sc_hd__a22o_1
*I *2689:X O *D sky130_fd_sc_hd__and4bb_4
*CAP
1 *2698:A2 5.10418e-05
2 *2764:A2 0
3 *2706:B 0
4 *2768:B 0.000148637
5 *2746:A2 0
6 *2813:A2 4.99565e-05
7 *2733:A2 0.000436321
8 *2797:A2 6.72165e-05
9 *2689:X 0.00141672
10 *181:134 0.000661599
11 *181:75 0.00155142
12 *181:60 0.00127659
13 *181:56 0.00154504
14 *181:34 0.00189993
15 *181:32 0.00117232
16 *181:16 0.0028491
17 *2698:A2 *2767:B1 7.27003e-05
18 *2698:A2 *183:22 0.000197724
19 *2733:A2 *2733:A1 0.000198939
20 *2733:A2 *2733:B2 0.000200615
21 *2733:A2 *2734:A1 1.73877e-05
22 *2733:A2 *2734:B1 9.18988e-05
23 *2733:A2 *2936:S 2.50751e-05
24 *2733:A2 *2938:A1 0.000111068
25 *2733:A2 *3348:A 0.000121043
26 *2733:A2 *369:104 0.000215552
27 *2733:A2 *388:8 0.000133336
28 *2768:B *3091:A1 5.83121e-06
29 *2768:B *3110:A 7.25532e-05
30 *2797:A2 *2797:A1 2.86975e-05
31 *2797:A2 *2797:B1 1.31227e-05
32 *2813:A2 *2813:B1 0.000119873
33 *2813:A2 *2814:C1 2.69153e-05
34 *181:16 *2775:A1 8.41015e-06
35 *181:16 *399:16 0.000271658
36 *181:32 *2707:B1 5.67935e-05
37 *181:32 *2718:B1 0
38 *181:32 *2775:B2 0.000195786
39 *181:32 *2977:A 8.53113e-06
40 *181:32 *2990:B 3.79481e-05
41 *181:32 *3017:B 0.000108075
42 *181:32 *3022:A 7.73812e-05
43 *181:32 *3226:CLK 0.000112652
44 *181:32 *3425:A 1.83847e-05
45 *181:32 *3449:A 0.000111906
46 *181:32 *192:57 0
47 *181:32 *197:108 0.000271314
48 *181:32 *202:52 5.96623e-06
49 *181:32 *208:118 1.29269e-05
50 *181:32 *345:30 4.91313e-05
51 *181:32 *395:26 0
52 *181:32 *399:34 0.000171281
53 *181:32 *421:32 0.000607783
54 *181:32 *603:21 0
55 *181:32 *603:39 0.000560519
56 *181:34 *2706:A 5.42833e-05
57 *181:34 *2768:A 0.000136877
58 *181:34 *3226:CLK 0.000133642
59 *181:34 *3386:A 6.59587e-06
60 *181:34 *192:57 0
61 *181:34 *235:18 0.000118313
62 *181:34 *395:57 0.000182444
63 *181:34 *500:131 0.000106285
64 *181:56 *2608:A1 0.000120652
65 *181:56 *2608:S 0.000237238
66 *181:56 *2746:A1 0.000109269
67 *181:56 *2747:B1 3.59531e-06
68 *181:56 *2762:B 0.000166454
69 *181:56 *2805:B2 0.00051746
70 *181:56 *3163:CLK 0
71 *181:56 *3330:A 0.000268285
72 *181:56 *183:85 4.88478e-05
73 *181:56 *235:18 0.000324389
74 *181:56 *299:32 8.55614e-05
75 *181:56 *316:60 0.000115068
76 *181:56 *316:70 0.000205376
77 *181:56 *395:57 0.000899752
78 *181:56 *527:89 0
79 *181:56 *528:66 5.92191e-05
80 *181:56 *600:26 0
81 *181:56 *914:8 4.99619e-05
82 *181:60 *2746:B2 0
83 *181:60 *2797:B1 5.6458e-05
84 *181:60 *2797:B2 1.5996e-05
85 *181:75 *2797:B1 3.64998e-06
86 *181:75 *2814:B2 0.00017469
87 *181:75 *2814:C1 3.19986e-05
88 *181:75 *2838:B 0.000211624
89 *181:75 *2892:S 0.000198373
90 *181:75 *2929:A 4.66108e-05
91 *181:75 *2929:B 4.89295e-05
92 *181:75 *2933:A 9.44868e-05
93 *181:75 *325:57 0
94 *181:75 *366:10 0.00050254
95 *181:75 *369:104 0.000102962
96 *181:75 *385:16 0
97 *181:75 *396:12 0.000114894
98 *181:134 *2692:B1 0.000111665
99 *181:134 *2764:B2 0.000121023
100 *181:134 *2775:A1 0.000109884
101 *181:134 *2993:A1 0
102 *181:134 *3036:A 7.58604e-05
103 *181:134 *3443:A 0
104 *181:134 *183:22 4.53904e-05
105 *181:134 *430:95 0
106 *181:134 *442:108 0
107 *181:134 *604:40 0.000254385
108 *3186:D *181:16 7.18452e-06
109 *3186:D *181:134 9.75342e-05
*RES
1 *2689:X *181:16 7.3754 
2 *181:16 *181:32 28.865 
3 *181:32 *181:34 8.265 
4 *181:34 *181:56 40.955 
5 *181:56 *181:60 4.145 
6 *181:60 *2797:A2 2.755 
7 *181:60 *181:75 23.51 
8 *181:75 *2733:A2 17.62 
9 *181:75 *2813:A2 4.74 
10 *181:56 *2746:A2 3.6 
11 *181:34 *2768:B 5.43 
12 *181:32 *2706:B 3.6 
13 *181:16 *181:134 15.62 
14 *181:134 *2764:A2 1.6 
15 *181:134 *2698:A2 3.43 
*END

*D_NET *182 0.00685324
*CONN
*I *2767:A2 I *D sky130_fd_sc_hd__a211o_1
*I *2692:A2 I *D sky130_fd_sc_hd__a22o_1
*I *3472:A I *D sky130_fd_sc_hd__clkbuf_2
*I *2690:Y O *D sky130_fd_sc_hd__nor4b_2
*CAP
1 *2767:A2 0
2 *2692:A2 0.000947635
3 *3472:A 1.3091e-05
4 *2690:Y 0.000240217
5 *182:31 0.00147826
6 *182:10 0.000783937
7 *2692:A2 *2692:B1 2.65814e-06
8 *2692:A2 *2698:B1 0.000597015
9 *2692:A2 *2767:A1 0.00013323
10 *2692:A2 *3336:A 0.000188924
11 *2692:A2 *3434:A 0
12 *2692:A2 *604:98 1.54665e-05
13 *2692:A2 *604:143 2.97339e-05
14 *2692:A2 *604:156 2.1742e-05
15 *3472:A *185:14 1.83756e-05
16 *3472:A *421:18 4.82863e-05
17 *182:10 *3015:A0 0.000302409
18 *182:10 *432:73 1.82476e-05
19 *182:10 *759:12 0.000505647
20 *182:31 *2696:A2 4.82863e-05
21 *182:31 *2698:C1 5.64047e-05
22 *182:31 *2767:B1 1.93939e-05
23 *182:31 *2767:C1 0.000356243
24 *182:31 *3015:A0 5.7344e-05
25 *182:31 *3037:B 4.82919e-05
26 *182:31 *3051:A 0.000150368
27 *182:31 *183:22 0.000429686
28 *182:31 *432:73 4.19967e-05
29 *2690:B *182:10 8.23457e-05
30 *171:23 *182:10 1.33285e-05
31 *171:29 *182:10 4.66108e-05
32 *179:84 *182:10 0.000158066
*RES
1 *2690:Y *182:10 11.565 
2 *182:10 *3472:A 4.05 
3 *182:10 *182:31 13.97 
4 *182:31 *2692:A2 19.88 
5 *182:31 *2767:A2 1.6 
*END

*D_NET *183 0.0235852
*CONN
*I *2769:B I *D sky130_fd_sc_hd__and3_1
*I *2735:A2 I *D sky130_fd_sc_hd__a22o_1
*I *2811:A2 I *D sky130_fd_sc_hd__a22o_1
*I *2746:B1 I *D sky130_fd_sc_hd__a22o_1
*I *2797:B1 I *D sky130_fd_sc_hd__a22o_1
*I *2704:A2 I *D sky130_fd_sc_hd__a31o_1
*I *2764:B1 I *D sky130_fd_sc_hd__a22o_1
*I *2692:B1 I *D sky130_fd_sc_hd__a22o_1
*I *2691:X O *D sky130_fd_sc_hd__and4bb_4
*CAP
1 *2769:B 0.00014993
2 *2735:A2 0.000685195
3 *2811:A2 0.000997555
4 *2746:B1 0
5 *2797:B1 0.000142489
6 *2704:A2 0.000166479
7 *2764:B1 0
8 *2692:B1 0.000527503
9 *2691:X 9.31707e-05
10 *183:85 0.000512509
11 *183:77 0.00136757
12 *183:75 0.00210335
13 *183:69 0.00171201
14 *183:56 0.00174017
15 *183:22 0.00144083
16 *183:8 0.00243627
17 *2692:B1 *2692:A1 0.00022203
18 *2692:B1 *2764:B2 0.000238834
19 *2692:B1 *3031:A 2.03321e-05
20 *2692:B1 *3036:A 0.000105209
21 *2692:B1 *3427:A 0.000257944
22 *2692:B1 *3434:A 0
23 *2692:B1 *442:108 1.4944e-05
24 *2692:B1 *445:106 2.65814e-06
25 *2692:B1 *604:98 5.33085e-05
26 *2704:A2 *2704:A1 1.88536e-05
27 *2704:A2 *2730:B1 0
28 *2704:A2 *603:68 4.92627e-05
29 *2735:A2 *2735:B2 8.65961e-05
30 *2735:A2 *2838:A 0.000206116
31 *2735:A2 *3392:A 1.34503e-05
32 *2735:A2 *321:63 6.00944e-05
33 *2735:A2 *359:18 0
34 *2735:A2 *903:6 4.43682e-05
35 *2769:B *476:31 3.83194e-05
36 *2769:B *505:6 0.000120655
37 *2797:B1 *2746:B2 6.20952e-05
38 *2797:B1 *2797:A1 4.89295e-05
39 *2811:A2 *2577:A 0.00025386
40 *2811:A2 *2811:B1 3.9442e-05
41 *2811:A2 *2932:S 8.05167e-05
42 *2811:A2 *606:27 0.000212931
43 *2811:A2 *737:36 2.96553e-05
44 *2811:A2 *902:8 7.18092e-05
45 *183:8 *187:12 1.16578e-05
46 *183:22 *2698:A1 4.94474e-05
47 *183:22 *2698:C1 4.93554e-05
48 *183:22 *2730:A2 0.000120589
49 *183:22 *2767:B1 3.80394e-05
50 *183:22 *3037:A 0
51 *183:22 *3037:B 0
52 *183:22 *187:12 0
53 *183:56 *2703:A 6.74886e-06
54 *183:56 *2703:C 3.08892e-05
55 *183:56 *2934:B 0.000207435
56 *183:56 *3015:A0 0
57 *183:56 *3016:A 0
58 *183:56 *3096:S 0.000179623
59 *183:56 *3097:A 8.33066e-06
60 *183:56 *202:8 0
61 *183:56 *208:10 0.000189467
62 *183:56 *208:18 0.00105165
63 *183:56 *317:72 0.000217547
64 *183:56 *321:28 0
65 *183:56 *376:84 1.74678e-05
66 *183:56 *380:10 1.8309e-05
67 *183:56 *498:10 6.80167e-05
68 *183:56 *603:68 5.83121e-06
69 *183:69 *2704:B1 2.46837e-05
70 *183:69 *3221:CLK 0.000338175
71 *183:75 *2747:B1 0
72 *183:75 *2888:S 0
73 *183:75 *2915:A0 0
74 *183:75 *3221:CLK 0.000289011
75 *183:75 *3437:A 5.82054e-05
76 *183:75 *212:142 0
77 *183:75 *359:18 0
78 *183:75 *369:19 0
79 *183:75 *369:28 0
80 *183:75 *374:105 0.000525019
81 *183:75 *374:141 0.000470792
82 *183:75 *910:10 0.000224466
83 *183:85 *2577:A 8.74209e-05
84 *183:85 *2746:A1 2.68526e-05
85 *183:85 *914:8 0
86 *2691:B_N *183:8 0.000114024
87 *2691:B_N *183:22 0.000124895
88 *2692:A2 *2692:B1 2.65814e-06
89 *2698:A2 *183:22 0.000197724
90 *2710:B *183:22 0
91 *2715:D *183:8 1.61831e-05
92 *2744:B *183:75 2.69138e-05
93 *2770:A2 *183:69 0.000118731
94 *2797:A2 *2797:B1 1.31227e-05
95 *3162:D *2735:A2 0
96 *3163:D *2735:A2 3.39064e-05
97 *3163:D *2811:A2 4.51665e-05
98 *3163:D *183:85 1.76179e-05
99 *3191:D *183:56 0
100 *3199:D *2692:B1 0.000136052
101 *3222:D *183:56 4.82319e-06
102 *171:37 *183:56 0
103 *171:41 *183:56 0.000113524
104 *171:60 *183:56 0.000155928
105 *171:97 *183:22 0
106 *176:74 *183:69 0.000167967
107 *176:74 *183:75 0.000751942
108 *177:100 *183:56 5.38957e-05
109 *178:29 *183:8 0
110 *178:41 *183:56 0
111 *178:74 *183:22 0
112 *180:61 *183:22 5.21714e-05
113 *180:61 *183:56 0
114 *180:63 *183:56 0
115 *181:56 *183:85 4.88478e-05
116 *181:60 *2797:B1 5.6458e-05
117 *181:75 *2797:B1 3.64998e-06
118 *181:134 *2692:B1 0.000111665
119 *181:134 *183:22 4.53904e-05
120 *182:31 *183:22 0.000429686
*RES
1 *2691:X *183:8 3.445 
2 *183:8 *183:22 19.54 
3 *183:22 *2692:B1 16.865 
4 *183:22 *2764:B1 1.6 
5 *183:8 *183:56 31.36 
6 *183:56 *2704:A2 3.7 
7 *183:56 *183:69 6.185 
8 *183:69 *183:75 29.985 
9 *183:75 *183:77 2 
10 *183:77 *183:85 5.67 
11 *183:85 *2797:B1 8.135 
12 *183:85 *2746:B1 1.6 
13 *183:77 *2811:A2 18.305 
14 *183:75 *2735:A2 15.855 
15 *183:69 *2769:B 5.43 
*END

*D_NET *184 0.00230561
*CONN
*I *2698:B1 I *D sky130_fd_sc_hd__a211o_1
*I *2692:X O *D sky130_fd_sc_hd__a22o_1
*CAP
1 *2698:B1 0.000438215
2 *2692:X 0.000438215
3 *2698:B1 *2698:A1 0.000494499
4 *2698:B1 *604:98 4.66742e-05
5 *2698:B1 *604:126 0.000145495
6 *2698:B1 *604:143 0.000145495
7 *2692:A2 *2698:B1 0.000597015
*RES
1 *2692:X *2698:B1 18.795 
*END

*D_NET *185 0.00516743
*CONN
*I *2697:B1 I *D sky130_fd_sc_hd__a221o_1
*I *2766:B1 I *D sky130_fd_sc_hd__a221o_1
*I *3470:A I *D sky130_fd_sc_hd__clkbuf_2
*I *2693:Y O *D sky130_fd_sc_hd__nor4b_2
*CAP
1 *2697:B1 4.46737e-05
2 *2766:B1 0.000170757
3 *3470:A 3.55506e-05
4 *2693:Y 0.000862691
5 *185:27 0.00068198
6 *185:14 0.00136479
7 *2697:B1 *2697:A1 2.49909e-05
8 *2697:B1 *2697:B2 8.33066e-06
9 *2697:B1 *2697:C1 4.66108e-05
10 *2697:B1 *465:12 4.04632e-05
11 *2766:B1 *2697:C1 8.23457e-05
12 *2766:B1 *2766:A1 2.49909e-05
13 *2766:B1 *432:81 8.35118e-05
14 *2766:B1 *465:12 0.000217486
15 *2766:B1 *595:97 2.49909e-05
16 *185:14 *3027:A 4.7043e-05
17 *185:14 *3037:A 0.000118513
18 *185:14 *421:18 0.000205762
19 *185:14 *421:20 2.31329e-05
20 *185:27 *3047:A 8.65905e-05
21 *185:27 *421:12 2.7881e-05
22 *185:27 *421:18 0.000185835
23 *185:27 *465:12 0.000266177
24 *2710:C *185:14 0.000232099
25 *2766:A2 *2766:B1 0.000157418
26 *3472:A *185:14 1.83756e-05
27 *172:14 *2766:B1 4.87939e-05
28 *172:14 *185:27 3.5644e-05
*RES
1 *2693:Y *185:14 17.105 
2 *185:14 *3470:A 2.215 
3 *185:14 *185:27 11.12 
4 *185:27 *2766:B1 11.86 
5 *185:27 *2697:B1 4.665 
*END

*D_NET *186 0.00495679
*CONN
*I *3467:A I *D sky130_fd_sc_hd__buf_1
*I *2765:A2 I *D sky130_fd_sc_hd__a22o_1
*I *2696:A2 I *D sky130_fd_sc_hd__a22o_1
*I *2694:Y O *D sky130_fd_sc_hd__nor4b_2
*CAP
1 *3467:A 0
2 *2765:A2 0.000300993
3 *2696:A2 0.000285821
4 *2694:Y 0.00119407
5 *186:35 0.000329881
6 *186:14 0.00150878
7 *2696:A2 *2696:A1 1.19928e-05
8 *2696:A2 *2696:B1 5.34565e-05
9 *2696:A2 *2697:C1 1.77945e-05
10 *2696:A2 *2698:C1 4.66108e-05
11 *2696:A2 *2767:C1 6.20787e-05
12 *2696:A2 *3015:A0 0.000177886
13 *2696:A2 *3051:A 0.000198945
14 *2696:A2 *3415:A 1.49579e-05
15 *2696:A2 *432:73 0
16 *2765:A2 *2765:B1 0
17 *2765:A2 *2767:C1 1.39832e-05
18 *2765:A2 *3051:A 0.000108565
19 *2765:A2 *468:12 0.000365284
20 *2765:A2 *595:97 9.44319e-05
21 *186:14 *2767:C1 7.94673e-05
22 *186:35 *2767:C1 4.35034e-05
23 *182:31 *2696:A2 4.82863e-05
*RES
1 *2694:Y *186:14 19.01 
2 *186:14 *2696:A2 12.02 
3 *186:14 *186:35 0.78 
4 *186:35 *2765:A2 12.665 
5 *186:35 *3467:A 1.6 
*END

*D_NET *187 0.0308081
*CONN
*I *2737:B1 I *D sky130_fd_sc_hd__a22o_1
*I *2815:A2 I *D sky130_fd_sc_hd__a22o_1
*I *2805:B1 I *D sky130_fd_sc_hd__a22o_1
*I *2727:A2 I *D sky130_fd_sc_hd__a22o_1
*I *2751:B I *D sky130_fd_sc_hd__and3_1
*I *2789:B I *D sky130_fd_sc_hd__and3_1
*I *2765:B1 I *D sky130_fd_sc_hd__a22o_1
*I *2696:B1 I *D sky130_fd_sc_hd__a22o_1
*I *2695:X O *D sky130_fd_sc_hd__and4bb_4
*CAP
1 *2737:B1 2.09983e-05
2 *2815:A2 0.000261648
3 *2805:B1 0.00100817
4 *2727:A2 4.74022e-05
5 *2751:B 7.61999e-05
6 *2789:B 0
7 *2765:B1 0.000337394
8 *2696:B1 3.37962e-05
9 *2695:X 0.000278853
10 *187:112 0.00270889
11 *187:100 0.00203167
12 *187:98 0.00164145
13 *187:71 0.00167559
14 *187:64 0.00176797
15 *187:16 0.000624397
16 *187:12 0.00220439
17 *2696:B1 *2696:A1 1.08758e-05
18 *2696:B1 *2698:C1 1.32026e-05
19 *2696:B1 *430:116 4.19988e-05
20 *2696:B1 *432:133 5.83121e-06
21 *2727:A2 *358:28 0.000165779
22 *2727:A2 *528:82 0.000316415
23 *2737:B1 *2737:A2 0
24 *2751:B *212:42 6.84844e-05
25 *2751:B *759:28 7.06865e-05
26 *2751:B *824:10 7.23533e-05
27 *2765:B1 *2765:A1 9.53428e-06
28 *2765:B1 *2765:B2 8.85328e-05
29 *2765:B1 *3015:A0 9.24825e-05
30 *2765:B1 *430:141 0.000104389
31 *2765:B1 *432:133 0.000143425
32 *2765:B1 *857:12 0.000121353
33 *2805:B1 *2606:A 7.4027e-05
34 *2805:B1 *2609:A 4.11198e-05
35 *2805:B1 *2611:A 0.000314445
36 *2805:B1 *2612:A 0.000664728
37 *2805:B1 *2612:B 7.32096e-05
38 *2805:B1 *2620:A0 0.000165396
39 *2805:B1 *2727:A1 0
40 *2805:B1 *2728:C 0
41 *2805:B1 *2804:B1 0.000217099
42 *2805:B1 *2805:A1 3.97604e-06
43 *2805:B1 *2805:A2 2.49909e-05
44 *2805:B1 *2807:B1 0.000470537
45 *2805:B1 *2808:A2 0
46 *2805:B1 *2923:B 0
47 *2805:B1 *599:10 0
48 *2805:B1 *599:12 0
49 *2805:B1 *599:14 0
50 *2805:B1 *893:12 0.000139933
51 *2815:A2 *2740:A2 0.000114807
52 *2815:A2 *2815:B1 1.77945e-05
53 *2815:A2 *2816:B 2.67022e-05
54 *2815:A2 *2816:C 0
55 *2815:A2 *2949:A 9.83921e-06
56 *2815:A2 *3150:CLK 0.000174478
57 *2815:A2 *605:29 0.000192219
58 *2815:A2 *693:32 0.000121039
59 *187:12 *2691:C 4.66826e-05
60 *187:16 *3015:A0 0.000615531
61 *187:16 *202:8 1.26626e-05
62 *187:16 *432:133 8.33066e-06
63 *187:64 *2691:C 0.000102884
64 *187:64 *2720:B_N 5.23362e-05
65 *187:64 *2751:C 6.55328e-05
66 *187:64 *2791:C 0.000115464
67 *187:64 *2898:C 5.91891e-05
68 *187:64 *3037:A 0.000644859
69 *187:64 *3125:A0 9.99955e-05
70 *187:64 *3125:A1 0.000202095
71 *187:64 *192:22 0.000156108
72 *187:64 *194:8 0.000275794
73 *187:64 *194:26 0.000625336
74 *187:64 *370:54 0.000165641
75 *187:64 *370:82 0.000166107
76 *187:64 *370:119 0.000257138
77 *187:64 *403:49 0.000104583
78 *187:64 *590:14 2.05641e-05
79 *187:64 *594:22 0.000296891
80 *187:64 *594:26 0.000284181
81 *187:64 *619:14 0
82 *187:64 *715:30 1.0397e-05
83 *187:64 *759:28 5.30799e-05
84 *187:64 *799:53 0
85 *187:64 *800:19 0.00013521
86 *187:64 *800:23 0.00013427
87 *187:64 *824:10 7.30547e-05
88 *187:71 *2788:A 6.51658e-05
89 *187:98 *2737:A1 2.0514e-05
90 *187:98 *2737:A2 8.65905e-05
91 *187:98 *2738:C 0.000162558
92 *187:98 *2740:B1 0.00018943
93 *187:98 *2752:C1 9.30787e-05
94 *187:98 *2760:B1 0
95 *187:98 *2761:A 0.000479699
96 *187:98 *2762:A 0
97 *187:98 *2762:B 0.000101804
98 *187:98 *2788:A 6.33103e-05
99 *187:98 *2790:B1 0
100 *187:98 *2942:S 0.000489637
101 *187:98 *2944:A0 4.34171e-05
102 *187:98 *2948:S 8.69098e-05
103 *187:98 *2997:A 0.000401489
104 *187:98 *2998:S 7.23602e-05
105 *187:98 *3447:A 0
106 *187:98 *218:108 8.0288e-05
107 *187:98 *231:14 1.7635e-05
108 *187:98 *231:116 8.60335e-05
109 *187:98 *372:14 0
110 *187:98 *374:18 2.54779e-05
111 *187:98 *374:76 0.000176
112 *187:98 *527:12 0.000188212
113 *187:98 *590:86 0
114 *187:98 *759:28 0.000213106
115 *187:100 *2737:B2 4.66108e-05
116 *187:100 *2947:A 4.66108e-05
117 *187:100 *2948:S 6.71882e-05
118 *187:112 *2618:S 8.23457e-05
119 *187:112 *2816:A 4.99619e-05
120 *187:112 *2816:B 0.000309618
121 *187:112 *2816:C 4.66108e-05
122 *187:112 *2842:A0 1.87913e-05
123 *187:112 *2842:S 0.000108835
124 *187:112 *2892:S 9.07709e-05
125 *187:112 *2947:A 1.08758e-05
126 *187:112 *208:58 0.000134732
127 *187:112 *325:32 0.000160057
128 *187:112 *328:30 0.000459144
129 *187:112 *358:28 0.000805545
130 *187:112 *528:72 0.000213276
131 *187:112 *528:82 0.000102718
132 *187:112 *565:6 3.74161e-05
133 *2680:D *187:64 0.000159575
134 *2696:A2 *2696:B1 5.34565e-05
135 *2702:C *187:64 2.34423e-05
136 *2708:B *187:64 3.64074e-05
137 *2710:B *187:16 0
138 *2710:C *187:16 0.000183731
139 *2715:D *187:12 7.67415e-06
140 *2765:A2 *2765:B1 0
141 *2790:A2 *187:98 0
142 *3135:D *187:112 8.33341e-05
143 *3151:D *187:112 0.000120679
144 *3205:D *2765:B1 0
145 *3232:D *187:64 0.000100919
146 *171:10 *187:64 4.31189e-05
147 *171:97 *187:12 4.94404e-05
148 *174:43 *187:98 9.88745e-05
149 *178:8 *187:64 8.73389e-06
150 *178:29 *187:12 8.34281e-06
151 *178:31 *187:12 2.49909e-05
152 *178:41 *187:12 4.41506e-05
153 *180:32 *187:16 9.14049e-05
154 *180:138 *187:64 4.9968e-05
155 *183:8 *187:12 1.16578e-05
156 *183:22 *187:12 0
*RES
1 *2695:X *187:12 9.245 
2 *187:12 *187:16 9.245 
3 *187:16 *2696:B1 4.665 
4 *187:16 *2765:B1 11.535 
5 *187:12 *187:64 44.725 
6 *187:64 *2789:B 1.6 
7 *187:64 *187:71 1.14 
8 *187:71 *2751:B 7.115 
9 *187:71 *187:98 39.415 
10 *187:98 *187:100 2.175 
11 *187:100 *187:112 30.195 
12 *187:112 *2727:A2 4.465 
13 *187:112 *2805:B1 28.88 
14 *187:100 *2815:A2 11.795 
15 *187:98 *2737:B1 1.96 
*END

*D_NET *188 0.00158857
*CONN
*I *2697:C1 I *D sky130_fd_sc_hd__a221o_1
*I *2696:X O *D sky130_fd_sc_hd__a22o_1
*CAP
1 *2697:C1 0.000263395
2 *2696:X 0.000263395
3 *2697:C1 *2697:A1 3.68514e-05
4 *2697:C1 *2697:B2 1.18271e-05
5 *2697:C1 *2698:C1 6.52989e-05
6 *2697:C1 *3415:A 0.000269335
7 *2697:C1 *432:81 0.000509775
8 *2697:C1 *595:82 9.12671e-06
9 *2696:A2 *2697:C1 1.77945e-05
10 *2697:A2 *2697:C1 1.2818e-05
11 *2697:B1 *2697:C1 4.66108e-05
12 *2766:B1 *2697:C1 8.23457e-05
*RES
1 *2696:X *2697:C1 10.925 
*END

*D_NET *189 0.00400981
*CONN
*I *2698:C1 I *D sky130_fd_sc_hd__a211o_1
*I *2697:X O *D sky130_fd_sc_hd__a221o_1
*CAP
1 *2698:C1 0.00111766
2 *2697:X 0.00111766
3 *2698:C1 *2696:A1 6.07575e-06
4 *2698:C1 *2767:A1 0.00011219
5 *2698:C1 *2767:B1 0.000196364
6 *2698:C1 *3336:A 8.33066e-06
7 *2698:C1 *3415:A 9.56017e-06
8 *2698:C1 *432:81 0.000378952
9 *2698:C1 *432:133 0.000832151
10 *2696:A2 *2698:C1 4.66108e-05
11 *2696:B1 *2698:C1 1.32026e-05
12 *2697:C1 *2698:C1 6.52989e-05
13 *182:31 *2698:C1 5.64047e-05
14 *183:22 *2698:C1 4.93554e-05
*RES
1 *2697:X *2698:C1 24.33 
*END

*D_NET *190 0.0050422
*CONN
*I *2730:A2 I *D sky130_fd_sc_hd__a2111o_1
*I *2698:X O *D sky130_fd_sc_hd__a211o_1
*CAP
1 *2730:A2 0.00169978
2 *2698:X 0.00169978
3 *2730:A2 *2704:A1 4.77757e-05
4 *2730:A2 *2730:B1 1.33285e-05
5 *2730:A2 *2730:D1 4.76218e-05
6 *2730:A2 *2770:A1 0
7 *2730:A2 *2775:A1 0
8 *2730:A2 *2777:A2 5.8352e-05
9 *2730:A2 *2777:B1 0.000163855
10 *2730:A2 *2778:D 0.000110509
11 *2730:A2 *2800:B1 0
12 *2730:A2 *2976:A0 0
13 *2730:A2 *3001:A1 0
14 *2730:A2 *3002:A 0
15 *2730:A2 *3003:A1 0.000352553
16 *2730:A2 *3309:A 0.00010231
17 *2730:A2 *3319:A 0.000116165
18 *2730:A2 *3359:A 0
19 *2730:A2 *3428:A 0
20 *2730:A2 *207:86 0
21 *2730:A2 *369:74 0
22 *2730:A2 *456:10 7.23533e-05
23 *2730:A2 *590:246 0.00029239
24 *2730:A2 *603:68 0.000124651
25 *2730:A2 *604:40 0
26 *2730:A1 *2730:A2 2.01934e-05
27 *183:22 *2730:A2 0.000120589
*RES
1 *2698:X *2730:A2 36.795 
*END

*D_NET *191 0.00485422
*CONN
*I *2781:C I *D sky130_fd_sc_hd__and3_1
*I *2700:A I *D sky130_fd_sc_hd__buf_2
*I *2786:C I *D sky130_fd_sc_hd__and3_1
*I *2780:C I *D sky130_fd_sc_hd__and3_1
*I *2699:X O *D sky130_fd_sc_hd__and2b_1
*CAP
1 *2781:C 4.91123e-05
2 *2700:A 0
3 *2786:C 7.94319e-05
4 *2780:C 1.35066e-05
5 *2699:X 0.000292609
6 *191:35 0.00099988
7 *191:18 0.00110744
8 *191:10 0.000515209
9 *2780:C *2783:C 5.28255e-05
10 *2780:C *3238:CLK 5.45067e-05
11 *2781:C *2781:B 4.17708e-06
12 *2781:C *3068:A0 6.5536e-05
13 *2781:C *3238:CLK 1.52184e-05
14 *2786:C *2749:B 0.000116158
15 *2786:C *2786:A 5.39905e-05
16 *2786:C *355:38 0.000116158
17 *191:10 *2785:A 1.07797e-05
18 *191:10 *3068:A0 0.000173865
19 *191:10 *211:41 0
20 *191:10 *419:14 4.21372e-05
21 *191:10 *608:10 0
22 *191:18 *3238:CLK 2.42802e-05
23 *191:18 *608:10 4.04498e-05
24 *191:35 *2749:C 3.1562e-06
25 *191:35 *3068:A0 0
26 *191:35 *3238:CLK 4.75576e-05
27 *191:35 *3465:A 0.000850499
28 *191:35 *215:68 4.2857e-05
29 *191:35 *608:10 8.28738e-05
*RES
1 *2699:X *191:10 8.3775 
2 *191:10 *191:18 2.4375 
3 *191:18 *2780:C 4.11 
4 *191:18 *191:35 15.035 
5 *191:35 *2786:C 7.49 
6 *191:35 *2700:A 1.6 
7 *191:10 *2781:C 4.5075 
*END

*D_NET *192 0.0144187
*CONN
*I *2749:C I *D sky130_fd_sc_hd__and3_1
*I *2787:C I *D sky130_fd_sc_hd__and3_1
*I *2753:C I *D sky130_fd_sc_hd__and3_1
*I *2701:A I *D sky130_fd_sc_hd__clkbuf_4
*I *2703:B I *D sky130_fd_sc_hd__and3_1
*I *2769:C I *D sky130_fd_sc_hd__and3_1
*I *2706:C I *D sky130_fd_sc_hd__and3_1
*I *2773:C I *D sky130_fd_sc_hd__and3_1
*I *2711:C I *D sky130_fd_sc_hd__and3_1
*I *2768:C I *D sky130_fd_sc_hd__and3_1
*I *2700:X O *D sky130_fd_sc_hd__buf_2
*CAP
1 *2749:C 0.000313589
2 *2787:C 0
3 *2753:C 0.00020848
4 *2701:A 0
5 *2703:B 0.000133174
6 *2769:C 0.000108236
7 *2706:C 0
8 *2773:C 0
9 *2711:C 0.00017605
10 *2768:C 0.000157055
11 *2700:X 0
12 *192:67 0.000424975
13 *192:57 0.000613891
14 *192:36 0.00104834
15 *192:32 0.00102222
16 *192:26 0.000781318
17 *192:22 0.000566586
18 *192:12 0.000531401
19 *192:10 0.000245877
20 *192:4 0.000542655
21 *2703:B *2703:C 6.72143e-05
22 *2703:B *2713:C 4.66108e-05
23 *2703:B *193:56 6.62548e-05
24 *2703:B *391:37 0.000185484
25 *2711:C *2711:B 6.98629e-05
26 *2711:C *2718:A2 2.3311e-05
27 *2711:C *3113:A 8.55941e-05
28 *2711:C *285:16 7.28258e-05
29 *2711:C *476:66 7.49429e-05
30 *2711:C *476:98 0
31 *2749:C *2552:A 2.68464e-05
32 *2749:C *2749:A 5.28255e-05
33 *2749:C *2749:B 1.26985e-05
34 *2749:C *2989:A 8.90199e-05
35 *2749:C *3465:A 3.31413e-05
36 *2753:C *2548:A1 0.000158072
37 *2753:C *2548:S 5.33085e-05
38 *2753:C *2553:A0 0.00025374
39 *2753:C *3122:B 0.000157363
40 *2753:C *212:20 0.000232364
41 *2753:C *218:108 1.07797e-05
42 *2768:C *3110:A 3.40432e-05
43 *2768:C *3112:A0 7.49197e-05
44 *2768:C *207:86 0
45 *2768:C *395:57 5.46877e-05
46 *2769:C *2800:B1 0.000148168
47 *2769:C *3428:A 0
48 *2769:C *476:56 1.70906e-05
49 *2769:C *832:10 1.70906e-05
50 *192:10 *2787:A 4.99619e-05
51 *192:10 *619:14 7.25462e-06
52 *192:10 *619:39 8.73389e-06
53 *192:12 *619:14 1.14714e-05
54 *192:22 *3122:B 0.000232116
55 *192:22 *476:31 0.000365272
56 *192:22 *500:139 0.000359572
57 *192:22 *619:14 0.000175768
58 *192:22 *759:28 3.57846e-05
59 *192:26 *476:31 0.00105536
60 *192:26 *500:139 0.000529434
61 *192:32 *3125:A1 0.000222035
62 *192:32 *193:56 6.85458e-05
63 *192:32 *391:37 7.9642e-06
64 *192:32 *391:43 0.000133246
65 *192:36 *3107:A0 3.37941e-05
66 *192:36 *3107:S 2.54522e-05
67 *192:36 *3125:A1 0.0004321
68 *192:36 *350:85 8.88523e-06
69 *192:57 *2718:A2 9.54381e-05
70 *192:57 *3112:A0 6.45236e-05
71 *192:57 *3386:A 6.79508e-05
72 *192:57 *207:86 0
73 *192:57 *395:26 0.000160553
74 *192:57 *395:57 2.13396e-05
75 *192:67 *2718:A2 0.00062673
76 *192:67 *2774:B1 0.000418808
77 *2718:B2 *192:57 4.92014e-05
78 *2718:B2 *192:67 0
79 *181:32 *192:57 0
80 *181:34 *192:57 0
81 *187:64 *192:22 0.000156108
82 *191:35 *2749:C 3.1562e-06
*RES
1 *2700:X *192:4 1.6 
2 *192:4 *192:10 2.76 
3 *192:10 *192:12 0.33 
4 *192:12 *192:22 12.73 
5 *192:22 *192:26 11.765 
6 *192:26 *192:32 7.535 
7 *192:32 *192:36 8.66 
8 *192:36 *2768:C 6.255 
9 *192:36 *192:57 9.58625 
10 *192:57 *192:67 7.20375 
11 *192:67 *2711:C 9.41 
12 *192:67 *2773:C 1.6 
13 *192:57 *2706:C 1.6 
14 *192:32 *2769:C 7.655 
15 *192:26 *2703:B 6.81 
16 *192:22 *2701:A 1.6 
17 *192:12 *2753:C 11.465 
18 *192:10 *2787:C 1.6 
19 *192:4 *2749:C 9.755 
*END

*D_NET *193 0.0178679
*CONN
*I *2709:A3 I *D sky130_fd_sc_hd__a31o_1
*I *2789:C I *D sky130_fd_sc_hd__and3_1
*I *2751:C I *D sky130_fd_sc_hd__and3_1
*I *2757:A3 I *D sky130_fd_sc_hd__a31o_1
*I *2772:A2 I *D sky130_fd_sc_hd__a31o_1
*I *2704:A3 I *D sky130_fd_sc_hd__a31o_1
*I *2777:B2 I *D sky130_fd_sc_hd__a22o_1
*I *2718:A1 I *D sky130_fd_sc_hd__a22o_1
*I *2799:A1 I *D sky130_fd_sc_hd__a211o_1
*I *2748:A1 I *D sky130_fd_sc_hd__a211o_1
*I *2701:X O *D sky130_fd_sc_hd__clkbuf_4
*CAP
1 *2709:A3 0.000279214
2 *2789:C 3.83855e-05
3 *2751:C 0.000253937
4 *2757:A3 0.000117826
5 *2772:A2 0.000137859
6 *2704:A3 1.17682e-05
7 *2777:B2 0.000166589
8 *2718:A1 8.33802e-05
9 *2799:A1 1.92299e-05
10 *2748:A1 0.000414269
11 *2701:X 0
12 *193:131 0.000419917
13 *193:76 0.000673388
14 *193:60 0.000827924
15 *193:56 0.000909199
16 *193:26 0.000691303
17 *193:20 0.00089656
18 *193:18 0.000758202
19 *193:14 0.00077382
20 *193:6 0.000545216
21 *2704:A3 *2800:B1 1.92979e-05
22 *2709:A3 *2549:A 0.000116921
23 *2709:A3 *2709:A1 5.83121e-06
24 *2709:A3 *2709:A2 2.49909e-05
25 *2709:A3 *2709:B1 1.10085e-05
26 *2709:A3 *3466:A 1.0397e-05
27 *2709:A3 *370:54 0.000146658
28 *2709:A3 *432:29 9.10613e-05
29 *2709:A3 *715:30 0.000357634
30 *2709:A3 *737:36 1.11262e-05
31 *2718:A1 *2718:A2 8.25711e-05
32 *2718:A1 *2730:C1 4.19029e-05
33 *2748:A1 *2730:D1 0.000944989
34 *2748:A1 *2748:C1 4.00541e-06
35 *2748:A1 *2799:B1 5.06989e-05
36 *2748:A1 *3006:B 0.000121516
37 *2748:A1 *3007:A1 0.00018471
38 *2748:A1 *3010:S 3.7445e-05
39 *2748:A1 *3371:A 1.15688e-05
40 *2748:A1 *207:90 0
41 *2748:A1 *600:94 6.23375e-05
42 *2751:C *2751:A 0.00010106
43 *2751:C *212:42 0.000111069
44 *2751:C *370:54 0.000133663
45 *2751:C *824:10 2.97386e-05
46 *2757:A3 *3233:CLK 0.000101813
47 *2757:A3 *202:14 0.000356781
48 *2757:A3 *212:65 0.000115464
49 *2757:A3 *231:98 2.25172e-05
50 *2772:A2 *2703:C 6.47967e-05
51 *2772:A2 *2772:A1 8.7152e-06
52 *2772:A2 *2772:A3 4.97019e-05
53 *2772:A2 *3099:A0 2.59627e-05
54 *2772:A2 *376:84 1.88602e-05
55 *2772:A2 *391:37 3.78111e-05
56 *2777:B2 *2770:C1 0.000131066
57 *2777:B2 *2777:B1 2.20898e-05
58 *2789:C *2789:A 2.48477e-05
59 *2799:A1 *2799:B1 5.12969e-06
60 *193:14 *350:62 0.000100115
61 *193:14 *350:83 0.000139245
62 *193:14 *370:54 0.000585137
63 *193:14 *715:30 0.000237467
64 *193:20 *3006:B 0.000153075
65 *193:20 *291:24 2.0514e-05
66 *193:26 *2730:D1 8.51879e-05
67 *193:26 *2799:B1 4.21518e-05
68 *193:26 *3006:B 0.000256658
69 *193:26 *291:24 0.000545039
70 *193:56 *2703:C 0.000141755
71 *193:56 *197:28 0.000116216
72 *193:56 *365:22 8.09021e-06
73 *193:56 *391:43 4.70999e-05
74 *193:60 *2763:B1 0.000105322
75 *193:60 *197:60 2.80313e-05
76 *193:60 *376:84 4.6912e-05
77 *193:60 *603:82 7.50823e-05
78 *193:76 *2730:C1 2.84399e-05
79 *193:76 *2770:C1 7.76406e-06
80 *193:76 *197:60 1.97564e-05
81 *193:76 *603:68 0.000163918
82 *193:131 *2788:A 2.51225e-05
83 *193:131 *2789:A 2.68464e-05
84 *2703:B *193:56 6.62548e-05
85 *2718:B2 *2718:A1 0.000225285
86 *2718:B2 *193:76 4.77757e-05
87 *2730:A1 *193:76 3.6355e-05
88 *2770:A2 *2777:B2 6.11903e-06
89 *2770:A2 *193:60 7.12211e-05
90 *2770:A2 *193:76 0.000213909
91 *3220:D *193:26 5.17877e-05
92 *3220:D *193:56 0.000102346
93 *3221:D *193:56 0.000240189
94 *176:54 *2709:A3 7.15297e-05
95 *177:10 *193:56 0.000765475
96 *177:24 *193:20 0.000606666
97 *177:24 *193:56 0.000115187
98 *177:100 *2772:A2 3.98098e-05
99 *177:100 *193:56 9.35082e-05
100 *177:106 *2777:B2 6.12027e-05
101 *177:112 *2777:B2 2.78827e-05
102 *177:147 *2777:B2 0.000170584
103 *187:64 *2751:C 6.55328e-05
104 *192:32 *193:56 6.85458e-05
*RES
1 *2701:X *193:6 3.6 
2 *193:6 *193:14 9.8 
3 *193:14 *193:18 4.17 
4 *193:18 *193:20 6.66 
5 *193:20 *193:26 7.815 
6 *193:26 *2748:A1 17.24 
7 *193:26 *2799:A1 1.96 
8 *193:20 *193:56 13.9625 
9 *193:56 *193:60 1.29547 
10 *193:60 *193:76 4.61203 
11 *193:76 *2718:A1 3.775 
12 *193:76 *2777:B2 9.53 
13 *193:60 *2704:A3 4.3325 
14 *193:56 *2772:A2 6.4275 
15 *193:18 *2757:A3 9.785 
16 *193:14 *193:131 1.485 
17 *193:131 *2751:C 11.195 
18 *193:131 *2789:C 2.11 
19 *193:6 *2709:A3 10.98 
*END

*D_NET *194 0.0105788
*CONN
*I *3468:A I *D sky130_fd_sc_hd__clkbuf_2
*I *2703:C I *D sky130_fd_sc_hd__and3_1
*I *2772:A3 I *D sky130_fd_sc_hd__a31o_1
*I *2771:C I *D sky130_fd_sc_hd__and3_1
*I *2702:Y O *D sky130_fd_sc_hd__nor4b_2
*CAP
1 *3468:A 0.000585038
2 *2703:C 0.000307249
3 *2772:A3 9.19602e-05
4 *2771:C 0
5 *2702:Y 0.000525659
6 *194:41 0.00100981
7 *194:26 0.00108463
8 *194:8 0.00158473
9 *2703:C *3097:A 1.70906e-05
10 *2703:C *3099:A0 6.19092e-05
11 *2703:C *376:84 2.81312e-05
12 *2703:C *391:37 0.00013718
13 *2772:A3 *391:37 5.10462e-05
14 *3468:A *3037:A 8.41307e-05
15 *3468:A *3058:A 2.86975e-05
16 *3468:A *212:20 0
17 *3468:A *336:25 5.98548e-05
18 *3468:A *340:43 0.000151541
19 *3468:A *340:53 8.8266e-05
20 *3468:A *352:34 0.000143953
21 *3468:A *384:14 0.000149321
22 *3468:A *384:26 1.88602e-05
23 *3468:A *411:10 0.000104975
24 *3468:A *677:20 1.74629e-05
25 *3468:A *715:20 2.68526e-05
26 *3468:A *873:14 4.77719e-05
27 *194:8 *2680:B 0.000115464
28 *194:8 *2898:C 6.59891e-05
29 *194:8 *2972:A 4.77736e-05
30 *194:8 *212:20 0
31 *194:8 *371:16 5.87934e-05
32 *194:8 *403:49 1.23268e-05
33 *194:8 *799:53 0.00021665
34 *194:26 *2708:C 7.94288e-05
35 *194:26 *2771:A 4.89395e-05
36 *194:26 *3096:A0 0.000200299
37 *194:26 *3466:A 0.000265765
38 *194:26 *403:49 2.01943e-05
39 *194:26 *432:14 2.42043e-05
40 *194:26 *715:30 0.000630662
41 *194:26 *759:12 4.66108e-05
42 *194:26 *759:28 6.41207e-05
43 *194:26 *873:14 5.11528e-05
44 *194:41 *2771:A 8.9257e-05
45 *194:41 *2772:B1 0.000479799
46 *194:41 *3096:A0 1.70906e-05
47 *194:41 *202:14 4.75977e-05
48 *194:41 *726:26 3.81175e-05
49 *2680:D *194:8 0.000111324
50 *2702:C *194:8 2.7881e-05
51 *2703:B *2703:C 6.72143e-05
52 *2772:A2 *2703:C 6.47967e-05
53 *2772:A2 *2772:A3 4.97019e-05
54 *3223:D *2772:A3 2.01259e-05
55 *3223:D *194:41 8.73389e-06
56 *171:10 *194:8 4.75576e-05
57 *176:54 *194:26 5.60308e-05
58 *176:64 *194:26 7.39703e-06
59 *176:70 *2703:C 1.79408e-05
60 *183:56 *2703:C 3.08892e-05
61 *187:64 *194:8 0.000275794
62 *187:64 *194:26 0.000625336
63 *193:56 *2703:C 0.000141755
*RES
1 *2702:Y *194:8 16.2 
2 *194:8 *194:26 16.835 
3 *194:26 *2771:C 1.6 
4 *194:26 *194:41 11.95 
5 *194:41 *2772:A3 7.01 
6 *194:41 *2703:C 16.26 
7 *194:8 *3468:A 21.71 
*END

*D_NET *195 0.000905795
*CONN
*I *2704:B1 I *D sky130_fd_sc_hd__a31o_1
*I *2703:X O *D sky130_fd_sc_hd__and3_1
*CAP
1 *2704:B1 0.000221281
2 *2703:X 0.000221281
3 *2704:B1 *2713:C 0.00022786
4 *2704:B1 *2713:D 1.19928e-05
5 *2704:B1 *3221:CLK 1.32472e-05
6 *2704:B1 *369:74 0.000109583
7 *2704:B1 *603:82 8.7152e-06
8 *2770:A2 *2704:B1 1.88602e-05
9 *3222:D *2704:B1 4.82919e-05
10 *183:69 *2704:B1 2.46837e-05
*RES
1 *2703:X *2704:B1 11.46 
*END

*D_NET *196 0.000602803
*CONN
*I *2713:A I *D sky130_fd_sc_hd__or4_1
*I *2704:X O *D sky130_fd_sc_hd__a31o_1
*CAP
1 *2713:A 0.000128766
2 *2704:X 0.000128766
3 *2713:A *2704:A1 4.26113e-05
4 *2713:A *2713:B 5.94666e-05
5 *2713:A *2713:D 9.26739e-05
6 *2713:A *2730:B1 0.000138217
7 *2713:A *2800:B1 5.69898e-06
8 *2713:A *3428:A 6.60257e-06
*RES
1 *2704:X *2713:A 10.425 
*END

*D_NET *197 0.0334861
*CONN
*I *2741:B1 I *D sky130_fd_sc_hd__a22o_1
*I *2794:A2 I *D sky130_fd_sc_hd__a211o_1
*I *2806:B1 I *D sky130_fd_sc_hd__a22o_1
*I *2724:B1 I *D sky130_fd_sc_hd__a22o_1
*I *2770:A3 I *D sky130_fd_sc_hd__a311o_1
*I *2707:A3 I *D sky130_fd_sc_hd__a31o_1
*I *2735:B1 I *D sky130_fd_sc_hd__a22o_1
*I *2814:B1 I *D sky130_fd_sc_hd__a221o_1
*I *2705:X O *D sky130_fd_sc_hd__and4_4
*CAP
1 *2741:B1 5.42891e-05
2 *2794:A2 0
3 *2806:B1 6.62137e-05
4 *2724:B1 0.000148655
5 *2770:A3 4.66382e-05
6 *2707:A3 7.34139e-05
7 *2735:B1 0
8 *2814:B1 0.000287519
9 *2705:X 5.24943e-05
10 *197:134 0.00151972
11 *197:128 0.0027535
12 *197:112 0.00152461
13 *197:108 0.00201862
14 *197:60 0.000634921
15 *197:28 0.00423894
16 *197:18 0.00552169
17 *197:8 0.00299627
18 *2707:A3 *2770:B1 3.93467e-05
19 *2707:A3 *2778:C 0.000228871
20 *2724:B1 *2560:S 1.83756e-05
21 *2724:B1 *2614:A 0.000109947
22 *2724:B1 *2724:A1 0.000349598
23 *2724:B1 *2724:B2 4.82863e-05
24 *2724:B1 *2806:B2 0
25 *2724:B1 *358:36 4.94404e-05
26 *2741:B1 *2741:A1 9.50342e-06
27 *2741:B1 *2794:A1 0.000164686
28 *2741:B1 *2794:B1 4.7043e-05
29 *2741:B1 *602:101 0
30 *2770:A3 *2770:A1 4.60061e-05
31 *2770:A3 *2770:B1 5.19006e-06
32 *2770:A3 *2778:C 4.11718e-05
33 *2806:B1 *2806:A1 3.00381e-05
34 *2806:B1 *2806:A2 1.08758e-05
35 *2806:B1 *535:14 9.80032e-06
36 *2814:B1 *2735:B2 0
37 *2814:B1 *2814:B2 1.12643e-05
38 *2814:B1 *2895:A 9.44791e-05
39 *2814:B1 *208:58 0.000119734
40 *2814:B1 *369:10 0
41 *2814:B1 *396:12 0.000251962
42 *2814:B1 *916:6 0.00015896
43 *197:8 *3004:A 0.000112836
44 *197:8 *3027:A 0.000132178
45 *197:18 *2800:A2 0.000343892
46 *197:18 *2976:S 0.000277676
47 *197:18 *3002:A 0
48 *197:18 *3027:A 0.000296295
49 *197:18 *208:106 0.000228461
50 *197:18 *371:57 4.57946e-05
51 *197:18 *399:16 0.000122868
52 *197:28 *2602:A 0
53 *197:28 *2800:A2 0.000428603
54 *197:28 *2912:B 0.000119309
55 *197:28 *2930:S 0.000148039
56 *197:28 *321:63 0.000267014
57 *197:28 *325:57 0.000149699
58 *197:28 *359:18 0.000118417
59 *197:28 *369:10 0
60 *197:28 *369:19 0.000117045
61 *197:28 *371:57 0.000188205
62 *197:28 *396:12 8.34426e-05
63 *197:60 *2777:B1 1.71416e-05
64 *197:60 *202:52 0.000796019
65 *197:60 *603:68 8.00381e-05
66 *197:60 *603:82 0.000326342
67 *197:108 *2717:B2 1.90662e-05
68 *197:108 *2794:B1 8.65905e-05
69 *197:108 *2794:C1 3.55235e-05
70 *197:108 *2976:A0 9.67685e-05
71 *197:108 *2991:A1 7.00889e-06
72 *197:108 *2992:A 6.01329e-05
73 *197:108 *2993:S 8.23457e-05
74 *197:108 *3003:A1 0.000319973
75 *197:108 *3004:A 4.77719e-05
76 *197:108 *3022:A 0.000317278
77 *197:108 *3032:A 0.000179015
78 *197:108 *3182:CLK 9.51101e-05
79 *197:108 *3425:A 3.0807e-05
80 *197:108 *285:16 9.98516e-05
81 *197:108 *604:14 6.83629e-05
82 *197:108 *845:8 0.00016063
83 *197:112 *2794:B1 1.37328e-05
84 *197:112 *285:16 2.66586e-05
85 *197:128 *2776:A1 0
86 *197:128 *3060:A 0
87 *197:128 *3060:B 0
88 *197:128 *3063:A1 0
89 *197:128 *3082:A 6.16235e-05
90 *197:128 *3083:A0 0
91 *197:128 *3088:A1 0
92 *197:128 *3089:A 0.00060258
93 *197:128 *3102:A0 9.25934e-05
94 *197:128 *3130:A0 3.7729e-05
95 *197:128 *285:16 5.30673e-05
96 *197:128 *442:77 0
97 *197:128 *477:8 0
98 *197:134 *2580:A0 0
99 *197:134 *2581:A 1.26626e-05
100 *197:134 *2591:A 0
101 *197:134 *2622:A 0
102 *197:134 *2622:B 2.33584e-05
103 *197:134 *2624:A 0
104 *197:134 *2722:A1 2.99731e-05
105 *197:134 *2805:A1 0
106 *197:134 *2806:B2 0
107 *197:134 *2807:A1 0
108 *197:134 *3119:A 0.000137578
109 *197:134 *3130:A0 1.03592e-05
110 *197:134 *3243:CLK 0.00011686
111 *197:134 *3347:A 0
112 *197:134 *3459:A 0
113 *197:134 *358:36 0.000126635
114 *197:134 *358:57 7.00066e-05
115 *197:134 *500:31 0.0011577
116 *197:134 *511:96 0.000139238
117 *197:134 *591:10 0
118 *3182:D *197:108 2.86265e-06
119 *3187:D *197:108 2.26717e-05
120 *3214:D *197:108 7.63106e-05
121 *3224:D *197:128 0
122 *3249:D *197:134 4.79189e-05
123 *3252:D *197:134 4.66446e-05
124 *177:10 *197:28 0.000129951
125 *177:112 *2707:A3 8.41384e-05
126 *177:147 *197:60 4.02996e-05
127 *181:32 *197:108 0.000271314
128 *193:56 *197:28 0.000116216
129 *193:60 *197:60 2.80313e-05
130 *193:76 *197:60 1.97564e-05
*RES
1 *2705:X *197:8 5.235 
2 *197:8 *197:18 6.8389 
3 *197:18 *197:28 11.3153 
4 *197:28 *2814:B1 10.17 
5 *197:28 *2735:B1 3.6 
6 *197:18 *197:60 4.77823 
7 *197:60 *2707:A3 3.775 
8 *197:60 *2770:A3 2.755 
9 *197:8 *197:108 35.52 
10 *197:108 *197:112 1.41 
11 *197:112 *197:128 28.4225 
12 *197:128 *197:134 28.5825 
13 *197:134 *2724:B1 7.935 
14 *197:134 *2806:B1 4.755 
15 *197:112 *2794:A2 1.6 
16 *197:108 *2741:B1 7.49 
*END

*D_NET *198 0.000488389
*CONN
*I *2707:B1 I *D sky130_fd_sc_hd__a31o_1
*I *2706:X O *D sky130_fd_sc_hd__and3_1
*CAP
1 *2707:B1 9.27101e-05
2 *2706:X 9.27101e-05
3 *2707:B1 *2718:B1 3.44419e-05
4 *2707:B1 *2778:C 4.22944e-05
5 *2707:B1 *202:52 4.77807e-05
6 *177:116 *2707:B1 0.000121659
7 *181:32 *2707:B1 5.67935e-05
*RES
1 *2706:X *2707:B1 9.72 
*END

*D_NET *199 0.00192946
*CONN
*I *2713:B I *D sky130_fd_sc_hd__or4_1
*I *2707:X O *D sky130_fd_sc_hd__a31o_1
*CAP
1 *2713:B 0.000505647
2 *2707:X 0.000505647
3 *2713:B *2713:D 2.69267e-05
4 *2713:B *2730:B1 4.77757e-05
5 *2713:B *2770:B1 0.000234986
6 *2713:B *2770:C1 0.000234986
7 *2713:B *358:114 0.000119756
8 *2713:B *833:8 0.000194267
9 *2713:A *2713:B 5.94666e-05
*RES
1 *2707:X *2713:B 15.39 
*END

*D_NET *200 0.00159548
*CONN
*I *2709:B1 I *D sky130_fd_sc_hd__a31o_1
*I *2708:X O *D sky130_fd_sc_hd__and3_1
*CAP
1 *2709:B1 0.000316129
2 *2708:X 0.000316129
3 *2709:B1 *2709:A1 4.90227e-05
4 *2709:B1 *3419:A 4.66345e-05
5 *2709:B1 *212:20 0.00014168
6 *2709:B1 *218:108 0.000324641
7 *2709:B1 *476:12 8.87378e-05
8 *2709:B1 *594:22 0.000301503
9 *2709:A3 *2709:B1 1.10085e-05
*RES
1 *2708:X *2709:B1 15.39 
*END

*D_NET *201 0.00287608
*CONN
*I *2713:C I *D sky130_fd_sc_hd__or4_1
*I *2709:X O *D sky130_fd_sc_hd__a31o_1
*CAP
1 *2713:C 0.000730081
2 *2709:X 0.000730081
3 *2713:C *2713:D 2.49909e-05
4 *2713:C *3097:A 0.000444055
5 *2713:C *737:36 0.000208712
6 *2713:C *748:14 7.13082e-05
7 *2713:C *759:12 0.000110791
8 *2703:B *2713:C 4.66108e-05
9 *2704:B1 *2713:C 0.00022786
10 *176:64 *2713:C 0.000127566
11 *176:70 *2713:C 4.85206e-05
12 *177:8 *2713:C 0.000105508
*RES
1 *2709:X *2713:C 22.11 
*END

*D_NET *202 0.0306232
*CONN
*I *2712:A3 I *D sky130_fd_sc_hd__a31o_1
*I *2714:B1 I *D sky130_fd_sc_hd__a22o_1
*I *2776:B1 I *D sky130_fd_sc_hd__a22o_1
*I *2725:B1 I *D sky130_fd_sc_hd__a22o_1
*I *2803:B1 I *D sky130_fd_sc_hd__a22o_1
*I *2774:A3 I *D sky130_fd_sc_hd__a31o_1
*I *2812:B1 I *D sky130_fd_sc_hd__a221o_1
*I *2734:A2 I *D sky130_fd_sc_hd__a21o_1
*I *2710:X O *D sky130_fd_sc_hd__and4b_4
*CAP
1 *2712:A3 1.8664e-05
2 *2714:B1 0
3 *2776:B1 0
4 *2725:B1 0.00019071
5 *2803:B1 9.87983e-05
6 *2774:A3 2.47558e-05
7 *2812:B1 0.000211358
8 *2734:A2 0.000626226
9 *2710:X 0.00080159
10 *202:115 0.00189245
11 *202:87 0.00176523
12 *202:77 0.000808487
13 *202:67 0.000938014
14 *202:52 0.00183659
15 *202:14 0.00304225
16 *202:8 0.00454494
17 *2725:B1 *2727:B1 0
18 *2725:B1 *2728:A 0.000148977
19 *2725:B1 *2728:B 7.4027e-05
20 *2725:B1 *2803:A2 7.65037e-05
21 *2725:B1 *350:120 0.000222119
22 *2734:A2 *2813:B1 9.39742e-05
23 *2734:A2 *2816:B 4.79946e-05
24 *2734:A2 *2886:A0 6.55328e-05
25 *2734:A2 *2892:A0 0.00019554
26 *2734:A2 *2923:A 7.47709e-05
27 *2734:A2 *325:49 6.57949e-06
28 *2734:A2 *388:8 7.1624e-05
29 *2734:A2 *715:58 0
30 *2774:A3 *399:34 1.14192e-05
31 *2803:B1 *2728:A 4.82919e-05
32 *2803:B1 *2803:A2 2.30292e-05
33 *2812:B1 *2812:B2 2.49708e-05
34 *2812:B1 *2812:C1 5.87387e-05
35 *2812:B1 *511:24 7.24033e-05
36 *202:8 *2771:A 0.000159115
37 *202:8 *3015:A0 0.000541272
38 *202:8 *3015:S 0.0001735
39 *202:8 *376:14 0.000141553
40 *202:8 *376:84 0.000342129
41 *202:8 *759:12 0
42 *202:14 *2757:B1 0.000256095
43 *202:14 *2771:A 2.84607e-05
44 *202:14 *2772:B1 4.36573e-06
45 *202:14 *2811:B2 5.64226e-05
46 *202:14 *2886:A0 0.000324905
47 *202:14 *2887:A 0.000288023
48 *202:14 *3126:A 0.000117832
49 *202:14 *3233:CLK 4.98863e-05
50 *202:14 *231:98 0
51 *202:14 *376:84 0.000133148
52 *202:14 *384:43 1.83728e-05
53 *202:14 *385:16 0
54 *202:14 *715:58 0
55 *202:14 *737:36 0
56 *202:14 *748:14 0
57 *202:14 *929:12 0.000110509
58 *202:52 *2718:B1 7.96104e-06
59 *202:52 *2763:B1 0
60 *202:52 *2778:C 0.000121659
61 *202:52 *345:16 0
62 *202:52 *376:84 0.000139079
63 *202:52 *474:18 2.95959e-05
64 *202:52 *603:68 0.000128757
65 *202:52 *603:82 8.17811e-05
66 *202:67 *399:34 0.000155608
67 *202:77 *2712:A1 8.53011e-05
68 *202:77 *3101:A 1.72577e-05
69 *202:77 *445:8 5.00903e-05
70 *202:77 *445:21 0.000111073
71 *202:77 *476:98 0.000116522
72 *202:77 *726:26 7.71692e-05
73 *202:77 *726:28 5.31158e-06
74 *202:87 *2714:A1 6.52411e-05
75 *202:87 *2714:B2 0.000181759
76 *202:87 *2776:B2 0.000150253
77 *202:87 *3389:A 5.20249e-05
78 *202:87 *445:8 1.26548e-05
79 *202:115 *2567:A 0.000175038
80 *202:115 *2578:S 0.000618705
81 *202:115 *2580:S 0.000135401
82 *202:115 *2588:S 0.000344017
83 *202:115 *2590:A0 0.000136984
84 *202:115 *2625:S 0.000239713
85 *202:115 *2722:B1 8.39341e-05
86 *202:115 *2722:C1 0.00016866
87 *202:115 *2724:A2 0.000163019
88 *202:115 *2724:B2 3.57804e-06
89 *202:115 *2728:A 0.000618705
90 *202:115 *2729:A2 5.49709e-05
91 *202:115 *2776:B2 8.53113e-06
92 *202:115 *2801:A2 0
93 *202:115 *2801:B1 5.82434e-05
94 *202:115 *3296:A 6.01508e-05
95 *202:115 *215:108 0.00035659
96 *202:115 *350:120 0.000584285
97 *202:115 *358:57 0
98 *202:115 *358:79 0.000205169
99 *202:115 *442:16 0.000184772
100 *202:115 *445:8 0.000270104
101 *202:115 *511:100 0
102 *202:115 *547:14 7.33809e-05
103 *202:115 *828:16 0.000292738
104 *2689:B_N *202:8 9.5433e-05
105 *2707:B1 *202:52 4.77807e-05
106 *2710:A_N *202:8 0.00022448
107 *2710:C *202:8 0.0001752
108 *2712:A2 *202:67 3.09866e-05
109 *2712:A2 *202:77 2.01737e-05
110 *2757:A3 *202:14 0.000356781
111 *2774:A2 *2774:A3 9.12671e-06
112 *3148:D *202:14 4.79946e-05
113 *3233:D *202:14 0
114 *3295:A *202:14 1.00941e-05
115 *174:69 *202:14 0.000253151
116 *176:64 *202:14 0
117 *177:24 *202:14 0.000334396
118 *177:116 *2774:A3 2.69153e-05
119 *177:116 *202:52 5.4606e-05
120 *179:12 *202:8 0.000349499
121 *180:10 *202:8 0.000117832
122 *180:21 *202:8 0.000171179
123 *180:32 *202:8 0.000147397
124 *181:32 *202:52 5.96623e-06
125 *183:56 *202:8 0
126 *187:16 *202:8 1.26626e-05
127 *194:41 *202:14 4.75977e-05
128 *197:60 *202:52 0.000796019
*RES
1 *2710:X *202:8 25.7625 
2 *202:8 *202:14 41.8425 
3 *202:14 *2734:A2 15.345 
4 *202:14 *2812:B1 7.17 
5 *202:8 *202:52 7.66883 
6 *202:52 *2774:A3 2.41 
7 *202:52 *202:67 3.84 
8 *202:67 *202:77 14.89 
9 *202:77 *202:87 6.26 
10 *202:87 *202:115 49.89 
11 *202:115 *2803:B1 3.085 
12 *202:115 *2725:B1 10.085 
13 *202:87 *2776:B1 3.6 
14 *202:77 *2714:B1 1.6 
15 *202:67 *2712:A3 1.96 
*END

*D_NET *203 0.00102648
*CONN
*I *2712:B1 I *D sky130_fd_sc_hd__a31o_1
*I *2711:X O *D sky130_fd_sc_hd__and3_1
*CAP
1 *2712:B1 0.000353378
2 *2711:X 0.000353378
3 *2712:B1 *2777:B1 8.57321e-05
4 *2712:B1 *3115:A 8.65961e-05
5 *2712:B1 *285:16 7.75353e-05
6 *2712:B1 *399:34 0
7 *2712:B1 *748:39 6.98629e-05
*RES
1 *2711:X *2712:B1 12.795 
*END

*D_NET *204 0.00369752
*CONN
*I *2713:D I *D sky130_fd_sc_hd__or4_1
*I *2712:X O *D sky130_fd_sc_hd__a31o_1
*CAP
1 *2713:D 0.000809721
2 *2712:X 0.000809721
3 *2713:D *3384:A 0.000119609
4 *2713:D *207:86 0.000316976
5 *2713:D *358:114 7.74878e-05
6 *2713:D *395:26 0.000318321
7 *2713:D *476:56 0.00045009
8 *2713:D *833:8 7.11079e-05
9 *2704:B1 *2713:D 1.19928e-05
10 *2712:A2 *2713:D 0.000156774
11 *2713:A *2713:D 9.26739e-05
12 *2713:B *2713:D 2.69267e-05
13 *2713:C *2713:D 2.49909e-05
14 *176:70 *2713:D 4.66108e-05
15 *177:116 *2713:D 0.000364513
*RES
1 *2712:X *2713:D 23.775 
*END

*D_NET *205 0.000811743
*CONN
*I *2730:B1 I *D sky130_fd_sc_hd__a2111o_1
*I *2713:X O *D sky130_fd_sc_hd__or4_1
*CAP
1 *2730:B1 0.000200112
2 *2713:X 0.000200112
3 *2730:B1 *2704:A1 0.000112098
4 *2730:B1 *2730:D1 4.76218e-05
5 *2730:B1 *2800:B1 5.24795e-05
6 *2704:A2 *2730:B1 0
7 *2713:A *2730:B1 0.000138217
8 *2713:B *2730:B1 4.77757e-05
9 *2730:A2 *2730:B1 1.33285e-05
*RES
1 *2713:X *2730:B1 11.22 
*END

*D_NET *206 0.00284152
*CONN
*I *2718:A2 I *D sky130_fd_sc_hd__a22o_1
*I *2714:X O *D sky130_fd_sc_hd__a22o_1
*CAP
1 *2718:A2 0.000821243
2 *2714:X 0.000821243
3 *2718:A2 *2711:B 1.56428e-05
4 *2718:A2 *2773:A 0.000271111
5 *2718:A2 *748:39 7.40564e-05
6 *2711:C *2718:A2 2.3311e-05
7 *2718:A1 *2718:A2 8.25711e-05
8 *2718:B2 *2718:A2 1.01759e-05
9 *192:57 *2718:A2 9.54381e-05
10 *192:67 *2718:A2 0.00062673
*RES
1 *2714:X *2718:A2 20.195 
*END

*D_NET *207 0.0199743
*CONN
*I *2796:A2 I *D sky130_fd_sc_hd__a31o_1
*I *2745:A2 I *D sky130_fd_sc_hd__a31o_1
*I *2722:A2 I *D sky130_fd_sc_hd__a221o_1
*I *2805:A2 I *D sky130_fd_sc_hd__a22o_1
*I *2717:A2 I *D sky130_fd_sc_hd__a22o_1
*I *2793:A2 I *D sky130_fd_sc_hd__a22o_1
*I *2742:A2 I *D sky130_fd_sc_hd__a22o_1
*I *2775:A2 I *D sky130_fd_sc_hd__a22o_1
*I *2715:X O *D sky130_fd_sc_hd__and4bb_4
*CAP
1 *2796:A2 0.000339263
2 *2745:A2 9.0463e-05
3 *2722:A2 0.000673423
4 *2805:A2 0.000110644
5 *2717:A2 0
6 *2793:A2 0.000391854
7 *2742:A2 0
8 *2775:A2 1.8836e-05
9 *2715:X 0.000591886
10 *207:98 0.00126192
11 *207:90 0.000931023
12 *207:86 0.00197003
13 *207:47 0.000942688
14 *207:39 0.000799409
15 *207:27 0.00151663
16 *207:12 0.000610722
17 *2722:A2 *2582:A 0.00023879
18 *2722:A2 *2591:A 2.21886e-05
19 *2722:A2 *2722:B1 0.000214433
20 *2722:A2 *2729:A1 2.49909e-05
21 *2722:A2 *2801:A1 0.000133785
22 *2722:A2 *2801:A2 1.07797e-05
23 *2722:A2 *3456:A 0.000144148
24 *2722:A2 *849:6 4.2856e-05
25 *2745:A2 *2582:A 0.000210121
26 *2745:A2 *2745:A3 5.40592e-05
27 *2745:A2 *2748:B1 1.33285e-05
28 *2745:A2 *231:44 0.000209591
29 *2775:A2 *2775:A1 4.3115e-05
30 *2775:A2 *2775:B1 2.77577e-07
31 *2775:A2 *3176:CLK 4.85874e-05
32 *2793:A2 *2742:A1 3.15604e-05
33 *2793:A2 *2742:B2 0.000198945
34 *2793:A2 *2793:A1 8.53113e-06
35 *2793:A2 *2793:B1 1.90662e-05
36 *2793:A2 *2793:B2 2.48103e-05
37 *2793:A2 *2794:C1 8.53113e-06
38 *2793:A2 *3081:A0 4.76503e-05
39 *2793:A2 *486:10 2.88519e-05
40 *2796:A2 *2587:A 7.06865e-05
41 *2796:A2 *2795:A 0.000275981
42 *2796:A2 *2799:A2 0
43 *2796:A2 *2799:C1 7.55391e-05
44 *2796:A2 *3006:A 7.47284e-05
45 *2796:A2 *212:91 5.7471e-05
46 *2796:A2 *231:26 2.55029e-05
47 *2796:A2 *231:38 8.60799e-05
48 *2805:A2 *2612:A 0.000153638
49 *2805:A2 *2802:A2 0
50 *2805:A2 *2805:A1 1.56428e-05
51 *207:12 *2775:A1 0.000122331
52 *207:12 *3003:S 0.000473262
53 *207:12 *3027:A 0
54 *207:12 *3037:A 0.000116165
55 *207:12 *3176:CLK 0.000112349
56 *207:12 *3359:A 0.000341106
57 *207:12 *215:24 5.13581e-05
58 *207:12 *365:64 0.000648875
59 *207:12 *391:37 0.000153612
60 *207:12 *439:10 0.000172279
61 *207:39 *2717:A1 0.000208574
62 *207:39 *2718:B1 2.8185e-05
63 *207:39 *2775:A1 4.66366e-05
64 *207:39 *2977:A 0.000150642
65 *207:39 *3186:CLK 8.58619e-05
66 *207:39 *603:8 4.41506e-05
67 *207:47 *2717:A1 2.28636e-05
68 *207:47 *2718:B1 0.000158066
69 *207:47 *3186:CLK 1.37328e-05
70 *207:47 *208:139 6.97034e-05
71 *207:86 *2707:A1 1.80295e-05
72 *207:86 *2730:D1 0
73 *207:86 *2770:B1 0.000763795
74 *207:86 *2770:C1 4.58262e-06
75 *207:86 *2777:A2 0.000444032
76 *207:86 *2977:A 2.55163e-05
77 *207:86 *3007:A1 5.13581e-05
78 *207:86 *3091:A1 4.92096e-05
79 *207:86 *395:26 0.000379605
80 *207:86 *395:57 0
81 *207:90 *2587:A 0.000309729
82 *207:90 *2745:B1 7.43763e-05
83 *207:90 *2748:C1 4.1588e-05
84 *207:90 *2799:C1 0
85 *207:90 *3006:A 6.68849e-05
86 *207:90 *3007:A1 2.54606e-05
87 *207:90 *3007:S 0.000117825
88 *207:90 *3371:A 3.57924e-05
89 *207:90 *231:44 2.85623e-05
90 *207:90 *600:81 0.000154448
91 *207:90 *600:94 0.000206817
92 *207:98 *2582:A 0.000379791
93 *207:98 *2612:A 7.08297e-05
94 *207:98 *2748:B1 0.000158552
95 *2713:D *207:86 0.000316976
96 *2730:A2 *207:86 0
97 *2748:A1 *207:90 0
98 *2768:C *207:86 0
99 *2805:B1 *2805:A2 2.49909e-05
100 *3176:D *207:12 9.79246e-05
101 *3176:D *207:86 0
102 *3186:D *207:39 8.84163e-05
103 *177:106 *207:86 5.94242e-05
104 *177:112 *207:86 3.39303e-05
105 *179:41 *207:12 5.37442e-05
106 *180:63 *207:12 9.3062e-06
107 *192:57 *207:86 0
*RES
1 *2715:X *207:12 22.685 
2 *207:12 *2775:A2 2.38 
3 *207:12 *207:27 2 
4 *207:27 *207:39 8.615 
5 *207:39 *207:47 9.21 
6 *207:47 *2742:A2 1.6 
7 *207:47 *2793:A2 11.5475 
8 *207:39 *2717:A2 1.6 
9 *207:27 *207:86 25.425 
10 *207:86 *207:90 10.775 
11 *207:90 *207:98 11.27 
12 *207:98 *2805:A2 5.94 
13 *207:98 *2722:A2 19.7725 
14 *207:90 *2745:A2 4.93 
15 *207:86 *2796:A2 11.385 
*END

*D_NET *208 0.0291865
*CONN
*I *2775:B1 I *D sky130_fd_sc_hd__a22o_1
*I *2792:A2 I *D sky130_fd_sc_hd__a22o_1
*I *2743:A2 I *D sky130_fd_sc_hd__a211o_1
*I *2717:B1 I *D sky130_fd_sc_hd__a22o_1
*I *2736:B1 I *D sky130_fd_sc_hd__a22o_1
*I *2814:A2 I *D sky130_fd_sc_hd__a221o_1
*I *2725:A2 I *D sky130_fd_sc_hd__a22o_1
*I *2803:A2 I *D sky130_fd_sc_hd__a22o_1
*I *2716:X O *D sky130_fd_sc_hd__and4bb_4
*CAP
1 *2775:B1 2.49076e-05
2 *2792:A2 0.000354076
3 *2743:A2 0
4 *2717:B1 0
5 *2736:B1 0.000310864
6 *2814:A2 0
7 *2725:A2 0
8 *2803:A2 0.000192132
9 *2716:X 0.000383697
10 *208:139 0.000748123
11 *208:118 0.000632891
12 *208:106 0.000965517
13 *208:58 0.00195101
14 *208:26 0.00192018
15 *208:20 0.000941302
16 *208:18 0.00207279
17 *208:10 0.00268911
18 *2736:B1 *2736:B2 4.77719e-05
19 *2736:B1 *2738:A 0.000906292
20 *2736:B1 *2893:A 0.000122325
21 *2736:B1 *351:114 0.000183856
22 *2775:B1 *2977:A 1.47347e-05
23 *2775:B1 *2990:B 1.08758e-05
24 *2775:B1 *365:64 2.30292e-05
25 *2792:A2 *2743:A1 0.000183043
26 *2792:A2 *2792:B1 6.99805e-05
27 *2792:A2 *3438:A 0.00010596
28 *2792:A2 *215:38 0.000583818
29 *2792:A2 *285:16 0.000106655
30 *2792:A2 *430:64 0
31 *2792:A2 *430:74 0.000117116
32 *2803:A2 *2727:B1 9.7872e-05
33 *2803:A2 *2728:A 0.000198939
34 *2803:A2 *2728:B 7.23602e-05
35 *2803:A2 *2728:C 4.82863e-05
36 *2803:A2 *2804:B1 0.000270415
37 *208:10 *3003:S 0
38 *208:10 *3037:A 8.88715e-05
39 *208:10 *3191:CLK 4.36573e-06
40 *208:10 *365:64 0
41 *208:10 *439:10 0
42 *208:18 *2703:A 0.000105828
43 *208:18 *2757:A1 0.000112238
44 *208:18 *3006:B 6.10789e-05
45 *208:18 *3091:A0 4.05358e-05
46 *208:18 *3097:A 6.09693e-05
47 *208:18 *3191:CLK 0.000221271
48 *208:18 *3255:CLK 6.92078e-05
49 *208:18 *291:24 0.000124498
50 *208:18 *322:42 3.90844e-05
51 *208:18 *322:61 7.42078e-05
52 *208:18 *365:22 0.000144906
53 *208:18 *371:57 0.00026275
54 *208:18 *371:61 8.89007e-05
55 *208:18 *374:90 0.000299716
56 *208:18 *380:22 0.000561974
57 *208:18 *384:43 0
58 *208:18 *419:61 1.73877e-05
59 *208:18 *603:91 0.000180611
60 *208:20 *3392:A 0.00011852
61 *208:20 *322:31 6.04258e-05
62 *208:20 *322:42 4.37349e-05
63 *208:20 *366:10 0.00116953
64 *208:20 *374:90 5.01899e-05
65 *208:20 *385:16 0.000369321
66 *208:26 *2892:S 0.000179032
67 *208:26 *3328:A 0.000141599
68 *208:26 *366:10 0.00015997
69 *208:26 *385:16 3.03513e-05
70 *208:58 *2597:B 4.82863e-05
71 *208:58 *2605:A1 4.71333e-05
72 *208:58 *2725:A1 9.53428e-06
73 *208:58 *2725:B2 4.82863e-05
74 *208:58 *2814:B2 1.12643e-05
75 *208:58 *2839:A0 4.76126e-05
76 *208:58 *2839:A1 0.000661473
77 *208:58 *2839:S 0.000158099
78 *208:58 *2840:A 0.000231783
79 *208:58 *2842:S 7.23533e-05
80 *208:58 *2892:S 8.86778e-05
81 *208:58 *2921:A0 4.61701e-06
82 *208:58 *3151:CLK 1.7309e-05
83 *208:58 *3328:A 2.16917e-05
84 *208:58 *326:6 3.57349e-05
85 *208:58 *358:28 2.71912e-06
86 *208:58 *553:10 4.43682e-05
87 *208:58 *916:6 1.91597e-05
88 *208:106 *2775:B2 1.93765e-05
89 *208:106 *218:24 0.001403
90 *208:106 *399:16 0.000395396
91 *208:106 *603:21 7.96104e-06
92 *208:118 *2718:B1 1.34361e-05
93 *208:118 *2990:B 0.000118913
94 *208:118 *3032:A 5.08304e-06
95 *208:118 *3075:A 3.83194e-05
96 *208:118 *235:18 7.06865e-05
97 *208:118 *365:64 0.000210257
98 *208:118 *399:34 3.3075e-05
99 *208:118 *433:10 0.000201845
100 *208:139 *2717:A1 3.26889e-05
101 *208:139 *2717:B2 0.000118527
102 *208:139 *2991:A1 5.83121e-06
103 *208:139 *3076:A0 0.000454461
104 *208:139 *285:16 5.33085e-05
105 *208:139 *433:10 1.1561e-05
106 *208:139 *445:89 0.000141599
107 *2689:A_N *208:10 0
108 *2689:D *208:10 0
109 *2725:B1 *2803:A2 7.65037e-05
110 *2775:A2 *2775:B1 2.77577e-07
111 *2803:B1 *2803:A2 2.30292e-05
112 *2814:B1 *208:58 0.000119734
113 *3150:D *208:26 5.92191e-05
114 *3151:D *208:58 0.000270409
115 *3254:D *208:18 0.000131602
116 *3259:D *208:58 1.54049e-05
117 *171:41 *208:10 0.000113524
118 *171:60 *208:10 4.14369e-05
119 *174:83 *208:18 7.08673e-05
120 *177:100 *208:18 0.000271446
121 *178:41 *208:10 4.99619e-05
122 *178:43 *208:10 0.000119762
123 *180:63 *208:10 0
124 *181:32 *208:118 1.29269e-05
125 *183:56 *208:10 0.000189467
126 *183:56 *208:18 0.00105165
127 *187:112 *208:58 0.000134732
128 *197:18 *208:106 0.000228461
129 *207:47 *208:139 6.97034e-05
*RES
1 *2716:X *208:10 11.1825 
2 *208:10 *208:18 39.795 
3 *208:18 *208:20 15.1875 
4 *208:20 *208:26 6.38 
5 *208:26 *208:58 34.0488 
6 *208:58 *2803:A2 11.315 
7 *208:58 *2725:A2 1.6 
8 *208:26 *2814:A2 1.6 
9 *208:20 *2736:B1 12.795 
10 *208:10 *208:106 5.42637 
11 *208:106 *208:118 10.075 
12 *208:118 *2717:B1 1.6 
13 *208:118 *208:139 14.34 
14 *208:139 *2743:A2 3.6 
15 *208:139 *2792:A2 13.17 
16 *208:106 *2775:B1 2.41 
*END

*D_NET *209 0.00374342
*CONN
*I *2718:B1 I *D sky130_fd_sc_hd__a22o_1
*I *2717:X O *D sky130_fd_sc_hd__a22o_1
*CAP
1 *2718:B1 0.000831672
2 *2717:X 0.000831672
3 *2718:B1 *2707:A1 0.000199588
4 *2718:B1 *2774:A1 0.000173454
5 *2718:B1 *3020:S 5.06196e-05
6 *2718:B1 *3080:A 4.14843e-05
7 *2718:B1 *235:18 9.92994e-05
8 *2718:B1 *345:30 0.000353698
9 *2718:B1 *395:26 0.000130721
10 *2718:B1 *433:10 0.00011379
11 *2718:B1 *445:70 7.49919e-05
12 *2718:B1 *445:89 0.000189214
13 *2718:B1 *726:26 0.000411123
14 *2707:B1 *2718:B1 3.44419e-05
15 *181:32 *2718:B1 0
16 *202:52 *2718:B1 7.96104e-06
17 *207:39 *2718:B1 2.8185e-05
18 *207:47 *2718:B1 0.000158066
19 *208:118 *2718:B1 1.34361e-05
*RES
1 *2717:X *2718:B1 30.745 
*END

*D_NET *210 0.000469512
*CONN
*I *2730:C1 I *D sky130_fd_sc_hd__a2111o_1
*I *2718:X O *D sky130_fd_sc_hd__a22o_1
*CAP
1 *2730:C1 0.000172143
2 *2718:X 0.000172143
3 *2730:C1 *2730:D1 4.77719e-05
4 *2718:A1 *2730:C1 4.19029e-05
5 *2730:A1 *2730:C1 7.11235e-06
6 *193:76 *2730:C1 2.84399e-05
*RES
1 *2718:X *2730:C1 5.72 
*END

*D_NET *211 0.0327155
*CONN
*I *2781:B I *D sky130_fd_sc_hd__and3_1
*I *2755:A3 I *D sky130_fd_sc_hd__a31o_1
*I *2790:A3 I *D sky130_fd_sc_hd__a31o_1
*I *2722:B1 I *D sky130_fd_sc_hd__a221o_1
*I *2807:A2 I *D sky130_fd_sc_hd__a211o_1
*I *2731:B1 I *D sky130_fd_sc_hd__a22o_1
*I *2809:B1 I *D sky130_fd_sc_hd__a22o_1
*I *2753:B I *D sky130_fd_sc_hd__and3_1
*I *2719:X O *D sky130_fd_sc_hd__and4b_4
*CAP
1 *2781:B 0.000116438
2 *2755:A3 0
3 *2790:A3 9.20718e-06
4 *2722:B1 0.000580213
5 *2807:A2 9.1094e-05
6 *2731:B1 0
7 *2809:B1 0.0003448
8 *2753:B 0.000613905
9 *2719:X 0.00139547
10 *211:85 0.00403986
11 *211:71 0.00444576
12 *211:47 0.00107519
13 *211:43 0.00188549
14 *211:41 0.000519619
15 *211:37 0.000783406
16 *211:14 0.00224383
17 *2722:B1 *2591:A 9.14342e-06
18 *2722:B1 *2622:B 0.000301507
19 *2722:B1 *2722:A1 2.19028e-05
20 *2722:B1 *2722:C1 0.000228871
21 *2722:B1 *2729:A1 1.19928e-05
22 *2722:B1 *2729:A2 0.000164254
23 *2722:B1 *2801:A1 0.000115444
24 *2722:B1 *2801:A2 0.000321553
25 *2722:B1 *2801:B1 3.97568e-05
26 *2753:B *2553:A0 0.000148348
27 *2753:B *2553:S 0.000273277
28 *2753:B *2554:A 0.000183898
29 *2781:B *2780:A 6.77501e-05
30 *2790:A3 *2762:A 8.41703e-06
31 *2790:A3 *411:14 1.92979e-05
32 *2807:A2 *2625:A1 4.8174e-05
33 *2807:A2 *2727:B1 9.40696e-05
34 *2807:A2 *2807:B1 4.66108e-05
35 *2807:A2 *2808:A3 4.82919e-05
36 *2807:A2 *328:71 0.000112147
37 *2809:B1 *2731:A1 2.88357e-05
38 *2809:B1 *2731:A2 2.06566e-05
39 *2809:B1 *2731:B2 1.77945e-05
40 *2809:B1 *2965:A 0.00018288
41 *2809:B1 *2965:B 2.10905e-05
42 *2809:B1 *325:118 0.000160314
43 *2809:B1 *693:24 0.000676705
44 *211:14 *2554:A 0.000140761
45 *211:14 *2719:A_N 2.75145e-05
46 *211:14 *2753:A 0
47 *211:14 *2831:A 9.47454e-05
48 *211:14 *2851:A 7.07879e-05
49 *211:14 *2851:B_N 0
50 *211:14 *2854:A1_N 0
51 *211:14 *2856:A 0.000371884
52 *211:14 *2857:B1 0.000107634
53 *211:14 *3068:A0 0.000183738
54 *211:14 *3239:CLK 1.03323e-05
55 *211:14 *3275:D 0
56 *211:14 *3300:A 0
57 *211:14 *215:68 0
58 *211:14 *319:10 0.000123751
59 *211:14 *340:10 0.000289698
60 *211:14 *419:14 0.000128721
61 *211:14 *419:136 7.07105e-05
62 *211:14 *595:10 7.67552e-05
63 *211:14 *595:23 6.95335e-05
64 *211:14 *595:36 4.45598e-05
65 *211:14 *595:55 6.4422e-05
66 *211:14 *663:40 0
67 *211:14 *663:92 0
68 *211:14 *772:18 0.000116158
69 *211:14 *772:20 0.000159269
70 *211:14 *774:124 2.68037e-05
71 *211:14 *799:12 0
72 *211:37 *2780:A 0.000158072
73 *211:37 *2783:B 4.82863e-05
74 *211:37 *2783:C 9.54399e-05
75 *211:37 *215:68 0.000328781
76 *211:37 *361:36 4.92096e-05
77 *211:37 *415:52 0
78 *211:41 *2779:A 4.76659e-05
79 *211:41 *419:14 0
80 *211:41 *608:10 9.50342e-06
81 *211:41 *608:16 0.000995602
82 *211:41 *619:62 0.000304595
83 *211:43 *608:16 0.000307343
84 *211:43 *619:62 0.00031562
85 *211:47 *2634:A 0.000465096
86 *211:47 *2731:A2 0.000133543
87 *211:47 *2737:A2 8.0005e-05
88 *211:47 *2763:A1 0.00011852
89 *211:47 *2763:B1 0
90 *211:47 *2763:B2 1.44259e-05
91 *211:47 *2810:C1 6.55166e-05
92 *211:47 *2817:A1 0.000116158
93 *211:47 *2963:A 0.000288997
94 *211:47 *3351:A 2.15594e-05
95 *211:47 *316:22 0
96 *211:47 *351:16 5.65627e-05
97 *211:47 *356:14 0
98 *211:47 *359:111 1.32017e-05
99 *211:47 *359:119 1.48851e-05
100 *211:47 *608:16 0.000493466
101 *211:47 *619:62 0.00144558
102 *211:71 *2763:B1 0
103 *211:71 *2763:B2 0.000143876
104 *211:71 *316:36 9.72223e-05
105 *211:71 *323:26 5.57639e-05
106 *211:71 *527:118 7.91555e-05
107 *211:85 *2567:A 0
108 *211:85 *2625:A1 1.7635e-05
109 *211:85 *2727:B1 1.01158e-05
110 *211:85 *2763:B1 0
111 *211:85 *215:108 0.000437083
112 *211:85 *316:60 3.6509e-05
113 *211:85 *527:14 0.000142532
114 *211:85 *527:26 0.000611284
115 *211:85 *527:118 8.1311e-05
116 *211:85 *532:18 6.18663e-05
117 *211:85 *590:52 0.000156133
118 *2682:A *211:41 0
119 *2722:A2 *2722:B1 0.000214433
120 *2781:C *2781:B 4.17708e-06
121 *2808:B1 *2807:A2 0.00015958
122 *3173:D *211:47 0.000139238
123 *174:104 *211:85 0.000500975
124 *191:10 *211:41 0
125 *202:115 *2722:B1 8.39341e-05
*RES
1 *2719:X *211:14 35.555 
2 *211:14 *2753:B 11.155 
3 *211:14 *211:37 9.775 
4 *211:37 *211:41 13.835 
5 *211:41 *211:43 3.8025 
6 *211:43 *211:47 26.7125 
7 *211:47 *2809:B1 14.42 
8 *211:47 *2731:B1 1.6 
9 *211:43 *211:71 2.34427 
10 *211:71 *211:85 7.76503 
11 *211:85 *2807:A2 6.705 
12 *211:85 *2722:B1 20.785 
13 *211:71 *2790:A3 4.3325 
14 *211:41 *2755:A3 3.6 
15 *211:37 *2781:B 3.085 
*END

*D_NET *212 0.0236709
*CONN
*I *2786:B I *D sky130_fd_sc_hd__and3_1
*I *2795:C I *D sky130_fd_sc_hd__and3_1
*I *2747:A2 I *D sky130_fd_sc_hd__a32o_1
*I *2798:A2 I *D sky130_fd_sc_hd__a32o_1
*I *2744:C I *D sky130_fd_sc_hd__and3_1
*I *2721:B1 I *D sky130_fd_sc_hd__a22o_1
*I *2801:A2 I *D sky130_fd_sc_hd__a22o_1
*I *2757:A2 I *D sky130_fd_sc_hd__a31o_1
*I *2720:X O *D sky130_fd_sc_hd__and4bb_4
*CAP
1 *2786:B 0.000176186
2 *2795:C 0
3 *2747:A2 0
4 *2798:A2 0.000157346
5 *2744:C 6.05764e-05
6 *2721:B1 0
7 *2801:A2 0.000597103
8 *2757:A2 5.98632e-05
9 *2720:X 0.00163859
10 *212:142 0.000721261
11 *212:91 0.00174062
12 *212:71 0.00142186
13 *212:67 0.000967645
14 *212:65 0.00107443
15 *212:42 0.00161876
16 *212:20 0.00248522
17 *2744:C *2587:A 4.39079e-05
18 *2744:C *2799:C1 9.14049e-05
19 *2744:C *3375:A 0.000108226
20 *2744:C *600:109 0.000109901
21 *2757:A2 *2998:A1 4.35432e-05
22 *2786:B *2786:A 7.76046e-05
23 *2786:B *2788:C 8.49205e-05
24 *2786:B *3414:A 4.82919e-05
25 *2798:A2 *2747:A1 9.03508e-06
26 *2798:A2 *2747:A3 5.71639e-05
27 *2798:A2 *2748:C1 9.84609e-06
28 *2798:A2 *2798:A3 9.387e-06
29 *2798:A2 *2798:B1 3.7801e-05
30 *2798:A2 *2916:A 0.000189953
31 *2798:A2 *395:57 0
32 *2798:A2 *600:81 8.96103e-05
33 *2801:A2 *2588:A1 1.08758e-05
34 *2801:A2 *2588:S 0.000113247
35 *2801:A2 *2624:A 4.80058e-05
36 *2801:A2 *2721:B2 4.21973e-05
37 *2801:A2 *2722:C1 0.000400776
38 *2801:A2 *2729:A2 0.000214278
39 *2801:A2 *2801:A1 2.16306e-05
40 *2801:A2 *2802:A2 5.0706e-05
41 *2801:A2 *358:57 0
42 *2801:A2 *544:22 0.000104619
43 *2801:A2 *568:6 8.35118e-05
44 *2801:A2 *726:38 8.77498e-05
45 *2801:A2 *931:8 9.80943e-06
46 *212:20 *2547:A 0.00037585
47 *212:20 *2548:S 0.000138059
48 *212:20 *2680:B 0
49 *212:20 *2687:A 0.000159684
50 *212:20 *2787:A 0.0001846
51 *212:20 *2788:D 9.9535e-05
52 *212:20 *2946:C 0
53 *212:20 *2972:A 1.2961e-05
54 *212:20 *3047:A 0
55 *212:20 *3133:A1 4.1588e-05
56 *212:20 *218:12 4.07435e-05
57 *212:20 *218:108 0.000269867
58 *212:20 *340:53 0.000220273
59 *212:20 *343:10 0
60 *212:20 *370:64 0
61 *212:20 *411:14 0
62 *212:20 *421:12 0.000767676
63 *212:20 *476:12 1.30872e-05
64 *212:20 *476:14 7.27704e-06
65 *212:20 *521:10 2.50751e-05
66 *212:20 *619:39 0.000270647
67 *212:20 *798:21 0.000112123
68 *212:20 *798:27 0.000333496
69 *212:20 *801:14 0.000183819
70 *212:42 *2751:A 0.000132763
71 *212:42 *2761:C 0.00026012
72 *212:42 *2788:D 0.00013958
73 *212:42 *2998:A1 0.000417142
74 *212:42 *2999:A 0.000114534
75 *212:42 *3379:A 0.000158066
76 *212:42 *218:108 7.59909e-05
77 *212:42 *231:14 0.000122331
78 *212:42 *370:54 6.7449e-05
79 *212:42 *619:39 0.000415308
80 *212:42 *759:28 0
81 *212:42 *824:10 5.09097e-05
82 *212:65 *2795:A 8.85605e-05
83 *212:65 *3397:A 3.83194e-05
84 *212:65 *231:98 6.02202e-05
85 *212:65 *380:22 9.83349e-05
86 *212:65 *380:38 0.000103406
87 *212:67 *2795:A 0.000260868
88 *212:71 *2795:A 0.000304678
89 *212:91 *2587:A 7.23533e-05
90 *212:91 *2721:A1 9.50342e-06
91 *212:91 *2721:B2 4.95266e-05
92 *212:91 *2795:A 8.67886e-05
93 *212:91 *2799:C1 3.31204e-05
94 *212:91 *2802:A2 7.67415e-06
95 *212:91 *3008:A 0.000176766
96 *212:91 *3189:CLK 0.00016215
97 *212:91 *350:120 0
98 *212:91 *726:38 0
99 *212:91 *874:8 9.87313e-05
100 *212:91 *931:8 0
101 *212:142 *2745:A1 0.000223876
102 *212:142 *2747:A1 0.000280557
103 *212:142 *2747:A3 1.20802e-05
104 *212:142 *2799:C1 0
105 *212:142 *2915:A1 4.87465e-06
106 *212:142 *2916:A 7.18795e-06
107 *212:142 *231:38 0.000140779
108 *2709:B1 *212:20 0.00014168
109 *2722:A2 *2801:A2 1.07797e-05
110 *2722:B1 *2801:A2 0.000321553
111 *2751:B *212:42 6.84844e-05
112 *2751:C *212:42 0.000111069
113 *2753:C *212:20 0.000232364
114 *2757:A3 *212:65 0.000115464
115 *2796:A2 *212:91 5.7471e-05
116 *3189:D *212:91 4.82319e-06
117 *3236:D *212:20 0.000158845
118 *3468:A *212:20 0
119 *176:44 *212:20 0
120 *183:75 *212:142 0
121 *194:8 *212:20 0
122 *202:115 *2801:A2 0
*RES
1 *2720:X *212:20 40.365 
2 *212:20 *212:42 23.025 
3 *212:42 *2757:A2 2.755 
4 *212:42 *212:65 16.72 
5 *212:65 *212:67 2.46 
6 *212:67 *212:71 4.865 
7 *212:71 *212:91 21.45 
8 *212:91 *2801:A2 20.09 
9 *212:91 *2721:B1 1.6 
10 *212:71 *2744:C 5.745 
11 *212:67 *212:142 14.83 
12 *212:142 *2798:A2 9.185 
13 *212:142 *2747:A2 1.6 
14 *212:65 *2795:C 1.6 
15 *212:20 *2786:B 6.84 
*END

*D_NET *213 0.00238192
*CONN
*I *2722:C1 I *D sky130_fd_sc_hd__a221o_1
*I *2721:X O *D sky130_fd_sc_hd__a22o_1
*CAP
1 *2722:C1 0.000647166
2 *2721:X 0.000647166
3 *2722:C1 *2590:A1 0
4 *2722:C1 *2722:A1 0.000109553
5 *2722:C1 *2722:B2 7.73266e-05
6 *2722:C1 *2729:A1 5.41043e-05
7 *2722:C1 *2729:A2 4.82919e-05
8 *2722:B1 *2722:C1 0.000228871
9 *2801:A2 *2722:C1 0.000400776
10 *202:115 *2722:C1 0.00016866
*RES
1 *2721:X *2722:C1 19.35 
*END

*D_NET *214 0.000817141
*CONN
*I *2729:A1 I *D sky130_fd_sc_hd__o21a_1
*I *2722:X O *D sky130_fd_sc_hd__a221o_1
*CAP
1 *2729:A1 0.000135786
2 *2722:X 0.000135786
3 *2729:A1 *2590:A1 7.79002e-05
4 *2729:A1 *2591:A 4.82919e-05
5 *2729:A1 *2729:A2 2.47081e-05
6 *2729:A1 *544:22 0.00030358
7 *2722:A2 *2729:A1 2.49909e-05
8 *2722:B1 *2729:A1 1.19928e-05
9 *2722:C1 *2729:A1 5.41043e-05
*RES
1 *2722:X *2729:A1 7.115 
*END

*D_NET *215 0.0357783
*CONN
*I *2785:C I *D sky130_fd_sc_hd__and3_1
*I *2754:C I *D sky130_fd_sc_hd__and3_1
*I *2759:B I *D sky130_fd_sc_hd__and3_1
*I *2811:B1 I *D sky130_fd_sc_hd__a22o_1
*I *2806:A2 I *D sky130_fd_sc_hd__a22o_1
*I *2724:A2 I *D sky130_fd_sc_hd__a22o_1
*I *2792:B1 I *D sky130_fd_sc_hd__a22o_1
*I *2741:A2 I *D sky130_fd_sc_hd__a22o_1
*I *2723:X O *D sky130_fd_sc_hd__and4b_4
*CAP
1 *2785:C 1.45965e-05
2 *2754:C 1.35516e-05
3 *2759:B 0
4 *2811:B1 0.000243514
5 *2806:A2 0.000205866
6 *2724:A2 0.000113705
7 *2792:B1 0.00011789
8 *2741:A2 9.41809e-05
9 *2723:X 4.61039e-05
10 *215:130 0.000335213
11 *215:108 0.00265409
12 *215:86 0.00408506
13 *215:72 0.00200556
14 *215:68 0.00150896
15 *215:38 0.000718404
16 *215:24 0.00346738
17 *215:8 0.00416836
18 *2724:A2 *2614:A 4.99619e-05
19 *2724:A2 *591:10 0
20 *2741:A2 *2743:B1 1.60203e-05
21 *2741:A2 *2794:B1 8.40269e-05
22 *2741:A2 *853:10 0
23 *2754:C *2754:A 1.70906e-05
24 *2785:C *430:30 9.16333e-06
25 *2806:A2 *535:14 0.000270598
26 *2811:B1 *3381:A 8.53113e-06
27 *2811:B1 *231:98 2.05583e-05
28 *2811:B1 *231:116 0.00017734
29 *2811:B1 *715:58 0.000200055
30 *2811:B1 *737:36 0.000260551
31 *215:8 *607:22 4.66108e-05
32 *215:8 *801:93 9.53428e-06
33 *215:24 *2680:C 0.00061563
34 *215:24 *2688:A 8.25258e-05
35 *215:24 *2993:A0 8.49205e-05
36 *215:24 *3015:A0 0.000160635
37 *215:24 *3022:A 4.66108e-05
38 *215:24 *3027:A 0.000177333
39 *215:24 *3182:CLK 8.65961e-05
40 *215:24 *3187:CLK 0.000309982
41 *215:24 *391:16 0.000797884
42 *215:24 *391:37 2.92496e-05
43 *215:24 *604:12 7.41429e-05
44 *215:24 *604:14 0.0008119
45 *215:24 *801:93 8.86782e-05
46 *215:38 *2743:A1 0
47 *215:38 *2743:B1 0.000198934
48 *215:38 *2992:A 0
49 *215:38 *3076:A1 0.00015639
50 *215:38 *3183:CLK 0.000106248
51 *215:38 *3438:A 0
52 *215:38 *430:74 0.000107643
53 *215:68 *2753:A 0.000358101
54 *215:68 *2783:C 4.02505e-05
55 *215:68 *2829:A 0.000179032
56 *215:68 *2833:A 4.06525e-05
57 *215:68 *2851:B_N 0
58 *215:68 *2863:B2 0.000159964
59 *215:68 *3066:A0 0.00106758
60 *215:68 *3276:CLK 0.000133255
61 *215:68 *3276:D 1.32843e-05
62 *215:68 *3300:A 0.000112916
63 *215:68 *3315:A 1.19928e-05
64 *215:68 *317:25 0.000147397
65 *215:68 *361:36 0.000103597
66 *215:68 *419:136 0.000112951
67 *215:68 *607:22 2.8185e-05
68 *215:68 *608:10 9.07847e-05
69 *215:68 *608:16 9.86611e-05
70 *215:68 *773:24 0.00010596
71 *215:72 *2783:B 9.29751e-06
72 *215:72 *415:52 0
73 *215:72 *608:16 0.000139629
74 *215:72 *652:23 0.000137578
75 *215:86 *2556:B 4.82098e-05
76 *215:86 *2595:A0 2.86342e-05
77 *215:86 *2629:A 6.75416e-05
78 *215:86 *2632:B 9.47267e-06
79 *215:86 *2763:B2 0.000286369
80 *215:86 *2790:A1 8.35157e-05
81 *215:86 *2897:A 2.51154e-05
82 *215:86 *231:98 3.86676e-05
83 *215:86 *291:24 0.000300333
84 *215:86 *323:26 0.000183295
85 *215:86 *370:8 0.000158536
86 *215:86 *370:16 0.000271712
87 *215:86 *608:16 0.000597465
88 *215:86 *737:36 8.25758e-05
89 *215:108 *2567:A 0.000492358
90 *215:108 *2572:A 0.000247806
91 *215:108 *2590:A0 6.97034e-05
92 *215:108 *2622:B 0.00048422
93 *215:108 *2625:A1 0.000153816
94 *215:108 *2798:B1 1.83311e-05
95 *215:108 *2807:C1 7.17811e-05
96 *215:108 *3296:A 8.65961e-05
97 *215:108 *316:70 0
98 *215:108 *328:71 2.49909e-05
99 *215:108 *358:57 2.24423e-05
100 *215:108 *527:40 0.000212923
101 *215:108 *590:52 8.35368e-05
102 *215:108 *591:10 0
103 *215:108 *598:29 0
104 *215:108 *600:26 9.5296e-05
105 *215:130 *3381:A 0.000104842
106 *215:130 *231:98 8.66122e-05
107 *215:130 *737:36 0.000278143
108 *2754:B *215:72 0.000244511
109 *2785:B *215:68 0.000109016
110 *2785:B *215:72 0.000164686
111 *2792:A2 *2792:B1 6.99805e-05
112 *2792:A2 *215:38 0.000583818
113 *2806:B1 *2806:A2 1.08758e-05
114 *2811:A2 *2811:B1 3.9442e-05
115 *3187:D *215:24 0.000184922
116 *3268:D *215:86 8.35106e-05
117 *176:23 *215:72 0.00019662
118 *180:10 *215:24 3.1562e-06
119 *180:138 *215:24 4.40325e-06
120 *191:35 *215:68 4.2857e-05
121 *202:115 *2724:A2 0.000163019
122 *202:115 *215:108 0.00035659
123 *207:12 *215:24 5.13581e-05
124 *211:14 *215:68 0
125 *211:37 *215:68 0.000328781
126 *211:85 *215:108 0.000437083
*RES
1 *2723:X *215:8 2.665 
2 *215:8 *215:24 48.84 
3 *215:24 *215:38 13.205 
4 *215:38 *2741:A2 3.445 
5 *215:38 *2792:B1 3.97 
6 *215:8 *215:68 32.045 
7 *215:68 *215:72 8.715 
8 *215:72 *215:86 31.0975 
9 *215:86 *215:108 29.4019 
10 *215:108 *2724:A2 5.94 
11 *215:108 *2806:A2 7.845 
12 *215:86 *215:130 3.2925 
13 *215:130 *2811:B1 9.705 
14 *215:130 *2759:B 3.6 
15 *215:72 *2754:C 3.765 
16 *215:68 *2785:C 3.765 
*END

*D_NET *216 0.00179472
*CONN
*I *2728:A I *D sky130_fd_sc_hd__or3_1
*I *2724:X O *D sky130_fd_sc_hd__a22o_1
*CAP
1 *2728:A 0.000305719
2 *2724:X 0.000305719
3 *2728:A *2557:A 0
4 *2728:A *2578:S 1.07797e-05
5 *2728:A *2803:A1 5.53249e-06
6 *2728:A *3334:A 0
7 *2728:A *817:10 7.76237e-05
8 *2725:B1 *2728:A 0.000148977
9 *2803:A2 *2728:A 0.000198939
10 *2803:B1 *2728:A 4.82919e-05
11 *3262:D *2728:A 7.44375e-05
12 *202:115 *2728:A 0.000618705
*RES
1 *2724:X *2728:A 16.53 
*END

*D_NET *217 0.000486636
*CONN
*I *2728:B I *D sky130_fd_sc_hd__or3_1
*I *2725:X O *D sky130_fd_sc_hd__a22o_1
*CAP
1 *2728:B 0.000108959
2 *2725:X 0.000108959
3 *2728:B *553:10 0.000122331
4 *2725:B1 *2728:B 7.4027e-05
5 *2803:A2 *2728:B 7.23602e-05
*RES
1 *2725:X *2728:B 9.21 
*END

*D_NET *218 0.0397726
*CONN
*I *2782:C I *D sky130_fd_sc_hd__and3_1
*I *2752:A3 I *D sky130_fd_sc_hd__a311o_1
*I *2815:B1 I *D sky130_fd_sc_hd__a22o_1
*I *2732:B1 I *D sky130_fd_sc_hd__a221o_1
*I *2742:B1 I *D sky130_fd_sc_hd__a22o_1
*I *2793:B1 I *D sky130_fd_sc_hd__a22o_1
*I *2801:B1 I *D sky130_fd_sc_hd__a22o_1
*I *2727:B1 I *D sky130_fd_sc_hd__a22o_1
*I *2726:X O *D sky130_fd_sc_hd__and4b_4
*CAP
1 *2782:C 4.01252e-05
2 *2752:A3 5.3841e-05
3 *2815:B1 0.000248199
4 *2732:B1 0.000272955
5 *2742:B1 0
6 *2793:B1 5.26535e-05
7 *2801:B1 0.000259039
8 *2727:B1 0.000763414
9 *2726:X 0.000335476
10 *218:126 0.00179387
11 *218:112 0.00136674
12 *218:108 0.00140636
13 *218:80 0.000142945
14 *218:42 0.00392843
15 *218:24 0.00511841
16 *218:12 0.00378367
17 *2727:B1 *2557:B 0.000323539
18 *2727:B1 *2577:A 0.000139238
19 *2727:B1 *2623:A0 9.63404e-05
20 *2727:B1 *2625:A1 2.24169e-05
21 *2727:B1 *2725:B2 9.5433e-05
22 *2727:B1 *2923:B 8.09021e-06
23 *2727:B1 *328:71 0.00103196
24 *2727:B1 *350:120 0.000387146
25 *2727:B1 *358:28 4.65607e-05
26 *2727:B1 *527:50 3.31204e-05
27 *2727:B1 *528:82 0.000107513
28 *2727:B1 *538:22 0.000465461
29 *2732:B1 *2732:B2 9.09788e-06
30 *2732:B1 *896:12 0
31 *2752:A3 *2752:A1 8.13529e-05
32 *2752:A3 *2752:C1 0.0001925
33 *2752:A3 *3370:A 4.66108e-05
34 *2782:C *527:12 1.77285e-05
35 *2793:B1 *2742:A1 0.00019637
36 *2793:B1 *2742:B2 1.61831e-05
37 *2793:B1 *2793:B2 4.92062e-05
38 *2801:B1 *3404:A 5.11067e-05
39 *2801:B1 *358:57 0.000114016
40 *2801:B1 *848:8 0.000263979
41 *2815:B1 *2815:B2 8.23457e-05
42 *2815:B1 *2949:A 2.01737e-05
43 *2815:B1 *693:24 0.000564775
44 *2815:B1 *693:32 4.31915e-05
45 *218:12 *2940:A 0
46 *218:12 *3047:A 0
47 *218:12 *3066:A0 6.12354e-05
48 *218:12 *318:62 0
49 *218:12 *343:10 1.00941e-05
50 *218:12 *399:12 6.63219e-06
51 *218:12 *399:16 5.50733e-05
52 *218:12 *421:12 0.000444385
53 *218:12 *677:20 0
54 *218:24 *3066:A0 0.000328388
55 *218:24 *3085:A 0.000498681
56 *218:24 *235:18 0.000106494
57 *218:24 *399:16 0.000443789
58 *218:24 *399:34 0.000104234
59 *218:24 *590:208 0.000586337
60 *218:24 *590:222 0.00021407
61 *218:42 *2623:A0 8.9257e-05
62 *218:42 *2623:A1 9.83446e-05
63 *218:42 *3070:A 7.81994e-05
64 *218:42 *345:61 0.00207952
65 *218:42 *350:120 0.000233045
66 *218:42 *474:69 3.82728e-05
67 *218:42 *483:18 4.17687e-05
68 *218:42 *532:18 5.77391e-05
69 *218:80 *430:64 5.64057e-05
70 *218:80 *474:69 0.000116853
71 *218:80 *483:18 0.000258775
72 *218:108 *2751:A 8.88799e-05
73 *218:108 *2752:C1 9.50342e-06
74 *218:108 *2761:A 0.000362119
75 *218:108 *2788:D 0.000440041
76 *218:108 *2972:A 0.000102334
77 *218:108 *3122:B 0.000181383
78 *218:108 *231:14 1.7635e-05
79 *218:108 *371:16 0.000210546
80 *218:108 *403:49 1.88889e-05
81 *218:108 *476:12 3.73007e-05
82 *218:108 *476:14 0.000356043
83 *218:108 *527:12 0.000114681
84 *218:108 *619:39 1.14559e-05
85 *218:108 *759:28 0.000134824
86 *218:112 *2782:A 0.000104287
87 *218:112 *411:14 0.000112123
88 *218:126 *2740:A1 0
89 *218:126 *2752:A1 2.90456e-05
90 *218:126 *2762:A 2.4002e-05
91 *218:126 *2763:B2 0.000118081
92 *218:126 *2782:A 3.09233e-05
93 *218:126 *2959:B 0.0013762
94 *218:126 *325:16 5.51727e-05
95 *218:126 *350:48 0
96 *218:126 *411:14 0.000684796
97 *218:126 *532:18 0.000109743
98 *218:126 *605:8 0.000598274
99 *218:126 *605:18 1.15688e-05
100 *218:126 *606:81 0.000963585
101 *218:126 *878:8 0.000116158
102 *218:126 *879:8 5.86565e-05
103 *2708:B *218:108 0.000436267
104 *2709:B1 *218:108 0.000324641
105 *2722:B1 *2801:B1 3.97568e-05
106 *2725:B1 *2727:B1 0
107 *2729:B1 *218:42 2.54345e-05
108 *2753:C *218:108 1.07797e-05
109 *2790:A2 *218:126 6.06097e-05
110 *2793:A2 *2793:B1 1.90662e-05
111 *2803:A2 *2727:B1 9.7872e-05
112 *2807:A2 *2727:B1 9.40696e-05
113 *2815:A2 *2815:B1 1.77945e-05
114 *3172:D *218:126 0.000137571
115 *177:28 *218:126 1.30872e-05
116 *187:98 *218:108 8.0288e-05
117 *202:115 *2801:B1 5.82434e-05
118 *208:106 *218:24 0.001403
119 *211:85 *2727:B1 1.01158e-05
120 *212:20 *218:12 4.07435e-05
121 *212:20 *218:108 0.000269867
122 *212:42 *218:108 7.59909e-05
*RES
1 *2726:X *218:12 10.4686 
2 *218:12 *218:24 19.352 
3 *218:24 *218:42 11.2123 
4 *218:42 *2727:B1 26.7 
5 *218:42 *2801:B1 13.225 
6 *218:24 *218:80 5.165 
7 *218:80 *2793:B1 3.43 
8 *218:80 *2742:B1 1.6 
9 *218:12 *218:108 33.4825 
10 *218:108 *218:112 3.38 
11 *218:112 *218:126 38.8 
12 *218:126 *2732:B1 7.53 
13 *218:126 *2815:B1 9.93 
14 *218:112 *2752:A3 5.43 
15 *218:108 *2782:C 2.11 
*END

*D_NET *219 0.00107635
*CONN
*I *2728:C I *D sky130_fd_sc_hd__or3_1
*I *2727:X O *D sky130_fd_sc_hd__a22o_1
*CAP
1 *2728:C 0.00041722
2 *2727:X 0.00041722
3 *2728:C *2557:B 0
4 *2728:C *2804:B1 0.000193618
5 *2728:C *2923:B 0
6 *2728:C *345:61 0
7 *2803:A2 *2728:C 4.82863e-05
8 *2805:B1 *2728:C 0
*RES
1 *2727:X *2728:C 14.43 
*END

*D_NET *220 0.00483613
*CONN
*I *2729:A2 I *D sky130_fd_sc_hd__o21a_1
*I *2728:X O *D sky130_fd_sc_hd__or3_1
*CAP
1 *2729:A2 0.00080417
2 *2728:X 0.00080417
3 *2729:A2 *2567:A 1.44809e-05
4 *2729:A2 *2578:S 0.000597286
5 *2729:A2 *2580:S 0.000364639
6 *2729:A2 *2590:A0 0.000596023
7 *2729:A2 *2590:A1 0.000126853
8 *2729:A2 *2615:S 0.000468238
9 *2729:A2 *2808:A3 9.57555e-05
10 *2729:A2 *3296:A 0.00010415
11 *2729:A2 *350:120 0.000207345
12 *2729:A2 *544:22 1.17409e-05
13 *2729:A2 *547:14 0.000134776
14 *2722:B1 *2729:A2 0.000164254
15 *2722:C1 *2729:A2 4.82919e-05
16 *2729:A1 *2729:A2 2.47081e-05
17 *2801:A2 *2729:A2 0.000214278
18 *202:115 *2729:A2 5.49709e-05
*RES
1 *2728:X *2729:A2 32.16 
*END

*D_NET *221 0.00743943
*CONN
*I *2730:D1 I *D sky130_fd_sc_hd__a2111o_1
*I *2729:X O *D sky130_fd_sc_hd__o21a_1
*CAP
1 *2730:D1 0.00200479
2 *2729:X 0.00200479
3 *2730:D1 *2582:A 4.66108e-05
4 *2730:D1 *2582:B 0.000307482
5 *2730:D1 *2587:A 0.00010952
6 *2730:D1 *2704:A1 0.000114088
7 *2730:D1 *2748:A2 8.92729e-05
8 *2730:D1 *2748:B1 5.36608e-05
9 *2730:D1 *2763:B1 0
10 *2730:D1 *2777:B1 2.26771e-05
11 *2730:D1 *2799:A2 6.88421e-05
12 *2730:D1 *2800:B1 0
13 *2730:D1 *2800:D1 0.000113373
14 *2730:D1 *3007:A1 2.4997e-05
15 *2730:D1 *3010:S 8.73389e-06
16 *2730:D1 *3109:A0 6.50881e-05
17 *2730:D1 *3110:A 0
18 *2730:D1 *3125:A1 0
19 *2730:D1 *3428:A 0.000371702
20 *2730:D1 *358:114 0
21 *2730:D1 *369:74 0
22 *2730:D1 *395:57 0.000646165
23 *2730:D1 *527:89 0.000110783
24 *2730:D1 *547:14 7.84545e-05
25 *2730:D1 *600:94 0
26 *2730:A1 *2730:D1 2.52029e-05
27 *2730:A2 *2730:D1 4.76218e-05
28 *2730:B1 *2730:D1 4.76218e-05
29 *2730:C1 *2730:D1 4.77719e-05
30 *2748:A1 *2730:D1 0.000944989
31 *193:26 *2730:D1 8.51879e-05
32 *207:86 *2730:D1 0
*RES
1 *2729:X *2730:D1 46.675 
*END

*D_NET *222 0.0158933
*CONN
*I *2763:B1 I *D sky130_fd_sc_hd__o221a_1
*I *2730:X O *D sky130_fd_sc_hd__a2111o_1
*CAP
1 *2763:B1 0.00386955
2 *2730:X 0.00386955
3 *2763:B1 *2763:A1 0
4 *2763:B1 *2763:B2 0.000103621
5 *2763:B1 *2770:C1 0.000102729
6 *2763:B1 *2777:B1 2.11665e-05
7 *2763:B1 *316:36 2.2071e-05
8 *2763:B1 *323:26 0.000133176
9 *2763:B1 *328:149 4.01548e-05
10 *2763:B1 *356:14 0.00013687
11 *2763:B1 *358:114 1.79483e-05
12 *2763:B1 *376:84 0.000117466
13 *2763:B1 *403:49 0.000432143
14 *2763:B1 *403:53 0.00193688
15 *2763:B1 *407:20 0.00214787
16 *2763:B1 *590:18 0.00160631
17 *2763:B1 *590:24 1.97172e-05
18 *2763:B1 *590:86 8.78547e-05
19 *2763:B1 *590:157 0.000741211
20 *2763:B1 *737:24 0
21 *2730:D1 *2763:B1 0
22 *2770:A2 *2763:B1 0.000381695
23 *193:60 *2763:B1 0.000105322
24 *202:52 *2763:B1 0
25 *211:47 *2763:B1 0
26 *211:71 *2763:B1 0
27 *211:85 *2763:B1 0
*RES
1 *2730:X *2763:B1 23.3413 
*END

*D_NET *223 0.00234747
*CONN
*I *2732:C1 I *D sky130_fd_sc_hd__a221o_1
*I *2731:X O *D sky130_fd_sc_hd__a22o_1
*CAP
1 *2732:C1 0.000377985
2 *2731:X 0.000377985
3 *2732:C1 *2732:A1 8.67626e-05
4 *2732:C1 *2732:A2 0.000354164
5 *2732:C1 *2878:A0 8.40269e-05
6 *2732:C1 *2878:A1 1.47256e-05
7 *2732:C1 *2878:S 2.75229e-05
8 *2732:C1 *3352:A 0.000248997
9 *2732:C1 *356:14 0.000282286
10 *2732:C1 *416:12 0.000281659
11 *2732:C1 *693:24 8.35157e-05
12 *2732:C1 *889:14 0.000127845
*RES
1 *2731:X *2732:C1 18.5138 
*END

*D_NET *224 0.0013816
*CONN
*I *2740:A1 I *D sky130_fd_sc_hd__o31a_1
*I *2732:X O *D sky130_fd_sc_hd__a221o_1
*CAP
1 *2740:A1 0.000563947
2 *2732:X 0.000563947
3 *2740:A1 *2740:A2 9.54399e-05
4 *2740:A1 *2740:A3 5.53249e-06
5 *2740:A1 *2900:A1 0
6 *2740:A1 *2948:S 1.65105e-05
7 *2740:A1 *374:18 0
8 *2740:A1 *605:18 0
9 *2740:A1 *896:12 0.00013622
10 *218:126 *2740:A1 0
*RES
1 *2732:X *2740:A1 16.095 
*END

*D_NET *225 0.000990584
*CONN
*I *2734:B1 I *D sky130_fd_sc_hd__a21o_1
*I *2733:X O *D sky130_fd_sc_hd__a22o_1
*CAP
1 *2734:B1 0.000228542
2 *2733:X 0.000228542
3 *2734:B1 *2733:A1 0.000159741
4 *2734:B1 *2734:A1 0.00016635
5 *2734:B1 *388:8 0.000115511
6 *2733:A2 *2734:B1 9.18988e-05
*RES
1 *2733:X *2734:B1 12.36 
*END

*D_NET *226 0.00287246
*CONN
*I *2740:A2 I *D sky130_fd_sc_hd__o31a_1
*I *2734:X O *D sky130_fd_sc_hd__a21o_1
*CAP
1 *2740:A2 0.000604975
2 *2734:X 0.000604975
3 *2740:A2 *2813:B1 0.000121659
4 *2740:A2 *2948:S 3.67779e-05
5 *2740:A2 *2949:A 0.000153681
6 *2740:A2 *2950:S 0.000219796
7 *2740:A2 *3150:CLK 7.67405e-05
8 *2740:A2 *374:18 0
9 *2740:A2 *605:18 0.00043306
10 *2740:A2 *605:29 0.000153053
11 *2740:A2 *693:32 0.0002575
12 *2740:A1 *2740:A2 9.54399e-05
13 *2815:A2 *2740:A2 0.000114807
*RES
1 *2734:X *2740:A2 24.52 
*END

*D_NET *227 0.00247907
*CONN
*I *2738:A I *D sky130_fd_sc_hd__or3_1
*I *2735:X O *D sky130_fd_sc_hd__a22o_1
*CAP
1 *2738:A 0.000701589
2 *2735:X 0.000701589
3 *2738:A *2736:A1 7.32791e-05
4 *2738:A *2738:B 4.66108e-05
5 *2738:A *2893:A 2.0514e-05
6 *2738:A *3392:A 2.91987e-05
7 *2736:B1 *2738:A 0.000906292
*RES
1 *2735:X *2738:A 15.395 
*END

*D_NET *228 0.000120528
*CONN
*I *2738:B I *D sky130_fd_sc_hd__or3_1
*I *2736:X O *D sky130_fd_sc_hd__a22o_1
*CAP
1 *2738:B 3.69588e-05
2 *2736:X 3.69588e-05
3 *2738:A *2738:B 4.66108e-05
*RES
1 *2736:X *2738:B 3.65 
*END

*D_NET *229 0.00092803
*CONN
*I *2738:C I *D sky130_fd_sc_hd__or3_1
*I *2737:X O *D sky130_fd_sc_hd__a22o_1
*CAP
1 *2738:C 0.000181846
2 *2737:X 0.000181846
3 *2738:C *2737:A1 8.65905e-05
4 *2738:C *374:18 0.000157595
5 *2738:C *374:76 0.000157595
6 *187:98 *2738:C 0.000162558
*RES
1 *2737:X *2738:C 11.67 
*END

*D_NET *230 0.000720108
*CONN
*I *2740:A3 I *D sky130_fd_sc_hd__o31a_1
*I *2738:X O *D sky130_fd_sc_hd__or3_1
*CAP
1 *2740:A3 0.000160992
2 *2738:X 0.000160992
3 *2740:A3 *2740:B1 0.000286635
4 *2740:A3 *2762:A 9.03121e-05
5 *2740:A3 *2817:B1 1.56428e-05
6 *2740:A3 *605:8 0
7 *2740:A1 *2740:A3 5.53249e-06
*RES
1 *2738:X *2740:A3 11.07 
*END

*D_NET *231 0.0192586
*CONN
*I *2759:C I *D sky130_fd_sc_hd__and3_1
*I *2817:B1 I *D sky130_fd_sc_hd__o21a_1
*I *2740:B1 I *D sky130_fd_sc_hd__o31a_1
*I *2796:A3 I *D sky130_fd_sc_hd__a31o_1
*I *2745:A3 I *D sky130_fd_sc_hd__a31o_1
*I *2798:A3 I *D sky130_fd_sc_hd__a32o_1
*I *2747:A3 I *D sky130_fd_sc_hd__a32o_1
*I *2739:X O *D sky130_fd_sc_hd__and2_2
*CAP
1 *2759:C 5.60092e-05
2 *2817:B1 0.000444077
3 *2740:B1 0.00014233
4 *2796:A3 0
5 *2745:A3 1.7144e-05
6 *2798:A3 0.000164188
7 *2747:A3 3.39532e-05
8 *2739:X 0.00102451
9 *231:116 0.00127926
10 *231:98 0.00158998
11 *231:44 0.000340533
12 *231:38 0.000509524
13 *231:26 0.00162339
14 *231:14 0.00313903
15 *2740:B1 *2762:A 0
16 *2745:A3 *2745:B1 3.13354e-05
17 *2747:A3 *2748:C1 1.81105e-05
18 *2759:C *2759:A 3.61065e-05
19 *2759:C *2760:C1 1.33235e-05
20 *2759:C *3381:A 3.64998e-06
21 *2759:C *359:12 3.81758e-05
22 *2798:A3 *2798:A1 4.60814e-05
23 *2798:A3 *2799:C1 0.000125244
24 *2798:A3 *2916:A 0.000106377
25 *2798:A3 *316:60 5.06382e-06
26 *2798:A3 *600:66 3.59531e-06
27 *2798:A3 *600:81 9.38986e-05
28 *2817:B1 *2736:A1 0.000270415
29 *2817:B1 *2819:A3 8.64421e-05
30 *231:14 *2555:A 0.000192497
31 *231:14 *2751:A 6.16148e-05
32 *231:14 *2783:D 0.000749401
33 *231:14 *350:62 0
34 *231:14 *361:54 0
35 *231:14 *527:12 0.000714542
36 *231:14 *652:23 4.10688e-05
37 *231:14 *774:92 0.000307043
38 *231:26 *2795:A 1.05984e-05
39 *231:26 *2796:A1 2.20014e-05
40 *231:26 *2796:B1 4.89295e-05
41 *231:26 *369:74 0.0001495
42 *231:26 *371:57 1.09082e-05
43 *231:26 *380:38 8.52845e-05
44 *231:38 *2745:A1 8.01442e-05
45 *231:38 *2745:B1 8.90199e-05
46 *231:38 *2799:C1 0
47 *231:38 *3375:A 5.6458e-05
48 *231:44 *2748:B1 0.000156773
49 *231:44 *2748:C1 0.000151817
50 *231:44 *2799:C1 1.3245e-05
51 *231:44 *600:81 8.89966e-05
52 *231:98 *2595:A1 0.000247054
53 *231:98 *2756:A 0.000116322
54 *231:98 *3233:CLK 1.92979e-05
55 *231:98 *3379:A 1.73877e-05
56 *231:98 *3381:A 0.000113373
57 *231:98 *715:58 0.000556712
58 *231:98 *737:36 4.51332e-05
59 *231:98 *929:12 3.47086e-05
60 *231:116 *2760:A1 0.000272462
61 *231:116 *2762:A 0
62 *231:116 *2812:A1 5.02217e-05
63 *231:116 *2819:A1 0.000124895
64 *231:116 *2942:S 5.16348e-05
65 *231:116 *2943:A 7.23533e-05
66 *231:116 *2945:A 0.000146319
67 *231:116 *299:32 0.000268227
68 *231:116 *372:14 0.000487991
69 *231:116 *511:24 0.00026784
70 *231:116 *715:58 9.02804e-05
71 *231:116 *759:34 0
72 *2740:A3 *2740:B1 0.000286635
73 *2740:A3 *2817:B1 1.56428e-05
74 *2745:A2 *2745:A3 5.40592e-05
75 *2745:A2 *231:44 0.000209591
76 *2757:A3 *231:98 2.25172e-05
77 *2782:B *231:14 4.82863e-05
78 *2796:A2 *231:26 2.55029e-05
79 *2796:A2 *231:38 8.60799e-05
80 *2798:A2 *2747:A3 5.71639e-05
81 *2798:A2 *2798:A3 9.387e-06
82 *2811:B1 *231:98 2.05583e-05
83 *2811:B1 *231:116 0.00017734
84 *3154:D *231:38 4.46271e-05
85 *3154:D *231:44 8.52845e-05
86 *3155:D *231:26 1.7635e-05
87 *3167:D *231:116 2.16389e-05
88 *3233:D *231:98 2.28346e-05
89 *3295:A *231:26 0
90 *187:98 *2740:B1 0.00018943
91 *187:98 *231:14 1.7635e-05
92 *187:98 *231:116 8.60335e-05
93 *202:14 *231:98 0
94 *207:90 *231:44 2.85623e-05
95 *212:42 *231:14 0.000122331
96 *212:65 *231:98 6.02202e-05
97 *212:142 *2747:A3 1.20802e-05
98 *212:142 *231:38 0.000140779
99 *215:86 *231:98 3.86676e-05
100 *215:130 *231:98 8.66122e-05
101 *218:108 *231:14 1.7635e-05
*RES
1 *2739:X *231:14 18.2893 
2 *231:14 *231:26 6.7131 
3 *231:26 *231:38 11.32 
4 *231:38 *231:44 6.92 
5 *231:44 *2747:A3 4.66125 
6 *231:44 *2798:A3 6.99 
7 *231:38 *2745:A3 2.41 
8 *231:26 *2796:A3 1.6 
9 *231:14 *231:98 18.5075 
10 *231:98 *231:116 25.28 
11 *231:116 *2740:B1 7.785 
12 *231:116 *2817:B1 11.43 
13 *231:98 *2759:C 4.92 
*END

*D_NET *232 0.00445432
*CONN
*I *2762:A I *D sky130_fd_sc_hd__or4_1
*I *2740:X O *D sky130_fd_sc_hd__o31a_1
*CAP
1 *2762:A 0.000886832
2 *2740:X 0.000886832
3 *2762:A *2737:A1 4.99619e-05
4 *2762:A *2760:B1 0.00017734
5 *2762:A *2762:C 0.000121032
6 *2762:A *2763:B2 4.66108e-05
7 *2762:A *2790:B1 0.000281025
8 *2762:A *2812:A1 0.00013532
9 *2762:A *2881:A 0.00105907
10 *2762:A *2944:A0 2.53847e-05
11 *2762:A *2959:B 0
12 *2762:A *411:14 0.000113781
13 *2762:A *590:86 0.000321101
14 *2762:A *590:92 0.000116158
15 *2740:A3 *2762:A 9.03121e-05
16 *2740:B1 *2762:A 0
17 *2790:A2 *2762:A 0.000111139
18 *2790:A3 *2762:A 8.41703e-06
19 *174:43 *2762:A 0
20 *187:98 *2762:A 0
21 *218:126 *2762:A 2.4002e-05
22 *231:116 *2762:A 0
*RES
1 *2740:X *2762:A 30.57 
*END

*D_NET *233 0.00188373
*CONN
*I *2743:B1 I *D sky130_fd_sc_hd__a211o_1
*I *2741:X O *D sky130_fd_sc_hd__a22o_1
*CAP
1 *2743:B1 0.000427575
2 *2741:X 0.000427575
3 *2743:B1 *2743:A1 1.85674e-05
4 *2743:B1 *2794:B1 4.82919e-05
5 *2743:B1 *3076:A0 0.000134938
6 *2743:B1 *3076:A1 0.000106724
7 *2743:B1 *3077:A 0.000122331
8 *2743:B1 *3078:S 0.000245199
9 *2741:A2 *2743:B1 1.60203e-05
10 *3214:D *2743:B1 0.000137571
11 *215:38 *2743:B1 0.000198934
*RES
1 *2741:X *2743:B1 16.215 
*END

*D_NET *234 0.000291153
*CONN
*I *2743:C1 I *D sky130_fd_sc_hd__a211o_1
*I *2742:X O *D sky130_fd_sc_hd__a22o_1
*CAP
1 *2743:C1 4.69506e-05
2 *2742:X 4.69506e-05
3 *2743:C1 *285:16 5.63405e-05
4 *2743:C1 *430:64 0.000140912
*RES
1 *2742:X *2743:C1 8.835 
*END

*D_NET *235 0.00758932
*CONN
*I *2748:A2 I *D sky130_fd_sc_hd__a211o_1
*I *2743:X O *D sky130_fd_sc_hd__a211o_1
*CAP
1 *2748:A2 7.48489e-05
2 *2743:X 0.00174071
3 *235:18 0.00181555
4 *235:18 *2587:A 0.000141606
5 *235:18 *2706:A 0.000325912
6 *235:18 *2768:A 7.55313e-05
7 *235:18 *2774:A1 0.000553868
8 *235:18 *2774:B1 5.80021e-05
9 *235:18 *2777:B1 0.000123927
10 *235:18 *2804:A2 0
11 *235:18 *3010:A1 4.79946e-05
12 *235:18 *3075:A 0.000574273
13 *235:18 *3108:A 0.000282989
14 *235:18 *3226:CLK 1.55955e-05
15 *235:18 *285:16 0.000101273
16 *235:18 *350:93 0
17 *235:18 *399:34 0.00078055
18 *235:18 *445:89 0
19 *235:18 *603:39 6.8236e-05
20 *2718:B1 *235:18 9.92994e-05
21 *2730:D1 *2748:A2 8.92729e-05
22 *3227:D *235:18 0
23 *181:34 *235:18 0.000118313
24 *181:56 *235:18 0.000324389
25 *208:118 *235:18 7.06865e-05
26 *218:24 *235:18 0.000106494
*RES
1 *2743:X *235:18 49.26 
2 *235:18 *2748:A2 3.085 
*END

*D_NET *236 0.00138865
*CONN
*I *2745:B1 I *D sky130_fd_sc_hd__a31o_1
*I *2744:X O *D sky130_fd_sc_hd__and3_1
*CAP
1 *2745:B1 0.000343866
2 *2744:X 0.000343866
3 *2745:B1 *2582:A 2.88357e-05
4 *2745:B1 *2745:A1 9.05535e-05
5 *2745:B1 *2748:C1 8.33066e-06
6 *2745:B1 *2799:C1 0.000183396
7 *2744:B *2745:B1 4.82863e-05
8 *2745:A3 *2745:B1 3.13354e-05
9 *3154:D *2745:B1 0.000146781
10 *207:90 *2745:B1 7.43763e-05
11 *231:38 *2745:B1 8.90199e-05
*RES
1 *2744:X *2745:B1 17.905 
*END

*D_NET *237 0.0010771
*CONN
*I *2748:B1 I *D sky130_fd_sc_hd__a211o_1
*I *2745:X O *D sky130_fd_sc_hd__a31o_1
*CAP
1 *2748:B1 0.000308855
2 *2745:X 0.000308855
3 *2748:B1 *395:57 3.29196e-05
4 *2748:B1 *600:81 4.41607e-05
5 *2730:D1 *2748:B1 5.36608e-05
6 *2745:A2 *2748:B1 1.33285e-05
7 *207:98 *2748:B1 0.000158552
8 *231:44 *2748:B1 0.000156773
*RES
1 *2745:X *2748:B1 11.79 
*END

*D_NET *238 0.00202151
*CONN
*I *2747:B1 I *D sky130_fd_sc_hd__a32o_1
*I *2746:X O *D sky130_fd_sc_hd__a22o_1
*CAP
1 *2747:B1 0.000804875
2 *2746:X 0.000804875
3 *2747:B1 *2747:A1 0.0001248
4 *2747:B1 *2915:A0 0
5 *2747:B1 *2916:A 0.00010227
6 *2747:B1 *3163:CLK 0
7 *2747:B1 *528:62 0
8 *2747:B1 *528:66 0
9 *2747:B1 *600:12 0
10 *2747:B1 *600:66 0
11 *2747:B2 *2747:B1 4.77719e-05
12 *174:83 *2747:B1 7.32625e-05
13 *174:104 *2747:B1 6.00623e-05
14 *181:56 *2747:B1 3.59531e-06
15 *183:75 *2747:B1 0
*RES
1 *2746:X *2747:B1 20.1825 
*END

*D_NET *239 0.00117164
*CONN
*I *2748:C1 I *D sky130_fd_sc_hd__a211o_1
*I *2747:X O *D sky130_fd_sc_hd__a32o_1
*CAP
1 *2748:C1 0.000371876
2 *2747:X 0.000371876
3 *2748:C1 *2799:C1 0.00011583
4 *2748:C1 *3154:CLK 2.69153e-05
5 *2745:B1 *2748:C1 8.33066e-06
6 *2747:A3 *2748:C1 1.81105e-05
7 *2748:A1 *2748:C1 4.00541e-06
8 *2798:A2 *2748:C1 9.84609e-06
9 *3154:D *2748:C1 5.14473e-05
10 *207:90 *2748:C1 4.1588e-05
11 *231:44 *2748:C1 0.000151817
*RES
1 *2747:X *2748:C1 13.35 
*END

*D_NET *240 0.00652502
*CONN
*I *2762:B I *D sky130_fd_sc_hd__or4_1
*I *2748:X O *D sky130_fd_sc_hd__a211o_1
*CAP
1 *2762:B 0.00256371
2 *2748:X 0.00256371
3 *2762:B *361:54 6.41438e-05
4 *2762:B *527:12 0.000101804
5 *2762:B *527:89 0
6 *2762:B *532:18 0.000963395
7 *181:56 *2762:B 0.000166454
8 *187:98 *2762:B 0.000101804
*RES
1 *2748:X *2762:B 16.1111 
*END

*D_NET *241 0.00344569
*CONN
*I *2750:B1 I *D sky130_fd_sc_hd__a31o_1
*I *2749:X O *D sky130_fd_sc_hd__and3_1
*CAP
1 *2750:B1 0.000721828
2 *2749:X 0.000721828
3 *2750:B1 *2752:C1 4.77719e-05
4 *2750:B1 *2788:B 0.000202101
5 *2750:B1 *2791:B 0
6 *2750:B1 *2791:D 0.000591532
7 *2750:B1 *2834:B 0
8 *2750:B1 *2989:A 8.7277e-05
9 *2750:B1 *3408:A 0.000235851
10 *2750:B1 *361:36 0
11 *2750:B1 *361:54 0.000171028
12 *2750:B1 *419:61 0.00029712
13 *2750:B1 *619:39 0.000306449
14 *2752:A2 *2750:B1 2.56752e-06
15 *3238:D *2750:B1 1.4399e-05
16 *174:14 *2750:B1 4.59354e-05
*RES
1 *2749:X *2750:B1 28.57 
*END

*D_NET *242 0.0012124
*CONN
*I *2752:B1 I *D sky130_fd_sc_hd__a311o_1
*I *2750:X O *D sky130_fd_sc_hd__a31o_1
*CAP
1 *2752:B1 0.00034806
2 *2750:X 0.00034806
3 *2752:B1 *2791:D 0.000133236
4 *2752:B1 *619:39 0.000379447
5 *2752:A2 *2752:B1 3.60024e-06
*RES
1 *2750:X *2752:B1 12.39 
*END

*D_NET *243 0.00168954
*CONN
*I *2752:C1 I *D sky130_fd_sc_hd__a311o_1
*I *2751:X O *D sky130_fd_sc_hd__and3_1
*CAP
1 *2752:C1 0.000289812
2 *2751:X 0.000289812
3 *2752:C1 *2752:A1 5.7523e-05
4 *2752:C1 *2998:A0 0.000124007
5 *2752:C1 *3370:A 1.91597e-05
6 *2752:C1 *361:36 0
7 *2752:C1 *527:12 4.39079e-05
8 *2750:B1 *2752:C1 4.77719e-05
9 *2752:A2 *2752:C1 0.000327759
10 *2752:A3 *2752:C1 0.0001925
11 *177:24 *2752:C1 0.0001947
12 *187:98 *2752:C1 9.30787e-05
13 *218:108 *2752:C1 9.50342e-06
*RES
1 *2751:X *2752:C1 15 
*END

*D_NET *244 0.00192532
*CONN
*I *2762:C I *D sky130_fd_sc_hd__or4_1
*I *2752:X O *D sky130_fd_sc_hd__a311o_1
*CAP
1 *2762:C 0.000257789
2 *2752:X 0.000257789
3 *2762:C *2761:B 0.000339646
4 *2762:C *2763:B2 0.000105339
5 *2762:C *350:50 0.000259827
6 *2762:C *355:38 0.00040376
7 *2762:C *411:14 1.07416e-05
8 *2762:C *532:18 1.7635e-05
9 *2762:C *606:102 0.000151756
10 *2762:A *2762:C 0.000121032
*RES
1 *2752:X *2762:C 15.87 
*END

*D_NET *245 0.00463116
*CONN
*I *2761:A I *D sky130_fd_sc_hd__or4_1
*I *2753:X O *D sky130_fd_sc_hd__and3_1
*CAP
1 *2761:A 0.000905626
2 *2753:X 0.000905626
3 *2761:A *2553:A0 9.23485e-05
4 *2761:A *2761:B 2.49909e-05
5 *2761:A *2997:A 0.000297792
6 *2761:A *476:31 6.71882e-05
7 *2761:A *759:28 0.00149577
8 *187:98 *2761:A 0.000479699
9 *218:108 *2761:A 0.000362119
*RES
1 *2753:X *2761:A 29.16 
*END

*D_NET *246 0.00078349
*CONN
*I *2755:B1 I *D sky130_fd_sc_hd__a31o_1
*I *2754:X O *D sky130_fd_sc_hd__and3_1
*CAP
1 *2755:B1 0.000123063
2 *2754:X 0.000123063
3 *2755:B1 *2779:A 0.000221721
4 *2755:B1 *2978:B 6.35828e-05
5 *2755:B1 *419:61 0.000118081
6 *2682:A *2755:B1 5.16348e-05
7 *174:14 *2755:B1 8.23457e-05
*RES
1 *2754:X *2755:B1 10.995 
*END

*D_NET *247 0.00375132
*CONN
*I *2761:B I *D sky130_fd_sc_hd__or4_1
*I *2755:X O *D sky130_fd_sc_hd__a31o_1
*CAP
1 *2761:B 0.00106817
2 *2755:X 0.00106817
3 *2761:B *2762:D 1.56428e-05
4 *2761:B *2763:B2 5.26385e-05
5 *2761:B *2791:D 0.00032444
6 *2761:B *350:48 8.23457e-05
7 *2761:B *355:38 0.000119242
8 *2761:B *419:61 2.56752e-06
9 *2755:A2 *2761:B 0.000653463
10 *2761:A *2761:B 2.49909e-05
11 *2762:C *2761:B 0.000339646
*RES
1 *2755:X *2761:B 24.075 
*END

*D_NET *248 0.00154594
*CONN
*I *2757:B1 I *D sky130_fd_sc_hd__a31o_1
*I *2756:X O *D sky130_fd_sc_hd__and3_1
*CAP
1 *2757:B1 0.000386302
2 *2756:X 0.000386302
3 *2757:B1 *2593:A0 7.1624e-05
4 *2757:B1 *2918:C 3.41864e-05
5 *2757:B1 *316:46 8.92729e-05
6 *2757:B1 *384:43 0.000170081
7 *174:69 *2757:B1 0.000152071
8 *202:14 *2757:B1 0.000256095
*RES
1 *2756:X *2757:B1 16.185 
*END

*D_NET *249 0.00205573
*CONN
*I *2761:C I *D sky130_fd_sc_hd__or4_1
*I *2757:X O *D sky130_fd_sc_hd__a31o_1
*CAP
1 *2761:C 0.000516643
2 *2757:X 0.000516643
3 *2761:C *2998:A1 1.19928e-05
4 *2761:C *2999:A 5.10667e-05
5 *2761:C *3185:CLK 3.37941e-05
6 *2761:C *3379:A 0.000158066
7 *2761:C *759:28 0.000252372
8 *3184:D *2761:C 0.000175528
9 *3185:D *2761:C 7.95007e-05
10 *212:42 *2761:C 0.00026012
*RES
1 *2757:X *2761:C 18.195 
*END

*D_NET *250 0.00280047
*CONN
*I *2790:B1 I *D sky130_fd_sc_hd__a31o_1
*I *2760:B1 I *D sky130_fd_sc_hd__a311o_1
*I *2758:X O *D sky130_fd_sc_hd__and2_1
*CAP
1 *2790:B1 0.000169117
2 *2760:B1 0.00045075
3 *2758:X 0.000145617
4 *250:8 0.000765485
5 *2760:B1 *2760:C1 3.07961e-05
6 *2760:B1 *2761:D 4.89295e-05
7 *2760:B1 *359:8 8.65961e-05
8 *2760:B1 *359:12 3.27343e-05
9 *250:8 *322:16 2.20732e-05
10 *2760:A3 *2760:B1 0
11 *2762:A *2760:B1 0.00017734
12 *2762:A *2790:B1 0.000281025
13 *174:35 *250:8 7.10578e-05
14 *174:43 *2760:B1 0.000434815
15 *174:61 *2760:B1 8.41307e-05
16 *187:98 *2760:B1 0
17 *187:98 *2790:B1 0
*RES
1 *2758:X *250:8 5.43 
2 *250:8 *2760:B1 12.69 
3 *250:8 *2790:B1 7.02 
*END

*D_NET *251 0.000155663
*CONN
*I *2760:C1 I *D sky130_fd_sc_hd__a311o_1
*I *2759:X O *D sky130_fd_sc_hd__and3_1
*CAP
1 *2760:C1 4.07526e-05
2 *2759:X 4.07526e-05
3 *2760:C1 *2759:A 0
4 *2760:C1 *359:12 3.00381e-05
5 *2759:C *2760:C1 1.33235e-05
6 *2760:B1 *2760:C1 3.07961e-05
*RES
1 *2759:X *2760:C1 4.265 
*END

*D_NET *252 0.00138816
*CONN
*I *2761:D I *D sky130_fd_sc_hd__or4_1
*I *2760:X O *D sky130_fd_sc_hd__a311o_1
*CAP
1 *2761:D 0.000381705
2 *2760:X 0.000381705
3 *2761:D *2819:A1 0.000129466
4 *2761:D *370:33 0
5 *2761:D *372:14 7.23602e-05
6 *2761:D *759:28 0.00028349
7 *2760:B1 *2761:D 4.89295e-05
8 *3184:D *2761:D 9.0501e-05
*RES
1 *2760:X *2761:D 15.345 
*END

*D_NET *253 0.000125174
*CONN
*I *2762:D I *D sky130_fd_sc_hd__or4_1
*I *2761:X O *D sky130_fd_sc_hd__or4_1
*CAP
1 *2762:D 5.47658e-05
2 *2761:X 5.47658e-05
3 *2762:D *2763:B2 0
4 *2761:B *2762:D 1.56428e-05
*RES
1 *2761:X *2762:D 4.01 
*END

*D_NET *254 0.00415676
*CONN
*I *2763:B2 I *D sky130_fd_sc_hd__o221a_1
*I *2762:X O *D sky130_fd_sc_hd__or4_1
*CAP
1 *2763:B2 0.00106765
2 *2762:X 0.00106765
3 *2763:B2 *2595:A0 5.55393e-05
4 *2763:B2 *2628:A0 1.7635e-05
5 *2763:B2 *2790:A1 0.000155489
6 *2763:B2 *2791:D 0.000156771
7 *2763:B2 *3269:CLK 0.000303278
8 *2763:B2 *328:149 8.56758e-05
9 *2763:B2 *350:48 5.68523e-06
10 *2763:B2 *608:16 0.000177751
11 *2761:B *2763:B2 5.26385e-05
12 *2762:A *2763:B2 4.66108e-05
13 *2762:C *2763:B2 0.000105339
14 *2762:D *2763:B2 0
15 *2763:B1 *2763:B2 0.000103621
16 *3269:D *2763:B2 0.000192673
17 *211:47 *2763:B2 1.44259e-05
18 *211:71 *2763:B2 0.000143876
19 *215:86 *2763:B2 0.000286369
20 *218:126 *2763:B2 0.000118081
*RES
1 *2762:X *2763:B2 23.8403 
*END

*D_NET *255 0.000958698
*CONN
*I *2767:B1 I *D sky130_fd_sc_hd__a211o_1
*I *2764:X O *D sky130_fd_sc_hd__a22o_1
*CAP
1 *2767:B1 0.000286332
2 *2764:X 0.000286332
3 *2767:B1 *2698:A1 2.68464e-05
4 *2767:B1 *2767:C1 3.26889e-05
5 *2698:A2 *2767:B1 7.27003e-05
6 *2698:C1 *2767:B1 0.000196364
7 *182:31 *2767:B1 1.93939e-05
8 *183:22 *2767:B1 3.80394e-05
*RES
1 *2764:X *2767:B1 8.405 
*END

*D_NET *256 0.0012864
*CONN
*I *2766:C1 I *D sky130_fd_sc_hd__a221o_1
*I *2765:X O *D sky130_fd_sc_hd__a22o_1
*CAP
1 *2766:C1 0.000415316
2 *2765:X 0.000415316
3 *2766:C1 *2697:B2 0.00013475
4 *2766:C1 *3043:A0 5.51172e-05
5 *2766:C1 *3046:A 5.74817e-06
6 *2766:C1 *3055:A0 0.000228863
7 *2766:C1 *595:82 3.12855e-05
*RES
1 *2765:X *2766:C1 13.08 
*END

*D_NET *257 0.00279205
*CONN
*I *2767:C1 I *D sky130_fd_sc_hd__a211o_1
*I *2766:X O *D sky130_fd_sc_hd__a221o_1
*CAP
1 *2767:C1 0.000798429
2 *2766:X 0.000798429
3 *2767:C1 *3037:B 4.82919e-05
4 *2767:C1 *3050:A1 8.33066e-06
5 *2767:C1 *3051:A 0.000421056
6 *2696:A2 *2767:C1 6.20787e-05
7 *2765:A2 *2767:C1 1.39832e-05
8 *2766:A2 *2767:C1 5.94242e-05
9 *2767:B1 *2767:C1 3.26889e-05
10 *172:14 *2767:C1 7.01276e-05
11 *182:31 *2767:C1 0.000356243
12 *186:14 *2767:C1 7.94673e-05
13 *186:35 *2767:C1 4.35034e-05
*RES
1 *2766:X *2767:C1 23.955 
*END

*D_NET *258 0.00941068
*CONN
*I *2800:A2 I *D sky130_fd_sc_hd__a2111o_1
*I *2767:X O *D sky130_fd_sc_hd__a211o_1
*CAP
1 *2800:A2 0.00330244
2 *2767:X 0.00330244
3 *2800:A2 *2800:C1 4.66108e-05
4 *2800:A2 *2800:D1 0
5 *2800:A2 *3093:A1 4.66108e-05
6 *2800:A2 *321:63 0.00166799
7 *2800:A2 *369:74 9.06252e-05
8 *3295:A *2800:A2 0.000181462
9 *197:18 *2800:A2 0.000343892
10 *197:28 *2800:A2 0.000428603
*RES
1 *2767:X *2800:A2 17.3763 
*END

*D_NET *259 0.00244154
*CONN
*I *2770:B1 I *D sky130_fd_sc_hd__a311o_1
*I *2768:X O *D sky130_fd_sc_hd__and3_1
*CAP
1 *2770:B1 0.000436962
2 *2768:X 0.000436962
3 *2770:B1 *2770:A1 5.19006e-06
4 *2770:B1 *2770:C1 0.000100096
5 *2770:B1 *3110:A 0.000371231
6 *2707:A3 *2770:B1 3.93467e-05
7 *2713:B *2770:B1 0.000234986
8 *2770:A3 *2770:B1 5.19006e-06
9 *177:112 *2770:B1 4.77807e-05
10 *177:116 *2770:B1 0
11 *207:86 *2770:B1 0.000763795
*RES
1 *2768:X *2770:B1 18.78 
*END

*D_NET *260 0.00195858
*CONN
*I *2770:C1 I *D sky130_fd_sc_hd__a311o_1
*I *2769:X O *D sky130_fd_sc_hd__and3_1
*CAP
1 *2770:C1 0.000440479
2 *2769:X 0.000440479
3 *2770:C1 *2777:B1 9.23444e-06
4 *2770:C1 *3109:A0 4.89295e-05
5 *2770:C1 *3110:A 9.50342e-06
6 *2770:C1 *358:114 6.67523e-05
7 *2770:C1 *476:56 8.52883e-05
8 *2770:C1 *832:10 0.000268356
9 *2713:B *2770:C1 0.000234986
10 *2763:B1 *2770:C1 0.000102729
11 *2770:A2 *2770:C1 0
12 *2770:B1 *2770:C1 0.000100096
13 *2777:B2 *2770:C1 0.000131066
14 *177:112 *2770:C1 8.33066e-06
15 *193:76 *2770:C1 7.76406e-06
16 *207:86 *2770:C1 4.58262e-06
*RES
1 *2769:X *2770:C1 17.04 
*END

*D_NET *261 0.000513217
*CONN
*I *2778:A I *D sky130_fd_sc_hd__or4_1
*I *2770:X O *D sky130_fd_sc_hd__a311o_1
*CAP
1 *2778:A 0.000163522
2 *2770:X 0.000163522
3 *2778:A *2770:A1 6.03305e-05
4 *2778:A *2778:B 3.55642e-06
5 *2778:A *2778:C 0.000114488
6 *2778:A *2778:D 7.79767e-06
*RES
1 *2770:X *2778:A 6.275 
*END

*D_NET *262 0.00157165
*CONN
*I *2772:B1 I *D sky130_fd_sc_hd__a31o_1
*I *2771:X O *D sky130_fd_sc_hd__and3_1
*CAP
1 *2772:B1 0.000307868
2 *2771:X 0.000307868
3 *2772:B1 *2772:A1 7.20767e-05
4 *2772:B1 *3096:A0 4.90227e-05
5 *2772:B1 *376:84 7.8079e-05
6 *2772:B1 *384:43 8.8975e-05
7 *2772:B1 *726:26 3.64998e-06
8 *3223:D *2772:B1 0.00017995
9 *194:41 *2772:B1 0.000479799
10 *202:14 *2772:B1 4.36573e-06
*RES
1 *2771:X *2772:B1 14.52 
*END

*D_NET *263 0.000719532
*CONN
*I *2778:B I *D sky130_fd_sc_hd__or4_1
*I *2772:X O *D sky130_fd_sc_hd__a31o_1
*CAP
1 *2778:B 0.000310772
2 *2772:X 0.000310772
3 *2778:B *2770:A1 2.7725e-05
4 *2778:B *3100:A 1.77665e-05
5 *2778:A *2778:B 3.55642e-06
6 *3223:D *2778:B 4.89395e-05
*RES
1 *2772:X *2778:B 6.755 
*END

*D_NET *264 0.0012455
*CONN
*I *2774:B1 I *D sky130_fd_sc_hd__a31o_1
*I *2773:X O *D sky130_fd_sc_hd__and3_1
*CAP
1 *2774:B1 0.000328948
2 *2773:X 0.000328948
3 *2774:B1 *399:34 0.000110791
4 *192:67 *2774:B1 0.000418808
5 *235:18 *2774:B1 5.80021e-05
*RES
1 *2773:X *2774:B1 12.48 
*END

*D_NET *265 0.00152746
*CONN
*I *2778:C I *D sky130_fd_sc_hd__or4_1
*I *2774:X O *D sky130_fd_sc_hd__a31o_1
*CAP
1 *2778:C 0.000379788
2 *2774:X 0.000379788
3 *2778:C *2770:A1 2.70283e-05
4 *2778:C *2778:D 3.179e-05
5 *2707:A3 *2778:C 0.000228871
6 *2707:B1 *2778:C 4.22944e-05
7 *2770:A3 *2778:C 4.11718e-05
8 *2778:A *2778:C 0.000114488
9 *177:112 *2778:C 1.91597e-05
10 *177:116 *2778:C 2.1553e-05
11 *177:147 *2778:C 0.000119873
12 *202:52 *2778:C 0.000121659
*RES
1 *2774:X *2778:C 10.565 
*END

*D_NET *266 0.00203761
*CONN
*I *2777:A2 I *D sky130_fd_sc_hd__a22o_1
*I *2775:X O *D sky130_fd_sc_hd__a22o_1
*CAP
1 *2777:A2 0.000465668
2 *2775:X 0.000465668
3 *2777:A2 *2707:A1 5.59259e-05
4 *2777:A2 *2777:B1 5.18317e-06
5 *2777:A2 *2977:A 8.53113e-06
6 *2777:A2 *3176:CLK 2.49909e-05
7 *2777:A2 *474:49 0.000271099
8 *2777:A2 *603:25 5.2124e-05
9 *2777:A2 *603:31 0.000186041
10 *2730:A2 *2777:A2 5.8352e-05
11 *207:86 *2777:A2 0.000444032
*RES
1 *2775:X *2777:A2 21.775 
*END

*D_NET *267 0.00538119
*CONN
*I *2777:B1 I *D sky130_fd_sc_hd__a22o_1
*I *2776:X O *D sky130_fd_sc_hd__a22o_1
*CAP
1 *2777:B1 0.00126539
2 *2776:X 0.00126539
3 *2777:B1 *2776:A2 0
4 *2777:B1 *2778:D 0.000107325
5 *2777:B1 *3113:A 0.000313337
6 *2777:B1 *3115:A 0.000459976
7 *2777:B1 *3127:B 8.41307e-05
8 *2777:B1 *358:114 0.000267292
9 *2777:B1 *399:34 6.79978e-05
10 *2777:B1 *407:20 0.000176938
11 *2777:B1 *476:56 1.74678e-05
12 *2777:B1 *476:66 0.000244594
13 *2777:B1 *508:6 0.000123225
14 *2777:B1 *518:10 4.66108e-05
15 *2777:B1 *603:68 0.000279871
16 *2712:B1 *2777:B1 8.57321e-05
17 *2730:A2 *2777:B1 0.000163855
18 *2730:D1 *2777:B1 2.26771e-05
19 *2763:B1 *2777:B1 2.11665e-05
20 *2770:A2 *2777:B1 0.000168178
21 *2770:C1 *2777:B1 9.23444e-06
22 *2777:A2 *2777:B1 5.18317e-06
23 *2777:B2 *2777:B1 2.20898e-05
24 *3228:D *2777:B1 1.91597e-05
25 *177:147 *2777:B1 3.30339e-06
26 *197:60 *2777:B1 1.71416e-05
27 *235:18 *2777:B1 0.000123927
*RES
1 *2776:X *2777:B1 30.6335 
*END

*D_NET *268 0.000429149
*CONN
*I *2778:D I *D sky130_fd_sc_hd__or4_1
*I *2777:X O *D sky130_fd_sc_hd__a22o_1
*CAP
1 *2778:D 7.14792e-05
2 *2777:X 7.14792e-05
3 *2778:D *2770:A1 2.87686e-05
4 *2730:A2 *2778:D 0.000110509
5 *2777:B1 *2778:D 0.000107325
6 *2778:A *2778:D 7.79767e-06
7 *2778:C *2778:D 3.179e-05
*RES
1 *2777:X *2778:D 9.39 
*END

*D_NET *269 0.00218413
*CONN
*I *2800:B1 I *D sky130_fd_sc_hd__a2111o_1
*I *2778:X O *D sky130_fd_sc_hd__or4_1
*CAP
1 *2800:B1 0.000617946
2 *2778:X 0.000617946
3 *2800:B1 *3107:S 0
4 *2800:B1 *3384:A 0.000112407
5 *2800:B1 *369:74 0.000561257
6 *2800:B1 *430:24 4.89295e-05
7 *2800:B1 *476:56 0
8 *2704:A3 *2800:B1 1.92979e-05
9 *2713:A *2800:B1 5.69898e-06
10 *2730:A2 *2800:B1 0
11 *2730:B1 *2800:B1 5.24795e-05
12 *2730:D1 *2800:B1 0
13 *2769:C *2800:B1 0.000148168
*RES
1 *2778:X *2800:B1 19.1475 
*END

*D_NET *270 0.00129101
*CONN
*I *2783:A I *D sky130_fd_sc_hd__or4_1
*I *2779:X O *D sky130_fd_sc_hd__and3_1
*CAP
1 *2783:A 0.000351318
2 *2779:X 0.000351318
3 *2783:A *2783:D 0.000139245
4 *2783:A *2834:A 0.000139245
5 *2783:A *2834:B 1.16578e-05
6 *2783:A *2983:A 7.18092e-05
7 *2783:A *3277:RESET_B 2.49909e-05
8 *2783:A *415:52 9.1566e-05
9 *2783:A *652:23 4.41506e-05
10 *2783:A *775:61 6.57118e-05
*RES
1 *2779:X *2783:A 13.74 
*END

*D_NET *271 0.00108555
*CONN
*I *2783:B I *D sky130_fd_sc_hd__or4_1
*I *2780:X O *D sky130_fd_sc_hd__and3_1
*CAP
1 *2783:B 0.000203719
2 *2780:X 0.000203719
3 *2783:B *2780:A 3.25068e-05
4 *2783:B *2783:C 0.000292059
5 *2783:B *415:52 0.000274406
6 *2785:B *2783:B 2.15594e-05
7 *211:37 *2783:B 4.82863e-05
8 *215:72 *2783:B 9.29751e-06
*RES
1 *2780:X *2783:B 12.525 
*END

*D_NET *272 0.00180759
*CONN
*I *2783:C I *D sky130_fd_sc_hd__or4_1
*I *2781:X O *D sky130_fd_sc_hd__and3_1
*CAP
1 *2783:C 0.000392707
2 *2781:X 0.000392707
3 *2783:C *2780:A 6.24604e-05
4 *2783:C *2783:D 4.66108e-05
5 *2783:C *3238:CLK 7.26993e-05
6 *2783:C *415:52 4.49328e-05
7 *2780:C *2783:C 5.28255e-05
8 *2783:B *2783:C 0.000292059
9 *2785:B *2783:C 0.000230869
10 *176:27 *2783:C 8.40269e-05
11 *211:37 *2783:C 9.54399e-05
12 *215:68 *2783:C 4.02505e-05
*RES
1 *2781:X *2783:C 15.57 
*END

*D_NET *273 0.002311
*CONN
*I *2783:D I *D sky130_fd_sc_hd__or4_1
*I *2782:X O *D sky130_fd_sc_hd__and3_1
*CAP
1 *2783:D 0.0006095
2 *2782:X 0.0006095
3 *2783:D *415:52 0.000137578
4 *2783:A *2783:D 0.000139245
5 *2783:C *2783:D 4.66108e-05
6 *176:27 *2783:D 1.91597e-05
7 *231:14 *2783:D 0.000749401
*RES
1 *2782:X *2783:D 16.635 
*END

*D_NET *274 0.00075681
*CONN
*I *2791:A I *D sky130_fd_sc_hd__or4_1
*I *2783:X O *D sky130_fd_sc_hd__or4_1
*CAP
1 *2791:A 0.000132239
2 *2783:X 0.000132239
3 *2791:A *2800:C1 4.78564e-05
4 *2791:A *3314:A 9.64869e-05
5 *2791:A *415:52 3.60648e-06
6 *2791:A *430:30 0.000228224
7 *2791:A *775:61 0.000116158
*RES
1 *2783:X *2791:A 10.755 
*END

*D_NET *275 0.00230811
*CONN
*I *2788:A I *D sky130_fd_sc_hd__or4_1
*I *2784:X O *D sky130_fd_sc_hd__and3_1
*CAP
1 *2788:A 0.000523792
2 *2784:X 0.000523792
3 *2788:A *2788:B 7.00889e-06
4 *2788:A *2788:D 3.96653e-05
5 *2788:A *2789:A 0.000156762
6 *2788:A *3378:A 0.000256975
7 *2788:A *370:54 0.000462735
8 *2788:A *715:30 0.000175254
9 *2784:B *2788:A 8.53113e-06
10 *187:71 *2788:A 6.51658e-05
11 *187:98 *2788:A 6.33103e-05
12 *193:131 *2788:A 2.51225e-05
*RES
1 *2784:X *2788:A 19.335 
*END

*D_NET *276 0.00283678
*CONN
*I *2788:B I *D sky130_fd_sc_hd__or4_1
*I *2785:X O *D sky130_fd_sc_hd__and3_1
*CAP
1 *2788:B 0.000758951
2 *2785:X 0.000758951
3 *2788:B *2791:B 8.52845e-05
4 *2788:B *2791:D 4.9968e-05
5 *2788:B *361:36 0
6 *2788:B *430:30 0.000562737
7 *2750:B1 *2788:B 0.000202101
8 *2788:A *2788:B 7.00889e-06
9 *176:27 *2788:B 0.000411781
*RES
1 *2785:X *2788:B 19.89 
*END

*D_NET *277 0.000868106
*CONN
*I *2788:C I *D sky130_fd_sc_hd__or4_1
*I *2786:X O *D sky130_fd_sc_hd__and3_1
*CAP
1 *2788:C 0.000166866
2 *2786:X 0.000166866
3 *2788:C *2751:A 0.000118513
4 *2788:C *3414:A 0.000177939
5 *2786:B *2788:C 8.49205e-05
6 *176:44 *2788:C 0.000153001
*RES
1 *2786:X *2788:C 11.415 
*END

*D_NET *278 0.00120987
*CONN
*I *2788:D I *D sky130_fd_sc_hd__or4_1
*I *2787:X O *D sky130_fd_sc_hd__and3_1
*CAP
1 *2788:D 0.000220546
2 *2787:X 0.000220546
3 *2788:D *3378:A 4.99619e-05
4 *2788:A *2788:D 3.96653e-05
5 *212:20 *2788:D 9.9535e-05
6 *212:42 *2788:D 0.00013958
7 *218:108 *2788:D 0.000440041
*RES
1 *2787:X *2788:D 13.545 
*END

*D_NET *279 0.00164852
*CONN
*I *2791:B I *D sky130_fd_sc_hd__or4_1
*I *2788:X O *D sky130_fd_sc_hd__or4_1
*CAP
1 *2791:B 0.000621472
2 *2788:X 0.000621472
3 *2791:B *2791:D 2.76356e-05
4 *2791:B *361:36 0.000113939
5 *2791:B *511:150 3.85753e-05
6 *2750:B1 *2791:B 0
7 *2788:B *2791:B 8.52845e-05
8 *176:27 *2791:B 0.000140138
*RES
1 *2788:X *2791:B 15.42 
*END

*D_NET *280 0.00229086
*CONN
*I *2791:C I *D sky130_fd_sc_hd__or4_1
*I *2789:X O *D sky130_fd_sc_hd__and3_1
*CAP
1 *2791:C 0.000315873
2 *2789:X 0.000315873
3 *2791:C *2791:D 0.000119866
4 *2791:C *2800:C1 0.000527559
5 *2791:C *3125:A0 0.00011379
6 *2791:C *3232:CLK 0.000155497
7 *2791:C *430:24 0.000253546
8 *2791:C *430:30 0.000121023
9 *3232:D *2791:C 0.000252369
10 *187:64 *2791:C 0.000115464
*RES
1 *2789:X *2791:C 17.655 
*END

*D_NET *281 0.00390484
*CONN
*I *2791:D I *D sky130_fd_sc_hd__or4_1
*I *2790:X O *D sky130_fd_sc_hd__a31o_1
*CAP
1 *2791:D 0.00089113
2 *2790:X 0.00089113
3 *2791:D *2790:A1 9.18535e-05
4 *2791:D *2800:C1 0.000119866
5 *2791:D *322:10 0
6 *2791:D *350:48 0.000163419
7 *2791:D *350:50 0
8 *2791:D *355:38 6.85423e-05
9 *2791:D *355:42 6.88421e-05
10 *2791:D *361:36 0
11 *2791:D *527:118 9.8109e-05
12 *2791:D *532:18 2.49909e-05
13 *2750:B1 *2791:D 0.000591532
14 *2752:B1 *2791:D 0.000133236
15 *2761:B *2791:D 0.00032444
16 *2763:B2 *2791:D 0.000156771
17 *2788:B *2791:D 4.9968e-05
18 *2791:B *2791:D 2.76356e-05
19 *2791:C *2791:D 0.000119866
20 *176:27 *2791:D 8.35068e-05
*RES
1 *2790:X *2791:D 33.785 
*END

*D_NET *282 0.00675947
*CONN
*I *2800:C1 I *D sky130_fd_sc_hd__a2111o_1
*I *2791:X O *D sky130_fd_sc_hd__or4_1
*CAP
1 *2800:C1 0.00161116
2 *2791:X 0.00161116
3 *2800:C1 *3093:A0 6.1357e-05
4 *2800:C1 *3093:A1 0.000753427
5 *2800:C1 *3232:CLK 1.05984e-05
6 *2800:C1 *3233:CLK 0.000157726
7 *2800:C1 *430:24 0.00109987
8 *2800:C1 *430:30 9.97536e-06
9 *2800:C1 *825:8 0.000339793
10 *2791:A *2800:C1 4.78564e-05
11 *2791:C *2800:C1 0.000527559
12 *2791:D *2800:C1 0.000119866
13 *2800:A2 *2800:C1 4.66108e-05
14 *3232:D *2800:C1 0.000362513
*RES
1 *2791:X *2800:C1 33.185 
*END

*D_NET *283 0.000699576
*CONN
*I *2794:B1 I *D sky130_fd_sc_hd__a211o_1
*I *2792:X O *D sky130_fd_sc_hd__a22o_1
*CAP
1 *2794:B1 0.000113279
2 *2792:X 0.000113279
3 *2794:B1 *2794:A1 0
4 *2794:B1 *2794:C1 3.95724e-05
5 *2794:B1 *285:16 1.61831e-05
6 *2794:B1 *602:101 0.000137578
7 *2741:A2 *2794:B1 8.40269e-05
8 *2741:B1 *2794:B1 4.7043e-05
9 *2743:B1 *2794:B1 4.82919e-05
10 *197:108 *2794:B1 8.65905e-05
11 *197:112 *2794:B1 1.37328e-05
*RES
1 *2792:X *2794:B1 10.785 
*END

*D_NET *284 0.000948868
*CONN
*I *2794:C1 I *D sky130_fd_sc_hd__a211o_1
*I *2793:X O *D sky130_fd_sc_hd__a22o_1
*CAP
1 *2794:C1 0.000236437
2 *2793:X 0.000236437
3 *2794:C1 *2742:B2 4.82919e-05
4 *2794:C1 *3078:S 0
5 *2794:C1 *3081:A0 7.23602e-05
6 *2794:C1 *285:16 0.000160635
7 *2794:C1 *486:10 0
8 *2794:C1 *602:86 0.00011108
9 *2793:A2 *2794:C1 8.53113e-06
10 *2794:B1 *2794:C1 3.95724e-05
11 *197:108 *2794:C1 3.55235e-05
*RES
1 *2793:X *2794:C1 12.66 
*END

*D_NET *285 0.00969633
*CONN
*I *2799:A2 I *D sky130_fd_sc_hd__a211o_1
*I *2794:X O *D sky130_fd_sc_hd__a211o_1
*CAP
1 *2799:A2 0.000885774
2 *2794:X 0.00234466
3 *285:16 0.00323043
4 *2799:A2 *2799:C1 0
5 *2799:A2 *3093:A1 0.000786632
6 *2799:A2 *350:93 8.88799e-05
7 *2799:A2 *445:124 0.000179579
8 *285:16 *2612:A 0.000397039
9 *285:16 *2711:A 0
10 *285:16 *2712:A1 0.00019141
11 *285:16 *3020:S 0
12 *285:16 *3113:A 0.000286048
13 *285:16 *3413:A 0
14 *285:16 *345:30 0
15 *285:16 *358:96 0.000164221
16 *285:16 *430:64 0
17 *285:16 *445:89 0
18 *285:16 *476:98 0
19 *285:16 *590:222 0
20 *285:16 *748:39 7.51561e-05
21 *285:16 *869:8 5.66435e-05
22 *2711:C *285:16 7.28258e-05
23 *2712:B1 *285:16 7.75353e-05
24 *2730:D1 *2799:A2 6.88421e-05
25 *2743:C1 *285:16 5.63405e-05
26 *2792:A2 *285:16 0.000106655
27 *2794:B1 *285:16 1.61831e-05
28 *2794:C1 *285:16 0.000160635
29 *2796:A2 *2799:A2 0
30 *3193:D *285:16 0
31 *3214:D *285:16 0.000116677
32 *197:108 *285:16 9.98516e-05
33 *197:112 *285:16 2.66586e-05
34 *197:128 *285:16 5.30673e-05
35 *208:139 *285:16 5.33085e-05
36 *235:18 *285:16 0.000101273
*RES
1 *2794:X *285:16 45.275 
2 *285:16 *2799:A2 17.78 
*END

*D_NET *286 0.000236967
*CONN
*I *2796:B1 I *D sky130_fd_sc_hd__a31o_1
*I *2795:X O *D sky130_fd_sc_hd__and3_1
*CAP
1 *2796:B1 3.67836e-05
2 *2795:X 3.67836e-05
3 *2796:B1 *2796:A1 8.52845e-05
4 *2796:B1 *380:38 2.91854e-05
5 *231:26 *2796:B1 4.89295e-05
*RES
1 *2795:X *2796:B1 4.355 
*END

*D_NET *287 0.000559685
*CONN
*I *2799:B1 I *D sky130_fd_sc_hd__a211o_1
*I *2796:X O *D sky130_fd_sc_hd__a31o_1
*CAP
1 *2799:B1 0.00014593
2 *2796:X 0.00014593
3 *2799:B1 *2799:C1 0
4 *2799:B1 *3006:B 0.000169844
5 *2799:B1 *380:38 0
6 *2748:A1 *2799:B1 5.06989e-05
7 *2799:A1 *2799:B1 5.12969e-06
8 *193:26 *2799:B1 4.21518e-05
*RES
1 *2796:X *2799:B1 10.425 
*END

*D_NET *288 0.00302248
*CONN
*I *2798:B1 I *D sky130_fd_sc_hd__a32o_1
*I *2797:X O *D sky130_fd_sc_hd__a22o_1
*CAP
1 *2798:B1 0.000702233
2 *2797:X 0.000702233
3 *2798:B1 *2608:S 0.000135532
4 *2798:B1 *2610:S 0.000170543
5 *2798:B1 *2746:A1 0.000163992
6 *2798:B1 *2797:A1 7.23481e-05
7 *2798:B1 *2805:B2 0
8 *2798:B1 *2914:A 2.09749e-05
9 *2798:B1 *2916:A 0.000295216
10 *2798:B1 *3330:A 0.000345698
11 *2798:B1 *328:30 7.66908e-05
12 *2798:B1 *395:57 0.000145166
13 *2798:B1 *528:66 0
14 *2798:B1 *600:26 0.000109251
15 *2798:A2 *2798:B1 3.7801e-05
16 *3156:D *2798:B1 6.9864e-06
17 *174:104 *2798:B1 1.9488e-05
18 *215:108 *2798:B1 1.83311e-05
*RES
1 *2797:X *2798:B1 24.1425 
*END

*D_NET *289 0.00227949
*CONN
*I *2799:C1 I *D sky130_fd_sc_hd__a211o_1
*I *2798:X O *D sky130_fd_sc_hd__a32o_1
*CAP
1 *2799:C1 0.000729861
2 *2798:X 0.000729861
3 *2799:C1 *2587:A 2.88436e-05
4 *2799:C1 *2745:A1 0
5 *2799:C1 *2914:A 1.01276e-05
6 *2799:C1 *3375:A 4.11281e-05
7 *2799:C1 *316:60 7.96104e-06
8 *2799:C1 *600:81 4.77807e-05
9 *2744:C *2799:C1 9.14049e-05
10 *2745:B1 *2799:C1 0.000183396
11 *2748:C1 *2799:C1 0.00011583
12 *2796:A2 *2799:C1 7.55391e-05
13 *2798:A3 *2799:C1 0.000125244
14 *2799:A2 *2799:C1 0
15 *2799:B1 *2799:C1 0
16 *3154:D *2799:C1 4.61482e-05
17 *207:90 *2799:C1 0
18 *212:91 *2799:C1 3.31204e-05
19 *212:142 *2799:C1 0
20 *231:38 *2799:C1 0
21 *231:44 *2799:C1 1.3245e-05
*RES
1 *2798:X *2799:C1 20.04 
*END

*D_NET *290 0.000519151
*CONN
*I *2800:D1 I *D sky130_fd_sc_hd__a2111o_1
*I *2799:X O *D sky130_fd_sc_hd__a211o_1
*CAP
1 *2800:D1 8.11934e-05
2 *2799:X 8.11934e-05
3 *2800:D1 *3093:A1 0.000122801
4 *2800:D1 *291:24 7.23533e-05
5 *2800:D1 *430:24 4.82369e-05
6 *2730:D1 *2800:D1 0.000113373
7 *2800:A2 *2800:D1 0
*RES
1 *2799:X *2800:D1 9.72 
*END

*D_NET *291 0.010182
*CONN
*I *2819:A1 I *D sky130_fd_sc_hd__o31a_1
*I *2800:X O *D sky130_fd_sc_hd__a2111o_1
*CAP
1 *2819:A1 0.000612351
2 *2800:X 0.00157675
3 *291:24 0.0021891
4 *2819:A1 *2760:A1 1.85674e-05
5 *2819:A1 *2819:A2 7.61725e-05
6 *2819:A1 *2899:B 0.00013654
7 *2819:A1 *2941:B 4.89295e-05
8 *2819:A1 *2944:A0 0.000236262
9 *2819:A1 *2944:A1 0.000162311
10 *2819:A1 *3447:A 0.000153816
11 *2819:A1 *299:32 3.79854e-05
12 *2819:A1 *325:8 0.000103003
13 *2819:A1 *325:16 0.00015639
14 *2819:A1 *372:14 0
15 *2819:A1 *400:6 7.63291e-05
16 *2819:A1 *737:36 0
17 *2819:A1 *759:34 9.21068e-05
18 *291:24 *2596:A 0.000114356
19 *291:24 *2891:B 2.16833e-05
20 *291:24 *2899:B 0.000963238
21 *291:24 *3093:A1 4.66108e-05
22 *291:24 *365:22 0.000349648
23 *291:24 *370:16 1.91597e-05
24 *291:24 *371:57 0.000140709
25 *291:24 *371:61 0.000636998
26 *291:24 *606:42 0.000469555
27 *2761:D *2819:A1 0.000129466
28 *2800:D1 *291:24 7.23533e-05
29 *3220:D *291:24 5.01066e-05
30 *3281:D *2819:A1 8.696e-05
31 *174:61 *2819:A1 0.000130354
32 *177:24 *291:24 0.000158965
33 *193:20 *291:24 2.0514e-05
34 *193:26 *291:24 0.000545039
35 *208:18 *291:24 0.000124498
36 *215:86 *291:24 0.000300333
37 *231:116 *2819:A1 0.000124895
*RES
1 *2800:X *291:24 45.02 
2 *291:24 *2819:A1 19.47 
*END

*D_NET *292 0.00234526
*CONN
*I *2802:B1 I *D sky130_fd_sc_hd__a21o_1
*I *2801:X O *D sky130_fd_sc_hd__a22o_1
*CAP
1 *2802:B1 0.000451935
2 *2801:X 0.000451935
3 *2802:B1 *2623:A1 4.02502e-05
4 *2802:B1 *2623:S 8.23457e-05
5 *2802:B1 *2805:A1 0.000521885
6 *2802:B1 *3267:CLK 0.000160208
7 *2802:B1 *568:6 0.000193136
8 *2729:B1 *2802:B1 7.05354e-05
9 *2808:B1 *2802:B1 0.000168724
10 *3267:D *2802:B1 0.000204306
*RES
1 *2801:X *2802:B1 18.63 
*END

*D_NET *293 0.000934695
*CONN
*I *2808:A1 I *D sky130_fd_sc_hd__o31a_1
*I *2802:X O *D sky130_fd_sc_hd__a21o_1
*CAP
1 *2808:A1 0.000228645
2 *2802:X 0.000228645
3 *2808:A1 *2572:A 5.93963e-05
4 *2808:A1 *2612:B 0
5 *2808:A1 *2626:A 9.44791e-05
6 *2808:A1 *2808:A2 6.43122e-05
7 *2808:A1 *299:32 5.22918e-05
8 *2808:A1 *527:50 0
9 *2808:B1 *2808:A1 0.000206926
*RES
1 *2802:X *2808:A1 12.12 
*END

*D_NET *294 0.0024029
*CONN
*I *2804:B1 I *D sky130_fd_sc_hd__a21o_1
*I *2803:X O *D sky130_fd_sc_hd__a22o_1
*CAP
1 *2804:B1 0.000693316
2 *2803:X 0.000693316
3 *2804:B1 *2557:B 0
4 *2804:B1 *2615:A1 0
5 *2804:B1 *2804:A1 0.000122337
6 *2804:B1 *2808:A2 4.82919e-05
7 *2804:B1 *3263:CLK 4.21973e-05
8 *2728:C *2804:B1 0.000193618
9 *2803:A2 *2804:B1 0.000270415
10 *2805:B1 *2804:B1 0.000217099
11 *3258:D *2804:B1 0.000122313
12 *3263:D *2804:B1 0
*RES
1 *2803:X *2804:B1 20.04 
*END

*D_NET *295 0.00207605
*CONN
*I *2808:A2 I *D sky130_fd_sc_hd__o31a_1
*I *2804:X O *D sky130_fd_sc_hd__a21o_1
*CAP
1 *2808:A2 0.00062829
2 *2804:X 0.00062829
3 *2808:A2 *2612:A 0
4 *2808:A2 *2804:A1 1.46744e-05
5 *2808:A2 *3263:CLK 0.000282639
6 *2808:A2 *3455:A 0
7 *2808:A2 *299:32 0.000119756
8 *2808:A2 *538:22 0
9 *2808:A2 *562:14 0.000137571
10 *2808:A2 *892:8 0.000122155
11 *2808:A2 *893:12 0
12 *2804:B1 *2808:A2 4.82919e-05
13 *2805:B1 *2808:A2 0
14 *2808:A1 *2808:A2 6.43122e-05
15 *2808:B1 *2808:A2 2.70988e-05
16 *3263:D *2808:A2 2.97004e-06
*RES
1 *2804:X *2808:A2 18.54 
*END

*D_NET *296 0.00223698
*CONN
*I *2807:B1 I *D sky130_fd_sc_hd__a211o_1
*I *2805:X O *D sky130_fd_sc_hd__a22o_1
*CAP
1 *2807:B1 0.000550118
2 *2805:X 0.000550118
3 *2807:B1 *2572:A 4.94474e-05
4 *2807:B1 *2572:B 8.65905e-05
5 *2807:B1 *2612:B 3.58958e-05
6 *2807:B1 *2622:B 8.1908e-05
7 *2807:B1 *2626:A 0.000100324
8 *2807:B1 *2802:A2 0
9 *2807:B1 *2807:A1 5.47597e-05
10 *2807:B1 *2808:A3 3.38931e-05
11 *2807:B1 *527:50 0.000124433
12 *2807:B1 *528:28 3.1835e-05
13 *2807:B1 *538:22 2.05056e-05
14 *2805:B1 *2807:B1 0.000470537
15 *2807:A2 *2807:B1 4.66108e-05
*RES
1 *2805:X *2807:B1 19.83 
*END

*D_NET *297 0.00159331
*CONN
*I *2807:C1 I *D sky130_fd_sc_hd__a211o_1
*I *2806:X O *D sky130_fd_sc_hd__a22o_1
*CAP
1 *2807:C1 0.000410161
2 *2806:X 0.000410161
3 *2807:C1 *2807:A1 0.000308724
4 *2807:C1 *3303:A 7.86245e-05
5 *2807:C1 *535:14 0.000313857
6 *2807:C1 *591:10 0
7 *215:108 *2807:C1 7.17811e-05
*RES
1 *2806:X *2807:C1 14.565 
*END

*D_NET *298 0.00126726
*CONN
*I *2808:A3 I *D sky130_fd_sc_hd__o31a_1
*I *2807:X O *D sky130_fd_sc_hd__a211o_1
*CAP
1 *2808:A3 0.000252344
2 *2807:X 0.000252344
3 *2808:A3 *2567:B 4.66742e-05
4 *2808:A3 *2807:A1 0.000167995
5 *2808:A3 *328:71 4.66108e-05
6 *2808:A3 *350:120 9.44681e-05
7 *2808:A3 *527:50 0.000133984
8 *2808:A3 *538:22 4.82919e-05
9 *2729:A2 *2808:A3 9.57555e-05
10 *2807:A2 *2808:A3 4.82919e-05
11 *2807:B1 *2808:A3 3.38931e-05
12 *2808:B1 *2808:A3 4.66108e-05
*RES
1 *2807:X *2808:A3 13.155 
*END

*D_NET *299 0.00925322
*CONN
*I *2819:A2 I *D sky130_fd_sc_hd__o31a_1
*I *2808:X O *D sky130_fd_sc_hd__o31a_1
*CAP
1 *2819:A2 0.000581858
2 *2808:X 0.00219334
3 *299:32 0.0027752
4 *2819:A2 *2944:A1 9.80032e-06
5 *2819:A2 *2944:S 4.66108e-05
6 *2819:A2 *400:6 0.000329333
7 *299:32 *2577:A 2.58522e-05
8 *299:32 *2608:A1 3.09088e-05
9 *299:32 *2608:S 0.000273872
10 *299:32 *2609:A 1.91597e-05
11 *299:32 *2612:A 0.000253386
12 *299:32 *2613:A0 0.000391787
13 *299:32 *2760:A1 7.54841e-05
14 *299:32 *2811:B2 0.000112349
15 *299:32 *2887:A 1.19928e-05
16 *299:32 *2888:A1 0.000360964
17 *299:32 *2889:A 2.11084e-05
18 *299:32 *2935:B 9.10587e-05
19 *299:32 *2944:A1 3.00381e-05
20 *299:32 *2944:S 9.53428e-06
21 *299:32 *3304:A 4.66108e-05
22 *299:32 *3448:A 0
23 *299:32 *359:18 1.91597e-05
24 *299:32 *391:43 0
25 *299:32 *562:14 4.82919e-05
26 *299:32 *599:10 0.000461941
27 *299:32 *606:42 5.83121e-06
28 *299:32 *918:6 0.000270415
29 *2808:A1 *299:32 5.22918e-05
30 *2808:A2 *299:32 0.000119756
31 *2819:A1 *2819:A2 7.61725e-05
32 *2819:A1 *299:32 3.79854e-05
33 *3149:D *299:32 4.25903e-05
34 *3281:D *2819:A2 7.47551e-05
35 *181:56 *299:32 8.55614e-05
36 *231:116 *299:32 0.000268227
*RES
1 *2808:X *299:32 45.875 
2 *299:32 *2819:A2 8.965 
*END

*D_NET *300 0.00289839
*CONN
*I *2810:C1 I *D sky130_fd_sc_hd__a221o_1
*I *2809:X O *D sky130_fd_sc_hd__a22o_1
*CAP
1 *2810:C1 0.000883255
2 *2809:X 0.000883255
3 *2810:C1 *2731:A2 0.000120655
4 *2810:C1 *2809:A1 6.07575e-06
5 *2810:C1 *2809:B2 4.60061e-05
6 *2810:C1 *2810:B2 0
7 *2810:C1 *2954:A0 2.39695e-05
8 *2810:C1 *2954:A1 0.000108433
9 *2810:C1 *2954:S 4.77769e-05
10 *2810:C1 *2956:S 2.69217e-05
11 *2810:C1 *2963:A 7.16931e-05
12 *2810:C1 *3445:A 3.25831e-05
13 *2810:C1 *350:20 4.75576e-05
14 *2810:C1 *351:150 0
15 *2810:C1 *356:14 0.000124446
16 *2810:C1 *592:24 2.75451e-05
17 *2810:C1 *592:26 6.23288e-05
18 *2810:C1 *592:76 0.0001249
19 *3173:D *2810:C1 0.000195476
20 *211:47 *2810:C1 6.55166e-05
*RES
1 *2809:X *2810:C1 26.605 
*END

*D_NET *301 0.00117408
*CONN
*I *2817:A1 I *D sky130_fd_sc_hd__o21a_1
*I *2810:X O *D sky130_fd_sc_hd__a221o_1
*CAP
1 *2817:A1 0.000230328
2 *2810:X 0.000230328
3 *2817:A1 *511:10 0.000195223
4 *2817:A1 *619:62 0.000116158
5 *2817:A1 *796:30 0.000285889
6 *211:47 *2817:A1 0.000116158
*RES
1 *2810:X *2817:A1 13.86 
*END

*D_NET *302 0.000823609
*CONN
*I *2812:C1 I *D sky130_fd_sc_hd__a221o_1
*I *2811:X O *D sky130_fd_sc_hd__a22o_1
*CAP
1 *2812:C1 0.000281498
2 *2811:X 0.000281498
3 *2812:C1 *2812:B2 2.49708e-05
4 *2812:C1 *3166:CLK 0
5 *2812:C1 *351:114 8.53113e-06
6 *2812:C1 *511:24 9.43448e-05
7 *2812:C1 *715:58 0
8 *2812:C1 *737:36 7.4027e-05
9 *2812:C1 *759:34 0
10 *2812:B1 *2812:C1 5.87387e-05
*RES
1 *2811:X *2812:C1 12.12 
*END

*D_NET *303 0.00126086
*CONN
*I *2816:A I *D sky130_fd_sc_hd__or3_1
*I *2812:X O *D sky130_fd_sc_hd__a221o_1
*CAP
1 *2816:A 0.000308897
2 *2812:X 0.000308897
3 *2816:A *2736:A2 0
4 *2816:A *2736:B2 0
5 *2816:A *2812:A1 8.60799e-05
6 *2816:A *2812:B2 0.000118101
7 *2816:A *2816:C 3.59531e-06
8 *2816:A *2817:A2 0.000180675
9 *2816:A *2892:A1 7.23602e-05
10 *2816:A *3150:CLK 1.16433e-05
11 *2816:A *325:32 4.82863e-05
12 *2816:A *351:114 7.23602e-05
13 *187:112 *2816:A 4.99619e-05
*RES
1 *2812:X *2816:A 13.905 
*END

*D_NET *304 0.000887961
*CONN
*I *2814:C1 I *D sky130_fd_sc_hd__a221o_1
*I *2813:X O *D sky130_fd_sc_hd__a22o_1
*CAP
1 *2814:C1 0.00014174
2 *2813:X 0.00014174
3 *2814:C1 *2814:B2 0.000175921
4 *2814:C1 *369:104 6.90254e-05
5 *2814:C1 *396:12 0.000300622
6 *2813:A2 *2814:C1 2.69153e-05
7 *181:75 *2814:C1 3.19986e-05
*RES
1 *2813:X *2814:C1 11.325 
*END

*D_NET *305 0.00165161
*CONN
*I *2816:B I *D sky130_fd_sc_hd__or3_1
*I *2814:X O *D sky130_fd_sc_hd__a221o_1
*CAP
1 *2816:B 0.000372541
2 *2814:X 0.000372541
3 *2816:B *2816:C 7.23602e-05
4 *2816:B *2892:S 0.00027299
5 *2816:B *2923:B 1.16578e-05
6 *2816:B *3168:CLK 0.000102573
7 *2816:B *325:32 1.34503e-05
8 *2816:B *369:132 3.06569e-06
9 *2816:B *715:58 4.61196e-05
10 *2734:A2 *2816:B 4.79946e-05
11 *2815:A2 *2816:B 2.67022e-05
12 *187:112 *2816:B 0.000309618
*RES
1 *2814:X *2816:B 18.925 
*END

*D_NET *306 0.00127493
*CONN
*I *2816:C I *D sky130_fd_sc_hd__or3_1
*I *2815:X O *D sky130_fd_sc_hd__a22o_1
*CAP
1 *2816:C 0.000302817
2 *2815:X 0.000302817
3 *2816:C *2812:B2 0.000304047
4 *2816:C *2949:A 0.000196073
5 *2816:C *325:32 4.66108e-05
6 *2815:A2 *2816:C 0
7 *2816:A *2816:C 3.59531e-06
8 *2816:B *2816:C 7.23602e-05
9 *187:112 *2816:C 4.66108e-05
*RES
1 *2815:X *2816:C 13.155 
*END

*D_NET *307 0.00341258
*CONN
*I *2817:A2 I *D sky130_fd_sc_hd__o21a_1
*I *2816:X O *D sky130_fd_sc_hd__or3_1
*CAP
1 *2817:A2 0.00107087
2 *2816:X 0.00107087
3 *2817:A2 *2736:B2 1.7396e-05
4 *2817:A2 *2880:A 3.99501e-05
5 *2817:A2 *2881:A 1.56428e-05
6 *2817:A2 *3150:CLK 1.1561e-05
7 *2817:A2 *325:28 0.000106379
8 *2817:A2 *325:101 0.00022786
9 *2817:A2 *328:133 7.01359e-05
10 *2817:A2 *350:48 0
11 *2817:A2 *358:6 6.0011e-05
12 *2817:A2 *358:28 0.000263525
13 *2817:A2 *374:8 0.000120655
14 *2817:A2 *412:6 0.000157052
15 *2816:A *2817:A2 0.000180675
*RES
1 *2816:X *2817:A2 26.395 
*END

*D_NET *308 0.00194446
*CONN
*I *2819:A3 I *D sky130_fd_sc_hd__o31a_1
*I *2817:X O *D sky130_fd_sc_hd__o21a_1
*CAP
1 *2819:A3 0.000575789
2 *2817:X 0.000575789
3 *2819:A3 *2636:A 0.000426608
4 *2819:A3 *328:133 6.72196e-05
5 *2819:A3 *350:48 0
6 *2819:A3 *608:37 5.2305e-05
7 *2817:B1 *2819:A3 8.64421e-05
8 *3281:D *2819:A3 0.00016031
*RES
1 *2817:X *2819:A3 17.415 
*END

*D_NET *309 0.00221073
*CONN
*I *2819:B1 I *D sky130_fd_sc_hd__o31a_1
*I *2818:X O *D sky130_fd_sc_hd__o21a_1
*CAP
1 *2819:B1 0.000545526
2 *2818:X 0.000545526
3 *2819:B1 *2633:A1 0.000237243
4 *2819:B1 *2818:A1 5.05521e-05
5 *2819:B1 *2837:A 4.77719e-05
6 *2819:B1 *3351:A 0.000157968
7 *2819:B1 *316:22 8.49205e-05
8 *2819:B1 *316:36 4.66108e-05
9 *2819:B1 *325:8 0.000158532
10 *3281:D *2819:B1 0.000336084
*RES
1 *2818:X *2819:B1 14.36 
*END

*D_NET *310 0.00427921
*CONN
*I *2852:B I *D sky130_fd_sc_hd__and2_1
*I *2844:B I *D sky130_fd_sc_hd__nand2_1
*I *2825:A I *D sky130_fd_sc_hd__and2_1
*I *2642:B1 I *D sky130_fd_sc_hd__o21ai_1
*I *2824:A1 I *D sky130_fd_sc_hd__a32o_1
*I *2820:Y O *D sky130_fd_sc_hd__inv_2
*CAP
1 *2852:B 0.000167123
2 *2844:B 0.000186751
3 *2825:A 2.16075e-05
4 *2642:B1 5.7838e-05
5 *2824:A1 9.22803e-05
6 *2820:Y 0.000257287
7 *310:57 0.000571599
8 *310:36 0.000250477
9 *310:14 0.000210612
10 *310:12 0.000328925
11 *2642:B1 *2642:A1 8.5841e-05
12 *2642:B1 *2643:B1 8.3762e-05
13 *2642:B1 *3277:D 4.99619e-05
14 *2824:A1 *2824:A2 9.50342e-06
15 *2824:A1 *2824:B1 0
16 *2824:A1 *3285:RESET_B 0.000183036
17 *2824:A1 *3301:A 0
18 *2825:A *2821:B 4.77719e-05
19 *2825:A *3318:A 4.59313e-05
20 *2844:B *2823:A 4.30228e-05
21 *2844:B *775:21 8.35106e-05
22 *2844:B *780:20 8.41307e-05
23 *2852:B *2847:A1 4.77719e-05
24 *2852:B *2852:A 0.000175221
25 *2852:B *775:14 0
26 *2852:B *780:30 4.17805e-05
27 *310:12 *2643:B1 7.36815e-05
28 *310:12 *2643:B2 4.77719e-05
29 *310:12 *2668:B 0
30 *310:12 *2821:B 4.40028e-05
31 *310:12 *2824:A3 8.52883e-05
32 *310:12 *3318:A 1.05984e-05
33 *310:12 *780:30 2.86975e-05
34 *310:12 *780:37 0.000192551
35 *310:14 *2642:A1 2.51519e-05
36 *310:14 *2643:B1 0.000269218
37 *310:14 *3318:A 1.58534e-05
38 *310:57 *3318:A 0
39 *310:57 *779:10 6.88421e-05
40 *310:57 *779:14 4.86642e-05
41 *310:57 *780:30 0.000191048
42 *2643:A2 *310:12 5.20968e-05
43 *159:20 *2852:B 0
44 *159:20 *310:57 0
*RES
1 *2820:Y *310:12 11.315 
2 *310:12 *310:14 2.52 
3 *310:14 *2824:A1 7.745 
4 *310:14 *2642:B1 3.79 
5 *310:12 *310:36 0.36 
6 *310:36 *2825:A 3.1375 
7 *310:36 *310:57 6.23 
8 *310:57 *2844:B 7.095 
9 *310:57 *2852:B 6.705 
*END

*D_NET *311 0.00208754
*CONN
*I *2643:B2 I *D sky130_fd_sc_hd__a22o_1
*I *2824:A3 I *D sky130_fd_sc_hd__a32o_1
*I *2821:X O *D sky130_fd_sc_hd__or2_1
*CAP
1 *2643:B2 0.000269608
2 *2824:A3 0.000386092
3 *2821:X 0
4 *311:4 0.0006557
5 *2643:B2 *2643:A1 4.76368e-05
6 *2643:B2 *2643:B1 4.82919e-05
7 *2643:B2 *2820:A 4.00541e-06
8 *2643:B2 *596:44 8.60537e-05
9 *2824:A3 *2643:A1 1.18258e-05
10 *2824:A3 *2643:B1 5.03367e-05
11 *2824:A3 *2677:A 7.24836e-05
12 *2824:A3 *2824:B1 9.49199e-05
13 *2824:A3 *2824:B2 0.000185305
14 *2643:A2 *2643:B2 4.00366e-05
15 *3285:D *2643:B2 2.18634e-06
16 *159:20 *2824:A3 0
17 *310:12 *2643:B2 4.77719e-05
18 *310:12 *2824:A3 8.52883e-05
*RES
1 *2821:X *311:4 1.6 
2 *311:4 *2824:A3 13.55 
3 *311:4 *2643:B2 10.295 
*END

*D_NET *312 0.0055117
*CONN
*I *2846:B I *D sky130_fd_sc_hd__nand2_1
*I *2823:D I *D sky130_fd_sc_hd__and4_1
*I *2865:A1 I *D sky130_fd_sc_hd__a21o_1
*I *2822:X O *D sky130_fd_sc_hd__and4_1
*CAP
1 *2846:B 3.98757e-05
2 *2823:D 0.000537599
3 *2865:A1 0.000104693
4 *2822:X 0.000792576
5 *312:27 0.00101982
6 *312:10 0.00133962
7 *2823:D *2847:A2 6.00847e-05
8 *2823:D *313:10 4.92604e-05
9 *2823:D *334:10 0
10 *2823:D *596:12 4.9253e-06
11 *2823:D *674:20 0
12 *2846:B *2847:A2 7.22772e-05
13 *2846:B *2853:A 4.87939e-05
14 *2846:B *2868:B 8.33066e-06
15 *2846:B *332:8 4.66108e-05
16 *2846:B *774:76 4.66108e-05
17 *2865:A1 *2866:B 4.28112e-06
18 *2865:A1 *3316:A 0.000122817
19 *312:10 *3274:CLK 0
20 *312:10 *3317:A 3.06697e-05
21 *312:10 *334:55 0
22 *312:27 *2853:A 0.000151477
23 *312:27 *2865:B1 0.000485494
24 *312:27 *2866:B 7.33283e-05
25 *312:27 *346:10 9.33229e-05
26 *312:27 *674:20 2.61825e-05
27 *2823:C *2823:D 0.000234973
28 *2847:B1 *2823:D 0.000118081
29 *2848:B1_N *2823:D 0
*RES
1 *2822:X *312:10 15.6975 
2 *312:10 *2865:A1 5.2275 
3 *312:10 *312:27 9.015 
4 *312:27 *2823:D 10.9725 
5 *312:27 *2846:B 5.0475 
*END

*D_NET *313 0.00252706
*CONN
*I *2642:A2 I *D sky130_fd_sc_hd__o21ai_1
*I *2824:B1 I *D sky130_fd_sc_hd__a32o_1
*I *2823:X O *D sky130_fd_sc_hd__and4_1
*CAP
1 *2642:A2 1.83028e-05
2 *2824:B1 0.000338199
3 *2823:X 0.000371349
4 *313:10 0.00072785
5 *2642:A2 *2642:A1 1.56428e-05
6 *2642:A2 *3277:D 4.66108e-05
7 *2824:B1 *3301:A 0.000185398
8 *313:10 *3278:D 0.000163204
9 *313:10 *3285:RESET_B 0
10 *313:10 *3301:A 0.000324278
11 *313:10 *596:12 4.82919e-05
12 *313:10 *674:20 0
13 *313:10 *775:14 9.35665e-05
14 *313:10 *775:21 2.20014e-05
15 *2823:D *313:10 4.92604e-05
16 *2824:A1 *2824:B1 0
17 *2824:A3 *2824:B1 9.49199e-05
18 *2847:B1 *313:10 2.8185e-05
*RES
1 *2823:X *313:10 11.775 
2 *313:10 *2824:B1 9.6525 
3 *313:10 *2642:A2 4.05 
*END

*D_NET *314 0.000453685
*CONN
*I *2826:A I *D sky130_fd_sc_hd__buf_1
*I *2825:X O *D sky130_fd_sc_hd__and2_1
*CAP
1 *2826:A 0.000128364
2 *2825:X 0.000128364
3 *2826:A *3318:A 8.46717e-05
4 *2826:A *780:30 0.000112284
*RES
1 *2825:X *2826:A 9.375 
*END

*D_NET *315 0.00454462
*CONN
*I *2652:A2 I *D sky130_fd_sc_hd__o21ai_1
*I *2828:A I *D sky130_fd_sc_hd__buf_2
*I *3116:A I *D sky130_fd_sc_hd__clkbuf_4
*I *2871:A I *D sky130_fd_sc_hd__clkbuf_4
*I *2827:X O *D sky130_fd_sc_hd__xor2_2
*CAP
1 *2652:A2 0
2 *2828:A 0
3 *3116:A 0.000130527
4 *2871:A 6.14912e-05
5 *2827:X 0.000587873
6 *315:39 0.000264462
7 *315:22 0.000470279
8 *315:12 0.000862726
9 *2871:A *350:20 0.000101966
10 *3116:A *796:30 0.000109845
11 *315:12 *2654:A1 0.000611924
12 *315:22 *2653:A2 0.000454522
13 *315:22 *350:20 4.82919e-05
14 *315:22 *592:102 6.52265e-05
15 *315:22 *682:14 0
16 *315:22 *796:16 3.86529e-05
17 *315:39 *2639:A 4.43871e-06
18 *315:39 *2640:A0 0
19 *315:39 *316:22 5.83121e-06
20 *315:39 *359:83 8.78813e-05
21 *315:39 *796:30 1.34503e-05
22 *2639:B *315:22 0.000198945
23 *3293:D *315:12 4.05127e-05
24 *3294:D *315:12 0
25 *163:32 *315:12 3.45117e-05
26 *163:32 *315:22 0.000351268
*RES
1 *2827:X *315:12 14.39 
2 *315:12 *315:22 11.89 
3 *315:22 *2871:A 3.01 
4 *315:22 *315:39 6.34 
5 *315:39 *3116:A 4.12 
6 *315:39 *2828:A 1.6 
7 *315:12 *2652:A2 1.6 
*END

*D_NET *316 0.0269846
*CONN
*I *2640:A0 I *D sky130_fd_sc_hd__mux2_1
*I *2633:A0 I *D sky130_fd_sc_hd__mux2_1
*I *2628:A0 I *D sky130_fd_sc_hd__mux2_1
*I *2593:A0 I *D sky130_fd_sc_hd__mux2_1
*I *2623:A0 I *D sky130_fd_sc_hd__mux2_1
*I *2613:A0 I *D sky130_fd_sc_hd__mux2_1
*I *2608:A0 I *D sky130_fd_sc_hd__mux2_1
*I *2839:A1 I *D sky130_fd_sc_hd__mux2_1
*I *2618:A0 I *D sky130_fd_sc_hd__mux2_1
*I *2603:A0 I *D sky130_fd_sc_hd__mux2_1
*I *2828:X O *D sky130_fd_sc_hd__buf_2
*CAP
1 *2640:A0 0.000428233
2 *2633:A0 0
3 *2628:A0 0.000376882
4 *2593:A0 4.15986e-05
5 *2623:A0 0.00103687
6 *2613:A0 0.00059364
7 *2608:A0 0
8 *2839:A1 0.00017069
9 *2618:A0 0.000482324
10 *2603:A0 0
11 *2828:X 0
12 *316:89 0.000872689
13 *316:78 0.000667765
14 *316:72 0.000496704
15 *316:70 0.00105705
16 *316:60 0.00241955
17 *316:46 0.00189496
18 *316:36 0.00190129
19 *316:22 0.00172985
20 *316:4 0.00151915
21 *2593:A0 *2918:C 4.89078e-05
22 *2613:A0 *2608:A1 3.26889e-05
23 *2613:A0 *2612:B 0
24 *2613:A0 *2613:A1 5.2397e-05
25 *2613:A0 *2615:S 1.34594e-05
26 *2613:A0 *538:22 4.62396e-05
27 *2613:A0 *562:14 0.000139646
28 *2618:A0 *2805:B2 4.40899e-05
29 *2618:A0 *358:28 0
30 *2618:A0 *528:72 0.000238919
31 *2618:A0 *528:82 0.000385333
32 *2623:A0 *2623:A1 6.33103e-05
33 *2623:A0 *2623:S 8.34281e-06
34 *2623:A0 *2625:A1 0.000177775
35 *2623:A0 *3267:CLK 1.79098e-05
36 *2623:A0 *568:6 3.64998e-06
37 *2623:A0 *848:8 6.3124e-06
38 *2628:A0 *2595:A0 6.88421e-05
39 *2628:A0 *2628:A1 4.89295e-05
40 *2628:A0 *2628:S 2.20014e-05
41 *2628:A0 *2631:A 1.3758e-05
42 *2628:A0 *2877:B 2.84864e-05
43 *2628:A0 *322:10 0
44 *2628:A0 *350:48 0.000128913
45 *2628:A0 *571:18 0
46 *2640:A0 *2651:B 4.43871e-06
47 *2640:A0 *359:83 0
48 *2640:A0 *630:12 0
49 *2640:A0 *796:30 2.91291e-05
50 *2839:A1 *2605:A1 4.58257e-05
51 *2839:A1 *2797:B2 0.000236648
52 *2839:A1 *2839:A0 3.18973e-05
53 *2839:A1 *2839:S 1.20052e-05
54 *2839:A1 *358:28 6.1627e-05
55 *2839:A1 *924:8 0.000171296
56 *316:22 *2633:S 7.23533e-05
57 *316:22 *2650:A 0
58 *316:22 *2651:B 0
59 *316:22 *3271:CLK 0.000131088
60 *316:22 *3280:CLK 0.000242345
61 *316:22 *3281:RESET_B 0
62 *316:22 *3351:A 6.28843e-05
63 *316:22 *356:14 3.50033e-05
64 *316:22 *359:83 0.00030018
65 *316:22 *796:30 4.40325e-06
66 *316:36 *2877:B 0.000120141
67 *316:36 *323:26 0.000311998
68 *316:36 *328:149 0.000211988
69 *316:36 *350:48 6.44445e-05
70 *316:36 *356:14 0.000284969
71 *316:36 *415:52 0.000534592
72 *316:46 *2790:A1 0.000240128
73 *316:46 *2877:B 0.000269314
74 *316:46 *2918:B 0.000255379
75 *316:46 *2997:A 0.000177326
76 *316:46 *370:33 6.81888e-05
77 *316:46 *715:47 0.000132985
78 *316:46 *827:10 0.000119873
79 *316:60 *2747:A1 0.000309415
80 *316:60 *2913:A0 0.000193666
81 *316:60 *2914:A 0.000460061
82 *316:60 *2918:A 2.69217e-05
83 *316:60 *2918:B 3.0933e-05
84 *316:60 *3437:A 0.00011078
85 *316:60 *385:16 2.27064e-05
86 *316:60 *395:57 0.000122393
87 *316:60 *532:18 6.72055e-05
88 *316:70 *2804:A2 0
89 *316:70 *2805:B2 5.27389e-05
90 *316:70 *395:57 1.84465e-05
91 *316:70 *528:28 6.88676e-05
92 *316:70 *600:26 7.15928e-05
93 *316:72 *2804:A2 0
94 *316:72 *2805:B2 2.87867e-05
95 *316:78 *2605:A1 8.65905e-05
96 *316:78 *2605:S 9.27495e-05
97 *316:78 *2804:A2 0
98 *316:78 *2805:B2 0.000172957
99 *316:78 *328:44 0
100 *316:78 *511:24 0.000136313
101 *316:78 *599:12 0
102 *316:89 *2603:A1 4.82863e-05
103 *316:89 *2605:S 5.05437e-05
104 *316:89 *2805:B2 0.000132714
105 *316:89 *328:30 0
106 *316:89 *358:28 0
107 *2639:B *2640:A0 2.78732e-05
108 *2727:B1 *2623:A0 9.63404e-05
109 *2755:A2 *2628:A0 0.000122801
110 *2757:B1 *2593:A0 7.1624e-05
111 *2757:B1 *316:46 8.92729e-05
112 *2763:B1 *316:36 2.2071e-05
113 *2763:B2 *2628:A0 1.7635e-05
114 *2790:A2 *316:46 1.91597e-05
115 *2798:A3 *316:60 5.06382e-06
116 *2799:C1 *316:60 7.96104e-06
117 *2808:B1 *2613:A0 2.61015e-05
118 *2819:B1 *316:22 8.49205e-05
119 *2819:B1 *316:36 4.66108e-05
120 *3156:D *316:60 7.65168e-05
121 *3260:D *316:78 5.51158e-05
122 *3261:D *316:78 0
123 *3267:D *2623:A0 6.25711e-06
124 *3269:D *2628:A0 7.97197e-06
125 *3281:D *316:22 4.21973e-05
126 *3281:D *316:36 2.75145e-05
127 *174:69 *2593:A0 9.97121e-06
128 *174:104 *316:60 0.000391026
129 *174:112 *2623:A0 0.000311813
130 *181:56 *316:60 0.000115068
131 *181:56 *316:70 0.000205376
132 *208:58 *2839:A1 0.000661473
133 *211:47 *316:22 0
134 *211:71 *316:36 9.72223e-05
135 *211:85 *316:60 3.6509e-05
136 *215:108 *316:70 0
137 *218:42 *2623:A0 8.9257e-05
138 *299:32 *2613:A0 0.000391787
139 *315:39 *2640:A0 0
140 *315:39 *316:22 5.83121e-06
*RES
1 *2828:X *316:4 1.6 
2 *316:4 *316:22 25.49 
3 *316:22 *316:36 12.0472 
4 *316:36 *316:46 19.055 
5 *316:46 *316:60 18.9472 
6 *316:60 *316:70 11.74 
7 *316:70 *316:72 0.87 
8 *316:72 *316:78 11.495 
9 *316:78 *2603:A0 1.6 
10 *316:78 *316:89 6.725 
11 *316:89 *2618:A0 10.605 
12 *316:89 *2839:A1 11.07 
13 *316:72 *2608:A0 3.6 
14 *316:70 *2613:A0 18.205 
15 *316:60 *2623:A0 21.34 
16 *316:46 *2593:A0 6.725 
17 *316:36 *2628:A0 10.89 
18 *316:22 *2633:A0 1.6 
19 *316:4 *2640:A0 10.94 
*END

*D_NET *317 0.00958492
*CONN
*I *2952:A I *D sky130_fd_sc_hd__or3_4
*I *2958:A I *D sky130_fd_sc_hd__or3_2
*I *2946:A I *D sky130_fd_sc_hd__or3_4
*I *2898:D_N I *D sky130_fd_sc_hd__or4b_4
*I *2928:B I *D sky130_fd_sc_hd__or3b_4
*I *2905:D_N I *D sky130_fd_sc_hd__or4b_4
*I *2934:B I *D sky130_fd_sc_hd__or3b_2
*I *2911:D_N I *D sky130_fd_sc_hd__or4b_2
*I *2863:B2 I *D sky130_fd_sc_hd__a2bb2o_1
*I *2833:A I *D sky130_fd_sc_hd__nand2_2
*I *2829:X O *D sky130_fd_sc_hd__buf_2
*CAP
1 *2952:A 2.04889e-05
2 *2958:A 0
3 *2946:A 6.46363e-05
4 *2898:D_N 0
5 *2928:B 0
6 *2905:D_N 1.86374e-05
7 *2934:B 0.000110289
8 *2911:D_N 1.83028e-05
9 *2863:B2 4.60526e-05
10 *2833:A 0.000137137
11 *2829:X 2.88526e-05
12 *317:113 0.000153434
13 *317:72 0.000498697
14 *317:66 0.000667849
15 *317:54 0.000549421
16 *317:52 0.000338604
17 *317:48 0.000562382
18 *317:38 0.000604013
19 *317:25 0.000290603
20 *317:6 0.00023231
21 *2833:A *2833:B 4.66742e-05
22 *2833:A *3276:CLK 7.61039e-05
23 *2833:A *319:44 5.42949e-05
24 *2863:B2 *3300:A 0.000159964
25 *2905:D_N *447:12 3.5678e-06
26 *2911:D_N *3190:CLK 1.56428e-05
27 *2911:D_N *321:28 4.66108e-05
28 *2934:B *2934:A 3.54647e-05
29 *2934:B *321:28 0
30 *2934:B *380:10 2.7881e-05
31 *2946:A *2958:C 0
32 *2946:A *336:23 1.34503e-05
33 *2946:A *336:25 0.00011964
34 *2946:A *340:43 0.000164874
35 *2946:A *340:53 8.65961e-05
36 *317:6 *2833:B 2.75229e-05
37 *317:25 *2851:B_N 5.34525e-05
38 *317:25 *3300:A 8.53113e-06
39 *317:38 *2952:C 8.40269e-05
40 *317:38 *3141:CLK 0.00015639
41 *317:38 *340:27 2.51419e-05
42 *317:38 *340:29 1.06624e-05
43 *317:38 *407:8 0.000217604
44 *317:38 *595:10 1.91597e-05
45 *317:48 *2874:A 4.82863e-05
46 *317:48 *2874:B 2.0514e-05
47 *317:48 *2917:A 0.000176602
48 *317:48 *2917:B 2.17185e-05
49 *317:48 *2917:C 1.05984e-05
50 *317:48 *340:29 2.33708e-05
51 *317:48 *340:41 3.40395e-05
52 *317:48 *407:8 8.5844e-05
53 *317:48 *773:59 0.000110147
54 *317:52 *2874:B 3.65496e-05
55 *317:54 *2898:B 5.81712e-05
56 *317:54 *2898:C 4.66108e-05
57 *317:54 *2971:B 2.49909e-05
58 *317:54 *340:53 7.23635e-05
59 *317:54 *340:61 0.000456018
60 *317:54 *370:119 4.66108e-05
61 *317:54 *371:16 4.82863e-05
62 *317:54 *419:158 4.21973e-05
63 *317:66 *2971:B 3.21081e-06
64 *317:66 *3015:S 5.94035e-05
65 *317:66 *340:61 4.08789e-05
66 *317:66 *340:88 0
67 *317:66 *419:158 0.000120655
68 *317:66 *432:46 9.17274e-05
69 *317:66 *447:12 1.08758e-05
70 *317:66 *678:12 0.000335006
71 *317:66 *759:12 1.79098e-05
72 *317:72 *2905:A 0.000194299
73 *317:72 *3015:S 2.21074e-05
74 *317:72 *3095:A 2.0187e-05
75 *317:72 *370:88 3.86413e-05
76 *317:72 *380:10 0.000111313
77 *317:72 *474:49 0.000126193
78 *317:72 *498:10 4.77719e-05
79 *317:113 *2875:B 0.000138277
80 *317:113 *2946:C 5.42991e-05
81 *317:113 *340:53 0
82 *317:113 *677:20 1.01152e-05
83 *3190:D *317:66 0.000211163
84 *183:56 *2934:B 0.000207435
85 *183:56 *317:72 0.000217547
86 *215:68 *2833:A 4.06525e-05
87 *215:68 *2863:B2 0.000159964
88 *215:68 *317:25 0.000147397
*RES
1 *2829:X *317:6 2.05 
2 *317:6 *2833:A 8.06 
3 *317:6 *317:25 3.89 
4 *317:25 *2863:B2 5.49 
5 *317:25 *317:38 5.9 
6 *317:38 *317:48 6.9 
7 *317:48 *317:52 1.155 
8 *317:52 *317:54 6.315 
9 *317:54 *317:66 10.825 
10 *317:66 *317:72 9.59 
11 *317:72 *2911:D_N 4.05 
12 *317:72 *2934:B 6.255 
13 *317:66 *2905:D_N 1.96 
14 *317:54 *2928:B 1.6 
15 *317:52 *2898:D_N 1.6 
16 *317:48 *317:113 5.89 
17 *317:113 *2946:A 4.135 
18 *317:113 *2958:A 1.6 
19 *317:38 *2952:A 1.96 
*END

*D_NET *318 0.00887962
*CONN
*I *2857:A1 I *D sky130_fd_sc_hd__a31o_1
*I *2849:A1 I *D sky130_fd_sc_hd__o21ai_1
*I *2850:A1 I *D sky130_fd_sc_hd__o21a_1
*I *2964:A I *D sky130_fd_sc_hd__or4_2
*I *2917:A I *D sky130_fd_sc_hd__or4b_2
*I *2890:A I *D sky130_fd_sc_hd__or3_2
*I *2940:A I *D sky130_fd_sc_hd__or4b_4
*I *2860:A I *D sky130_fd_sc_hd__nand2_1
*I *2832:A I *D sky130_fd_sc_hd__and3_1
*I *2851:B_N I *D sky130_fd_sc_hd__or2b_1
*I *2830:X O *D sky130_fd_sc_hd__buf_2
*CAP
1 *2857:A1 0
2 *2849:A1 0.000209792
3 *2850:A1 6.38896e-05
4 *2964:A 0
5 *2917:A 6.90227e-05
6 *2890:A 6.9117e-05
7 *2940:A 0.000193562
8 *2860:A 0
9 *2832:A 0
10 *2851:B_N 0.000294203
11 *2830:X 0
12 *318:123 0.000664462
13 *318:117 0.000518799
14 *318:84 0.000242963
15 *318:62 0.000421215
16 *318:52 0.000358761
17 *318:50 0.000645081
18 *318:10 0.00122031
19 *318:4 0.000435327
20 *2849:A1 *2849:B1 1.37328e-05
21 *2849:A1 *334:65 0.000100659
22 *2850:A1 *2858:A 0
23 *2850:A1 *334:76 0.000116158
24 *2851:B_N *2829:A 4.61701e-06
25 *2851:B_N *2851:A 0.000159863
26 *2851:B_N *2854:A1_N 2.88357e-05
27 *2851:B_N *3300:A 0.000172401
28 *2851:B_N *3316:A 5.80663e-05
29 *2851:B_N *319:10 2.97206e-06
30 *2851:B_N *319:12 2.39522e-05
31 *2890:A *340:41 0.000150654
32 *2890:A *415:27 0.000150654
33 *2917:A *2917:B 2.51154e-05
34 *2917:A *2917:C 6.04482e-05
35 *2940:A *2940:B 0.00012182
36 *2940:A *399:12 4.29445e-05
37 *2940:A *677:20 0.000179701
38 *318:10 *2829:A 3.5813e-05
39 *318:10 *2873:A 0.000154098
40 *318:10 *3138:CLK 2.75229e-05
41 *318:10 *319:10 3.79937e-05
42 *318:10 *770:14 7.67415e-06
43 *318:50 *2862:A 4.53624e-05
44 *318:50 *2964:C 1.87328e-05
45 *318:50 *2964:D 7.9642e-06
46 *318:50 *3066:A0 0.000123529
47 *318:50 *321:28 4.78366e-05
48 *318:52 *2862:A 3.83194e-05
49 *318:52 *321:28 6.83025e-05
50 *318:62 *2861:A 0.000184984
51 *318:62 *2862:A 5.78829e-05
52 *318:62 *321:28 0.000131116
53 *318:62 *343:10 6.37043e-05
54 *318:62 *677:20 5.16418e-05
55 *318:62 *772:67 2.20014e-05
56 *318:62 *773:49 4.75959e-05
57 *318:62 *773:59 4.75991e-05
58 *318:84 *340:41 6.03229e-05
59 *318:84 *415:27 0.000189155
60 *318:84 *773:49 2.03074e-05
61 *318:117 *2854:B1 4.18603e-06
62 *318:117 *3138:CLK 4.66742e-05
63 *318:117 *663:34 0
64 *318:123 *2854:B1 4.40899e-05
65 *318:123 *334:65 1.83847e-05
66 *3138:D *318:117 2.66935e-05
67 *3139:D *318:117 0.00012904
68 *3139:D *318:123 7.19383e-05
69 *211:14 *2851:B_N 0
70 *215:68 *2851:B_N 0
71 *218:12 *2940:A 0
72 *218:12 *318:62 0
73 *317:25 *2851:B_N 5.34525e-05
74 *317:48 *2917:A 0.000176602
*RES
1 *2830:X *318:4 1.6 
2 *318:4 *318:10 6.4625 
3 *318:10 *2851:B_N 10.7625 
4 *318:10 *2832:A 3.6 
5 *318:10 *318:50 5.41603 
6 *318:50 *318:52 0.795 
7 *318:52 *318:62 7.235 
8 *318:62 *2860:A 3.6 
9 *318:62 *2940:A 7.575 
10 *318:52 *318:84 4.4 
11 *318:84 *2890:A 5.49 
12 *318:84 *2917:A 5.805 
13 *318:50 *2964:A 1.6 
14 *318:4 *318:117 4.43 
15 *318:117 *318:123 6.935 
16 *318:123 *2850:A1 6.98 
17 *318:123 *2849:A1 4.645 
18 *318:117 *2857:A1 3.6 
*END

*D_NET *319 0.00916901
*CONN
*I *2857:A2 I *D sky130_fd_sc_hd__a31o_1
*I *2854:B1 I *D sky130_fd_sc_hd__a2bb2o_1
*I *2873:B_N I *D sky130_fd_sc_hd__or2b_1
*I *2964:B I *D sky130_fd_sc_hd__or4_2
*I *2940:B I *D sky130_fd_sc_hd__or4b_4
*I *2860:B I *D sky130_fd_sc_hd__nand2_1
*I *2917:B I *D sky130_fd_sc_hd__or4b_2
*I *2890:B I *D sky130_fd_sc_hd__or3_2
*I *2832:B I *D sky130_fd_sc_hd__and3_1
*I *2851:A I *D sky130_fd_sc_hd__or2b_1
*I *2831:X O *D sky130_fd_sc_hd__clkbuf_2
*CAP
1 *2857:A2 0
2 *2854:B1 0.000224672
3 *2873:B_N 0
4 *2964:B 0
5 *2940:B 0.000168535
6 *2860:B 0
7 *2917:B 0.000101816
8 *2890:B 0.000143858
9 *2832:B 3.58965e-05
10 *2851:A 0.000247693
11 *2831:X 0.000308895
12 *319:128 0.000422415
13 *319:88 0.000667938
14 *319:56 0.000291493
15 *319:54 0.000630318
16 *319:50 0.000280001
17 *319:44 0.000479286
18 *319:34 0.000482123
19 *319:12 0.000310348
20 *319:10 0.000335653
21 *2832:B *2833:B 2.75145e-05
22 *2851:A *2854:A1_N 0.000122821
23 *2851:A *2856:A 0.000286635
24 *2854:B1 *2850:B1 0
25 *2854:B1 *2854:A2_N 5.4155e-06
26 *2854:B1 *2854:B2 4.82919e-05
27 *2854:B1 *2855:A1 8.65905e-05
28 *2854:B1 *2857:A3 4.82863e-05
29 *2854:B1 *2863:B1 3.12176e-05
30 *2854:B1 *338:29 3.31103e-05
31 *2854:B1 *663:34 0.000196613
32 *2854:B1 *663:40 0.000117825
33 *2890:B *2875:A 3.17398e-05
34 *2890:B *352:20 0
35 *2890:B *415:27 0.000264336
36 *2917:B *2917:C 4.89295e-05
37 *2917:B *340:41 0.000118081
38 *2917:B *772:82 1.23763e-05
39 *2940:B *2940:C 2.15973e-05
40 *2940:B *3047:A 8.5913e-05
41 *2940:B *677:20 0.000149342
42 *319:10 *2829:A 0
43 *319:10 *2856:A 3.09233e-05
44 *319:10 *3276:CLK 0
45 *319:10 *663:8 0
46 *319:10 *663:92 0
47 *319:10 *772:18 0.000108329
48 *319:10 *772:20 0.000149766
49 *319:10 *773:24 0
50 *319:12 *2856:A 7.30547e-05
51 *319:44 *2829:A 4.66108e-05
52 *319:44 *2832:C 2.35094e-05
53 *319:44 *2833:B 0.000243064
54 *319:44 *321:28 4.82863e-05
55 *319:50 *2833:B 0
56 *319:50 *2862:A 8.35106e-05
57 *319:50 *321:28 0.000102818
58 *319:54 *2862:A 0.000121643
59 *319:56 *2964:D 2.46089e-05
60 *319:56 *352:12 0
61 *319:56 *415:27 8.41536e-05
62 *319:88 *2941:B 1.90991e-05
63 *319:88 *2964:D 1.16467e-05
64 *319:88 *3047:A 2.24912e-05
65 *319:88 *3066:A0 8.22531e-05
66 *319:88 *415:27 3.04305e-05
67 *319:88 *677:20 4.12825e-05
68 *319:128 *2832:C 3.04064e-05
69 *319:128 *2833:B 3.57349e-05
70 *319:128 *2855:A1 6.76766e-05
71 *319:128 *2857:B1 0.000129588
72 *2833:A *319:44 5.42949e-05
73 *2851:B_N *2851:A 0.000159863
74 *2851:B_N *319:10 2.97206e-06
75 *2851:B_N *319:12 2.39522e-05
76 *2917:A *2917:B 2.51154e-05
77 *2940:A *2940:B 0.00012182
78 *3139:D *2854:B1 0
79 *211:14 *2851:A 7.07879e-05
80 *211:14 *319:10 0.000123751
81 *317:48 *2917:B 2.17185e-05
82 *318:10 *319:10 3.79937e-05
83 *318:117 *2854:B1 4.18603e-06
84 *318:123 *2854:B1 4.40899e-05
*RES
1 *2831:X *319:10 10.02 
2 *319:10 *319:12 0.87 
3 *319:12 *2851:A 9.69 
4 *319:12 *2832:B 4.05 
5 *319:10 *319:34 2 
6 *319:34 *319:44 5.52 
7 *319:44 *319:50 3.15 
8 *319:50 *319:54 3.14 
9 *319:54 *319:56 1.125 
10 *319:56 *2890:B 6.765 
11 *319:56 *2917:B 5.79 
12 *319:54 *319:88 3.04567 
13 *319:88 *2860:B 3.6 
14 *319:88 *2940:B 7.59 
15 *319:50 *2964:B 1.6 
16 *319:44 *2873:B_N 1.6 
17 *319:34 *319:128 4.14 
18 *319:128 *2854:B1 11.585 
19 *319:128 *2857:A2 1.6 
*END

*D_NET *320 0.00225996
*CONN
*I *2855:A1 I *D sky130_fd_sc_hd__o21ai_1
*I *2833:B I *D sky130_fd_sc_hd__nand2_2
*I *2832:X O *D sky130_fd_sc_hd__and3_1
*CAP
1 *2855:A1 0.000389771
2 *2833:B 0.00015926
3 *2832:X 0
4 *320:4 0.000549032
5 *2833:B *2829:A 4.82919e-05
6 *2855:A1 *2855:B1 7.37109e-05
7 *2855:A1 *2857:A3 4.08514e-05
8 *2855:A1 *2857:B1 0.000158072
9 *2855:A1 *2858:B 8.49205e-05
10 *2855:A1 *334:76 4.70995e-05
11 *2855:A1 *663:34 0.00010052
12 *2855:A1 *663:40 7.36562e-05
13 *2832:B *2833:B 2.75145e-05
14 *2833:A *2833:B 4.66742e-05
15 *2854:B1 *2855:A1 8.65905e-05
16 *317:6 *2833:B 2.75229e-05
17 *319:44 *2833:B 0.000243064
18 *319:50 *2833:B 0
19 *319:128 *2833:B 3.57349e-05
20 *319:128 *2855:A1 6.76766e-05
*RES
1 *2832:X *320:4 1.6 
2 *320:4 *2833:B 5.53 
3 *320:4 *2855:A1 13.865 
*END

*D_NET *321 0.0303355
*CONN
*I *2973:A I *D sky130_fd_sc_hd__nor2_1
*I *2838:A I *D sky130_fd_sc_hd__nor2_1
*I *2557:A I *D sky130_fd_sc_hd__or2_1
*I *3060:A I *D sky130_fd_sc_hd__nor2_1
*I *2833:Y O *D sky130_fd_sc_hd__nand2_2
*CAP
1 *2973:A 0
2 *2838:A 0.000228675
3 *2557:A 0.00148785
4 *3060:A 0.00205626
5 *2833:Y 0.00207118
6 *321:63 0.00600097
7 *321:34 0.0063491
8 *321:28 0.00207957
9 *2557:A *2602:A 0.000306436
10 *2557:A *2602:B 1.87977e-05
11 *2557:A *2604:A 0.000574284
12 *2557:A *2605:S 0.000253602
13 *2557:A *2616:A 3.02906e-05
14 *2557:A *3354:A 4.66108e-05
15 *2557:A *328:48 6.67086e-05
16 *2557:A *358:36 0.000140912
17 *2557:A *511:24 0.00106176
18 *2557:A *538:22 0.000316663
19 *2557:A *556:8 0.000135084
20 *2557:A *817:10 0
21 *2838:A *2602:A 7.49327e-05
22 *2838:A *2797:B2 0
23 *2838:A *3151:CLK 0.0001274
24 *2838:A *359:18 0
25 *2838:A *511:24 8.49205e-05
26 *3060:A *3060:B 2.99518e-06
27 *3060:A *3070:A 0.00104453
28 *3060:A *3080:A 0.00103543
29 *321:28 *2707:A1 0.000154981
30 *321:28 *2861:A 3.96737e-05
31 *321:28 *2861:C_N 8.40213e-05
32 *321:28 *2862:A 3.47415e-05
33 *321:28 *2911:A 0.000203628
34 *321:28 *2911:C 3.26889e-05
35 *321:28 *2934:A 8.40213e-05
36 *321:28 *2974:S 0.000119756
37 *321:28 *3015:A0 3.62583e-06
38 *321:28 *3016:A 0.000159189
39 *321:28 *3052:A 0.000195432
40 *321:28 *3190:CLK 8.35936e-05
41 *321:28 *3398:A 9.87313e-05
42 *321:28 *343:10 6.71882e-05
43 *321:28 *376:14 6.52942e-05
44 *321:28 *380:10 4.82863e-05
45 *321:28 *419:158 7.03893e-05
46 *321:28 *421:12 8.57024e-05
47 *321:28 *772:67 8.41307e-05
48 *321:34 *2770:A1 1.88602e-05
49 *321:34 *3001:A1 1.7635e-05
50 *321:63 *2797:B2 0
51 *321:63 *3070:A 2.37183e-05
52 *321:63 *3080:A 2.6397e-05
53 *321:63 *369:74 0.000129951
54 *2728:A *2557:A 0
55 *2735:A2 *2838:A 0.000206116
56 *2735:A2 *321:63 6.00944e-05
57 *2800:A2 *321:63 0.00166799
58 *2911:D_N *321:28 4.66108e-05
59 *2934:B *321:28 0
60 *3162:D *2838:A 2.30258e-05
61 *3263:D *2557:A 2.49909e-05
62 *176:74 *321:63 0.000114677
63 *183:56 *321:28 0
64 *197:28 *321:63 0.000267014
65 *197:128 *3060:A 0
66 *318:50 *321:28 4.78366e-05
67 *318:52 *321:28 6.83025e-05
68 *318:62 *321:28 0.000131116
69 *319:44 *321:28 4.82863e-05
70 *319:50 *321:28 0.000102818
*RES
1 *2833:Y *321:28 39.605 
2 *321:28 *321:34 2.7325 
3 *321:34 *3060:A 8.68223 
4 *321:34 *321:63 13.4443 
5 *321:63 *2557:A 32.99 
6 *321:63 *2838:A 11.09 
7 *321:28 *2973:A 1.6 
*END

*D_NET *322 0.00965442
*CONN
*I *2877:A I *D sky130_fd_sc_hd__or2_1
*I *2836:A I *D sky130_fd_sc_hd__or2_1
*I *2899:A I *D sky130_fd_sc_hd__nor2_1
*I *2912:A I *D sky130_fd_sc_hd__nor2_1
*I *2906:A I *D sky130_fd_sc_hd__nor2_1
*I *2918:A I *D sky130_fd_sc_hd__or3_2
*I *2891:A I *D sky130_fd_sc_hd__or2_1
*I *2885:A I *D sky130_fd_sc_hd__or2_1
*I *2834:Y O *D sky130_fd_sc_hd__nand3_4
*CAP
1 *2877:A 7.31171e-05
2 *2836:A 6.86566e-05
3 *2899:A 0
4 *2912:A 0
5 *2906:A 7.79673e-05
6 *2918:A 1.66688e-05
7 *2891:A 2.89988e-05
8 *2885:A 0
9 *2834:Y 0.000668439
10 *322:61 0.000613501
11 *322:42 0.0006486
12 *322:31 0.000366506
13 *322:18 0.000367853
14 *322:16 0.000691627
15 *322:12 0.000667824
16 *322:10 0.00077584
17 *2836:A *2758:A 9.03081e-05
18 *2836:A *2836:B 4.94326e-05
19 *2836:A *350:48 3.04982e-05
20 *2877:A *359:70 0.000107952
21 *2891:A *2891:B 4.66108e-05
22 *2906:A *2582:A 1.72577e-05
23 *2906:A *2912:B 7.15734e-05
24 *2906:A *377:10 1.32102e-05
25 *2918:A *385:16 2.49909e-05
26 *322:10 *2631:A 0.000104672
27 *322:10 *2758:A 8.80293e-06
28 *322:10 *2836:B 0
29 *322:10 *2877:B 8.8266e-05
30 *322:10 *323:26 3.86814e-05
31 *322:10 *361:54 0
32 *322:10 *571:18 0.00042523
33 *322:12 *2758:A 4.66108e-05
34 *322:12 *359:70 0.00014766
35 *322:16 *2758:A 0.000638439
36 *322:16 *2899:B 3.2732e-05
37 *322:16 *359:70 0.000155601
38 *322:18 *2885:B 4.47209e-05
39 *322:18 *2899:B 0.000122184
40 *322:31 *2885:B 1.62913e-05
41 *322:31 *2886:A0 0.000124895
42 *322:31 *2886:A1 6.27114e-05
43 *322:31 *2888:S 4.9253e-06
44 *322:31 *362:6 0.000123248
45 *322:31 *385:16 0.00011352
46 *322:31 *528:18 0.000607455
47 *322:42 *385:16 0.000150249
48 *322:61 *2596:A 2.63208e-06
49 *322:61 *2912:B 5.08762e-05
50 *322:61 *2918:C 0.000111687
51 *322:61 *3255:CLK 8.79325e-05
52 *322:61 *384:43 3.18891e-05
53 *322:61 *419:61 2.65814e-06
54 *2628:A0 *322:10 0
55 *2683:B *322:10 2.3429e-05
56 *2791:D *322:10 0
57 *3254:D *322:61 4.82319e-06
58 *3269:D *322:10 1.79483e-05
59 *174:18 *322:10 0.00026034
60 *174:35 *2877:A 8.41307e-05
61 *174:35 *322:12 5.7342e-05
62 *174:35 *322:16 4.35432e-05
63 *174:69 *322:61 0
64 *174:83 *322:61 3.44105e-05
65 *208:18 *322:42 3.90844e-05
66 *208:18 *322:61 7.42078e-05
67 *208:20 *322:31 6.04258e-05
68 *208:20 *322:42 4.37349e-05
69 *250:8 *322:16 2.20732e-05
70 *316:60 *2918:A 2.69217e-05
*RES
1 *2834:Y *322:10 18.2 
2 *322:10 *322:12 1.485 
3 *322:12 *322:16 10.035 
4 *322:16 *322:18 2.52 
5 *322:18 *2885:A 1.6 
6 *322:18 *322:31 9.71 
7 *322:31 *2891:A 4.05 
8 *322:31 *322:42 2.4 
9 *322:42 *2918:A 4.05 
10 *322:42 *322:61 10.55 
11 *322:61 *2906:A 3.46 
12 *322:61 *2912:A 1.6 
13 *322:16 *2899:A 1.6 
14 *322:12 *2836:A 7.49 
15 *322:10 *2877:A 3.46 
*END

*D_NET *323 0.0144135
*CONN
*I *2875:A I *D sky130_fd_sc_hd__or2_1
*I *2836:B I *D sky130_fd_sc_hd__or2_1
*I *2897:A I *D sky130_fd_sc_hd__buf_2
*I *2835:X O *D sky130_fd_sc_hd__or4b_2
*CAP
1 *2875:A 6.41302e-05
2 *2836:B 0.000195075
3 *2897:A 2.7298e-05
4 *2835:X 0.00109839
5 *323:62 0.00251337
6 *323:26 0.00117215
7 *323:10 0.00449739
8 *2836:B *2758:A 7.21296e-06
9 *2836:B *2877:B 2.59981e-05
10 *2836:B *350:48 0.000280925
11 *2875:A *2876:B 0.000114196
12 *2875:A *352:20 7.98745e-06
13 *2875:A *415:27 0
14 *2897:A *2556:B 1.14169e-05
15 *2897:A *528:135 8.35068e-05
16 *323:10 *2677:A 0.00010635
17 *323:10 *2835:D_N 0.000124384
18 *323:10 *2981:S 0.000104457
19 *323:10 *3312:A 4.66108e-05
20 *323:10 *359:83 2.65814e-06
21 *323:10 *795:62 5.83121e-06
22 *323:26 *2556:B 4.20701e-06
23 *323:26 *2632:B 0.00013526
24 *323:26 *2877:B 1.11052e-05
25 *323:26 *528:135 2.91443e-05
26 *323:62 *2699:A_N 6.74079e-05
27 *323:62 *2869:A2_N 0
28 *323:62 *2876:A 5.20849e-05
29 *323:62 *2876:B 7.42098e-05
30 *323:62 *2981:S 0.000373651
31 *323:62 *2984:S 9.07429e-05
32 *323:62 *2985:A 7.1624e-05
33 *323:62 *2987:S 0.000116187
34 *323:62 *2988:A 0.000117428
35 *323:62 *3181:CLK 0
36 *323:62 *3278:RESET_B 0
37 *323:62 *3316:A 0.000932633
38 *323:62 *336:12 2.62526e-05
39 *323:62 *338:29 0
40 *323:62 *352:34 1.0691e-05
41 *323:62 *419:136 0.000497928
42 *323:62 *663:40 0.000282661
43 *323:62 *774:92 0
44 *323:62 *802:12 5.20968e-05
45 *2677:B *323:10 2.75145e-05
46 *2678:A *323:10 0.000122155
47 *2763:B1 *323:26 0.000133176
48 *2836:A *2836:B 4.94326e-05
49 *2890:B *2875:A 3.17398e-05
50 *3180:D *323:62 0
51 *3211:D *323:62 0
52 *211:71 *323:26 5.57639e-05
53 *215:86 *2897:A 2.51154e-05
54 *215:86 *323:26 0.000183295
55 *316:36 *323:26 0.000311998
56 *322:10 *2836:B 0
57 *322:10 *323:26 3.86814e-05
*RES
1 *2835:X *323:10 17.0325 
2 *323:10 *323:26 7.7433 
3 *323:26 *2897:A 2.395 
4 *323:26 *2836:B 9.89 
5 *323:10 *323:62 48.3425 
6 *323:62 *2875:A 7.235 
*END

*D_NET *324 0.000454773
*CONN
*I *2837:A I *D sky130_fd_sc_hd__buf_2
*I *2836:X O *D sky130_fd_sc_hd__or2_1
*CAP
1 *2837:A 0.000123677
2 *2836:X 0.000123677
3 *2837:A *2636:A 0.000106107
4 *2837:A *2758:A 4.61007e-06
5 *2837:A *350:48 0
6 *2819:B1 *2837:A 4.77719e-05
7 *3281:D *2837:A 4.89295e-05
*RES
1 *2836:X *2837:A 9.48 
*END

*D_NET *325 0.0142483
*CONN
*I *2941:A I *D sky130_fd_sc_hd__or2_1
*I *2965:A I *D sky130_fd_sc_hd__or2_1
*I *2953:A I *D sky130_fd_sc_hd__or2_1
*I *2959:A I *D sky130_fd_sc_hd__or2_1
*I *2947:A I *D sky130_fd_sc_hd__nor2_1
*I *2838:B I *D sky130_fd_sc_hd__nor2_1
*I *2935:A I *D sky130_fd_sc_hd__nor2_1
*I *2929:A I *D sky130_fd_sc_hd__nor2_1
*I *2923:A I *D sky130_fd_sc_hd__nor2_1
*I *2837:X O *D sky130_fd_sc_hd__buf_2
*CAP
1 *2941:A 0
2 *2965:A 5.73503e-05
3 *2953:A 0
4 *2959:A 0
5 *2947:A 4.51823e-05
6 *2838:B 0.000249757
7 *2935:A 0
8 *2929:A 1.16927e-05
9 *2923:A 0.000147266
10 *2837:X 0.000370025
11 *325:118 0.000534776
12 *325:101 0.000592295
13 *325:57 0.000118756
14 *325:49 0.000705247
15 *325:32 0.000680703
16 *325:28 0.00052857
17 *325:16 0.000797684
18 *325:8 0.000754465
19 *2838:B *2894:A0 8.23457e-05
20 *2838:B *2894:A1 0.000213616
21 *2838:B *2894:S 0.000342778
22 *2838:B *358:28 4.70919e-05
23 *2838:B *396:12 0.000377308
24 *2923:A *2923:B 6.92161e-05
25 *2923:A *369:132 0.000122817
26 *2923:A *385:16 7.81695e-05
27 *2929:A *2933:A 4.82863e-05
28 *2965:A *2953:B 1.14169e-05
29 *2965:A *2965:B 8.41384e-05
30 *2965:A *408:8 2.10841e-05
31 *325:8 *2941:B 4.77757e-05
32 *325:16 *2736:A1 9.54469e-05
33 *325:16 *2881:A 0.000878446
34 *325:16 *2959:B 0.000132867
35 *325:16 *605:8 0.000120313
36 *325:16 *899:10 0.000171172
37 *325:28 *2881:A 3.74161e-05
38 *325:28 *3150:CLK 0.000142051
39 *325:28 *3435:A 2.16917e-05
40 *325:28 *328:20 0.000528284
41 *325:28 *358:6 0.000148084
42 *325:28 *358:28 0.000317407
43 *325:28 *917:8 1.91597e-05
44 *325:32 *2892:A0 4.99619e-05
45 *325:32 *2892:A1 0.000387902
46 *325:32 *2892:S 9.27495e-05
47 *325:49 *2886:A0 0.000132096
48 *325:49 *2892:A0 0.000359917
49 *325:49 *2893:A 0.000167879
50 *325:49 *385:16 7.76246e-05
51 *325:49 *511:24 0.000216801
52 *325:57 *2930:A0 2.75145e-05
53 *325:57 *2930:S 1.64319e-05
54 *325:57 *2935:B 4.43871e-06
55 *325:57 *396:12 0.000116165
56 *325:57 *511:24 4.41506e-05
57 *325:101 *2880:A 0.000134124
58 *325:101 *2959:B 7.19229e-05
59 *325:101 *328:20 6.99329e-05
60 *325:118 *2880:A 0.000122797
61 *325:118 *2953:B 8.64421e-05
62 *325:118 *2960:S 0
63 *325:118 *328:20 0.00011138
64 *325:118 *350:48 0.000136877
65 *325:118 *693:24 6.51951e-05
66 *2734:A2 *2923:A 7.47709e-05
67 *2734:A2 *325:49 6.57949e-06
68 *2809:B1 *2965:A 0.00018288
69 *2809:B1 *325:118 0.000160314
70 *2816:A *325:32 4.82863e-05
71 *2816:B *325:32 1.34503e-05
72 *2816:C *325:32 4.66108e-05
73 *2817:A2 *325:28 0.000106379
74 *2817:A2 *325:101 0.00022786
75 *2819:A1 *325:8 0.000103003
76 *2819:A1 *325:16 0.00015639
77 *2819:B1 *325:8 0.000158532
78 *3281:D *325:8 3.81652e-05
79 *181:75 *2838:B 0.000211624
80 *181:75 *2929:A 4.66108e-05
81 *181:75 *325:57 0
82 *187:100 *2947:A 4.66108e-05
83 *187:112 *2947:A 1.08758e-05
84 *187:112 *325:32 0.000160057
85 *197:28 *325:57 0.000149699
86 *218:126 *325:16 5.51727e-05
*RES
1 *2837:X *325:8 6.55 
2 *325:8 *325:16 15.79 
3 *325:16 *325:28 12.67 
4 *325:28 *325:32 7.625 
5 *325:32 *2923:A 7.395 
6 *325:32 *325:49 11.525 
7 *325:49 *325:57 6.94 
8 *325:57 *2929:A 2.05 
9 *325:57 *2935:A 1.6 
10 *325:49 *2838:B 14.285 
11 *325:28 *2947:A 2.41 
12 *325:16 *325:101 7.495 
13 *325:101 *2959:A 1.6 
14 *325:101 *325:118 13.48 
15 *325:118 *2953:A 1.6 
16 *325:118 *2965:A 3.43 
17 *325:8 *2941:A 1.6 
*END

*D_NET *326 0.00106157
*CONN
*I *2842:S I *D sky130_fd_sc_hd__mux2_1
*I *2839:S I *D sky130_fd_sc_hd__mux2_1
*I *2838:Y O *D sky130_fd_sc_hd__nor2_1
*CAP
1 *2842:S 0.0001414
2 *2839:S 7.6775e-05
3 *2838:Y 3.41569e-05
4 *326:6 0.000252332
5 *2839:S *358:28 4.54251e-05
6 *2842:S *2842:A0 3.64998e-06
7 *2842:S *3151:CLK 9.30717e-05
8 *326:6 *358:28 2.77283e-05
9 *2839:A1 *2839:S 1.20052e-05
10 *187:112 *2842:S 0.000108835
11 *208:58 *2839:S 0.000158099
12 *208:58 *2842:S 7.23533e-05
13 *208:58 *326:6 3.57349e-05
*RES
1 *2838:Y *326:6 2.395 
2 *326:6 *2839:S 3.7 
3 *326:6 *2842:S 8.735 
*END

*D_NET *327 0.00136691
*CONN
*I *2840:A I *D sky130_fd_sc_hd__clkbuf_1
*I *2839:X O *D sky130_fd_sc_hd__mux2_1
*CAP
1 *2840:A 0.000341485
2 *2839:X 0.000341485
3 *2840:A *2896:A 4.77769e-05
4 *2840:A *328:30 0.000135903
5 *2840:A *358:28 0
6 *2840:A *528:72 9.28053e-05
7 *2840:A *599:59 3.91255e-05
8 *3135:D *2840:A 0.000136548
9 *208:58 *2840:A 0.000231783
*RES
1 *2839:X *2840:A 13.5 
*END

*D_NET *328 0.028625
*CONN
*I *2635:A0 I *D sky130_fd_sc_hd__mux2_1
*I *2595:A0 I *D sky130_fd_sc_hd__mux2_1
*I *2630:A0 I *D sky130_fd_sc_hd__mux2_1
*I *2842:A1 I *D sky130_fd_sc_hd__mux2_1
*I *2610:A0 I *D sky130_fd_sc_hd__mux2_1
*I *2605:A0 I *D sky130_fd_sc_hd__mux2_1
*I *2620:A0 I *D sky130_fd_sc_hd__mux2_1
*I *2625:A0 I *D sky130_fd_sc_hd__mux2_1
*I *2590:A0 I *D sky130_fd_sc_hd__mux2_1
*I *2615:A0 I *D sky130_fd_sc_hd__mux2_1
*I *2841:X O *D sky130_fd_sc_hd__buf_2
*CAP
1 *2635:A0 7.33597e-05
2 *2595:A0 0.00163774
3 *2630:A0 8.87552e-05
4 *2842:A1 0
5 *2610:A0 0
6 *2605:A0 0
7 *2620:A0 0.000247125
8 *2625:A0 0
9 *2590:A0 0.000450462
10 *2615:A0 1.16861e-05
11 *2841:X 0
12 *328:149 0.00235971
13 *328:133 0.0011394
14 *328:71 0.000890754
15 *328:48 0.00076031
16 *328:46 0.000608196
17 *328:44 0.000301143
18 *328:30 0.000970204
19 *328:20 0.00280533
20 *328:4 0.00251635
21 *2590:A0 *2625:S 0.000210837
22 *2590:A0 *3296:A 1.37328e-05
23 *2590:A0 *350:120 2.40658e-05
24 *2595:A0 *2595:S 1.94213e-05
25 *2595:A0 *2630:S 0.000167527
26 *2595:A0 *2631:A 1.41095e-05
27 *2595:A0 *2978:A 2.49022e-05
28 *2595:A0 *3184:CLK 2.04319e-05
29 *2595:A0 *3269:CLK 3.72957e-05
30 *2595:A0 *350:48 7.03219e-05
31 *2595:A0 *419:61 0.000170652
32 *2595:A0 *606:102 0.000297572
33 *2615:A0 *2615:A1 4.82919e-05
34 *2615:A0 *538:22 4.66108e-05
35 *2620:A0 *2606:A 4.05358e-05
36 *2620:A0 *2618:A1 6.02202e-05
37 *2620:A0 *2619:A 0
38 *2620:A0 *3265:CLK 0.000375266
39 *2620:A0 *599:14 0.000132096
40 *2620:A0 *599:16 0.000177568
41 *2630:A0 *3268:CLK 0.000119873
42 *328:20 *2617:A 0.0018085
43 *328:20 *2737:B2 3.82728e-05
44 *328:20 *2839:A0 9.22294e-06
45 *328:20 *2842:A0 7.96104e-06
46 *328:20 *2880:A 0.000103515
47 *328:20 *2947:B 8.48688e-05
48 *328:20 *3150:CLK 8.02938e-06
49 *328:20 *372:14 5.92191e-05
50 *328:20 *796:30 4.203e-05
51 *328:30 *2610:A1 0.000183512
52 *328:30 *2610:S 0.000276441
53 *328:30 *2842:A0 1.77595e-05
54 *328:30 *2843:A 4.89295e-05
55 *328:30 *358:28 9.11794e-05
56 *328:30 *528:66 0.000130007
57 *328:30 *528:72 0.00023512
58 *328:44 *2611:A 1.61831e-05
59 *328:44 *2804:A2 1.16578e-05
60 *328:44 *3263:CLK 3.26889e-05
61 *328:44 *599:12 9.50342e-06
62 *328:44 *599:14 0.000159964
63 *328:46 *2604:A 2.76356e-05
64 *328:48 *2604:A 0.000123295
65 *328:48 *2615:A1 0.000257967
66 *328:48 *2616:A 0.00012349
67 *328:48 *538:22 8.40269e-05
68 *328:71 *2577:B 0.00011852
69 *328:71 *350:120 0.000593491
70 *328:71 *527:50 7.47284e-05
71 *328:71 *538:22 9.044e-05
72 *328:133 *2960:S 7.01148e-05
73 *328:133 *350:48 0
74 *328:133 *351:95 3.96284e-05
75 *328:133 *608:37 0.00034791
76 *328:133 *796:30 8.84166e-05
77 *328:149 *2630:S 4.72867e-05
78 *328:149 *2632:B 0.000113079
79 *328:149 *2790:A1 0.000136384
80 *328:149 *2965:B 0.000468159
81 *328:149 *351:95 4.20983e-05
82 *328:149 *359:70 0.000119762
83 *328:149 *415:52 0.000535453
84 *328:149 *511:10 7.21296e-06
85 *328:149 *511:150 0.000169738
86 *328:149 *608:37 0
87 *2557:A *328:48 6.67086e-05
88 *2628:A0 *2595:A0 6.88421e-05
89 *2727:B1 *328:71 0.00103196
90 *2729:A2 *2590:A0 0.000596023
91 *2755:A2 *2595:A0 0.000105343
92 *2763:B1 *328:149 4.01548e-05
93 *2763:B2 *2595:A0 5.55393e-05
94 *2763:B2 *328:149 8.56758e-05
95 *2798:B1 *328:30 7.66908e-05
96 *2805:B1 *2620:A0 0.000165396
97 *2807:A2 *328:71 0.000112147
98 *2808:A3 *328:71 4.66108e-05
99 *2808:B1 *328:71 3.52357e-05
100 *2817:A2 *328:133 7.01359e-05
101 *2819:A3 *328:133 6.72196e-05
102 *2840:A *328:30 0.000135903
103 *3184:D *2595:A0 4.82319e-06
104 *3269:D *2595:A0 5.22119e-05
105 *3271:D *328:149 0.000182104
106 *187:112 *328:30 0.000459144
107 *202:115 *2590:A0 0.000136984
108 *215:86 *2595:A0 2.86342e-05
109 *215:108 *2590:A0 6.97034e-05
110 *215:108 *328:71 2.49909e-05
111 *316:36 *328:149 0.000211988
112 *316:78 *328:44 0
113 *316:89 *328:30 0
114 *325:28 *328:20 0.000528284
115 *325:101 *328:20 6.99329e-05
116 *325:118 *328:20 0.00011138
*RES
1 *2841:X *328:4 1.6 
2 *328:4 *328:20 19.3663 
3 *328:20 *328:30 21.7 
4 *328:30 *328:44 8.8 
5 *328:44 *328:46 0.795 
6 *328:46 *328:48 6.66 
7 *328:48 *2615:A0 2.05 
8 *328:48 *328:71 21.44 
9 *328:71 *2590:A0 16.115 
10 *328:71 *2625:A0 1.6 
11 *328:46 *2620:A0 13.61 
12 *328:44 *2605:A0 1.6 
13 *328:30 *2610:A0 1.6 
14 *328:20 *2842:A1 1.6 
15 *328:4 *328:133 11.5 
16 *328:133 *328:149 23.46 
17 *328:149 *2630:A0 4.74 
18 *328:149 *2595:A0 29.395 
19 *328:133 *2635:A0 2.395 
*END

*D_NET *329 0.000161924
*CONN
*I *2843:A I *D sky130_fd_sc_hd__clkbuf_1
*I *2842:X O *D sky130_fd_sc_hd__mux2_1
*CAP
1 *2843:A 5.64972e-05
2 *2842:X 5.64972e-05
3 *328:30 *2843:A 4.89295e-05
*RES
1 *2842:X *2843:A 4.265 
*END

*D_NET *330 0.00570164
*CONN
*I *2848:A1 I *D sky130_fd_sc_hd__o21ba_2
*I *2849:A2 I *D sky130_fd_sc_hd__o21ai_1
*I *2855:A2 I *D sky130_fd_sc_hd__o21ai_1
*I *2844:Y O *D sky130_fd_sc_hd__nand2_1
*CAP
1 *2848:A1 0
2 *2849:A2 9.8921e-05
3 *2855:A2 0.0002618
4 *2844:Y 0.000588479
5 *330:28 0.00122075
6 *330:18 0.00144851
7 *2849:A2 *2854:B2 0.000139252
8 *2849:A2 *2855:B1 0
9 *2849:A2 *2858:A 4.49498e-05
10 *2849:A2 *3274:CLK 3.77199e-05
11 *2855:A2 *2854:B2 4.87317e-05
12 *2855:A2 *338:29 0.000239807
13 *330:18 *2823:A 8.52845e-05
14 *330:18 *2847:A1 0.000350338
15 *330:18 *2847:A2 0.000133583
16 *330:18 *2848:A2 4.99619e-05
17 *330:18 *337:16 0.000125262
18 *330:18 *774:12 0.000163012
19 *330:28 *2848:A2 4.76128e-05
20 *330:28 *3274:CLK 9.67734e-05
21 *330:28 *3302:A 0.0001222
22 *330:28 *334:10 0.000198945
23 *330:28 *338:29 0
24 *330:28 *597:14 8.15811e-05
25 *330:28 *597:45 5.42014e-05
26 *330:28 *597:56 6.39702e-05
*RES
1 *2844:Y *330:18 16.7 
2 *330:18 *330:28 18.14 
3 *330:28 *2855:A2 7.155 
4 *330:28 *2849:A2 6.255 
5 *330:18 *2848:A1 1.6 
*END

*D_NET *331 0.000647073
*CONN
*I *2847:A1 I *D sky130_fd_sc_hd__o21a_1
*I *2845:Y O *D sky130_fd_sc_hd__inv_2
*CAP
1 *2847:A1 0.000124481
2 *2845:Y 0.000124481
3 *2852:B *2847:A1 4.77719e-05
4 *330:18 *2847:A1 0.000350338
*RES
1 *2845:Y *2847:A1 6.41 
*END

*D_NET *332 0.0022987
*CONN
*I *2868:B I *D sky130_fd_sc_hd__or2_1
*I *2847:A2 I *D sky130_fd_sc_hd__o21a_1
*I *2864:A1 I *D sky130_fd_sc_hd__a21bo_1
*I *2846:Y O *D sky130_fd_sc_hd__nand2_1
*CAP
1 *2868:B 0.000263517
2 *2847:A2 0.000291187
3 *2864:A1 2.3827e-05
4 *2846:Y 5.71169e-05
5 *332:17 0.000554704
6 *332:8 8.09439e-05
7 *2847:A2 *2848:A2 7.22354e-05
8 *2847:A2 *334:10 0
9 *2864:A1 *2864:A2 2.10841e-05
10 *2864:A1 *774:76 8.52972e-05
11 *2868:B *2853:A 0.000288522
12 *2868:B *334:21 0
13 *2868:B *346:10 6.88121e-05
14 *332:8 *2864:A2 9.14724e-05
15 *332:8 *337:16 4.66108e-05
16 *332:8 *774:76 3.24882e-05
17 *2823:D *2847:A2 6.00847e-05
18 *2846:B *2847:A2 7.22772e-05
19 *2846:B *2868:B 8.33066e-06
20 *2846:B *332:8 4.66108e-05
21 *330:18 *2847:A2 0.000133583
*RES
1 *2846:Y *332:8 3.1 
2 *332:8 *2864:A1 2.395 
3 *332:8 *332:17 2 
4 *332:17 *2847:A2 7.755 
5 *332:17 *2868:B 7.965 
*END

*D_NET *333 0.000263784
*CONN
*I *2848:A2 I *D sky130_fd_sc_hd__o21ba_2
*I *2847:X O *D sky130_fd_sc_hd__o21a_1
*CAP
1 *2848:A2 4.69867e-05
2 *2847:X 4.69867e-05
3 *2847:A2 *2848:A2 7.22354e-05
4 *330:18 *2848:A2 4.99619e-05
5 *330:28 *2848:A2 4.76128e-05
*RES
1 *2847:X *2848:A2 4.7 
*END

*D_NET *334 0.00553541
*CONN
*I *2849:B1 I *D sky130_fd_sc_hd__o21ai_1
*I *2850:A2 I *D sky130_fd_sc_hd__o21a_1
*I *2857:A3 I *D sky130_fd_sc_hd__a31o_1
*I *2855:B1 I *D sky130_fd_sc_hd__o21ai_1
*I *2865:A2 I *D sky130_fd_sc_hd__a21o_1
*I *2853:B I *D sky130_fd_sc_hd__nand2_1
*I *2864:B1_N I *D sky130_fd_sc_hd__a21bo_1
*I *2848:X O *D sky130_fd_sc_hd__o21ba_2
*CAP
1 *2849:B1 2.23117e-05
2 *2850:A2 0
3 *2857:A3 0.000170762
4 *2855:B1 0.000136696
5 *2865:A2 1.93085e-05
6 *2853:B 0.000129482
7 *2864:B1_N 5.72478e-05
8 *2848:X 0.000313617
9 *334:76 0.000258597
10 *334:65 0.000478822
11 *334:55 0.000568898
12 *334:40 0.000428462
13 *334:21 0.000382504
14 *334:10 0.00050703
15 *2853:B *2853:A 2.5775e-05
16 *2853:B *2869:A2_N 6.31559e-05
17 *2853:B *3142:CLK 0.000121659
18 *2853:B *338:10 4.77807e-05
19 *2853:B *775:51 4.23008e-05
20 *2855:B1 *2858:A 0
21 *2855:B1 *663:40 0
22 *2864:B1_N *774:76 8.53011e-05
23 *2865:A2 *2867:A 0.000122821
24 *2865:A2 *3316:A 0.000122821
25 *334:10 *597:14 0.00010733
26 *334:10 *597:45 1.10435e-05
27 *334:21 *346:10 0
28 *334:21 *597:45 2.74853e-05
29 *334:21 *597:56 1.57817e-05
30 *334:21 *775:49 3.93775e-05
31 *334:40 *3274:CLK 4.88393e-05
32 *334:40 *597:56 5.35141e-05
33 *334:55 *3274:CLK 0.000136234
34 *334:76 *2858:A 0
35 *334:76 *663:34 0
36 *2823:D *334:10 0
37 *2847:A2 *334:10 0
38 *2848:B1_N *334:10 0
39 *2849:A1 *2849:B1 1.37328e-05
40 *2849:A1 *334:65 0.000100659
41 *2849:A2 *2855:B1 0
42 *2850:A1 *334:76 0.000116158
43 *2854:B1 *2857:A3 4.82863e-05
44 *2855:A1 *2855:B1 7.37109e-05
45 *2855:A1 *2857:A3 4.08514e-05
46 *2855:A1 *334:76 4.70995e-05
47 *2868:B *334:21 0
48 *3138:D *2857:A3 4.92062e-05
49 *3142:D *2853:B 3.12916e-05
50 *3142:D *334:21 9.12494e-06
51 *3142:D *334:40 0.000242997
52 *312:10 *334:55 0
53 *318:123 *334:65 1.83847e-05
54 *330:28 *334:10 0.000198945
*RES
1 *2848:X *334:10 8.85 
2 *334:10 *2864:B1_N 4.395 
3 *334:10 *334:21 2.145 
4 *334:21 *2853:B 6.96 
5 *334:21 *334:40 3.42 
6 *334:40 *2865:A2 4.74 
7 *334:40 *334:55 7.415 
8 *334:55 *334:65 6.38 
9 *334:65 *2855:B1 6 
10 *334:65 *334:76 2.145 
11 *334:76 *2857:A3 6.225 
12 *334:76 *2850:A2 3.6 
13 *334:55 *2849:B1 2.215 
*END

*D_NET *335 0.00248462
*CONN
*I *2850:B1 I *D sky130_fd_sc_hd__o21a_1
*I *2854:B2 I *D sky130_fd_sc_hd__a2bb2o_1
*I *2849:Y O *D sky130_fd_sc_hd__o21ai_1
*CAP
1 *2850:B1 0.000482852
2 *2854:B2 0.000233869
3 *2849:Y 0
4 *335:6 0.000716721
5 *2850:B1 *2858:B 2.81051e-05
6 *2850:B1 *3274:CLK 8.08439e-05
7 *2850:B1 *773:14 5.42303e-05
8 *2854:B2 *2858:A 0.000190633
9 *2854:B2 *2863:B1 0.000197269
10 *2854:B2 *3274:CLK 0.000116636
11 *2854:B2 *338:29 0.000124747
12 *2854:B2 *773:14 2.24336e-05
13 *2849:A2 *2854:B2 0.000139252
14 *2854:B1 *2850:B1 0
15 *2854:B1 *2854:B2 4.82919e-05
16 *2855:A2 *2854:B2 4.87317e-05
*RES
1 *2849:Y *335:6 3.6 
2 *335:6 *2854:B2 10.935 
3 *335:6 *2850:B1 10.365 
*END

*D_NET *336 0.00686187
*CONN
*I *2854:A1_N I *D sky130_fd_sc_hd__a2bb2o_1
*I *2958:C I *D sky130_fd_sc_hd__or3_2
*I *2934:A I *D sky130_fd_sc_hd__or3b_2
*I *2911:C I *D sky130_fd_sc_hd__or4b_2
*I *2884:A I *D sky130_fd_sc_hd__or2_2
*I *2851:X O *D sky130_fd_sc_hd__or2b_1
*CAP
1 *2854:A1_N 0.000398165
2 *2958:C 2.08101e-05
3 *2934:A 0.000192515
4 *2911:C 1.31277e-05
5 *2884:A 0
6 *2851:X 0
7 *336:25 0.000935692
8 *336:23 0.00141505
9 *336:12 0.000891875
10 *336:4 0.000625854
11 *2854:A1_N *3316:A 0.000224329
12 *2854:A1_N *340:10 0
13 *2854:A1_N *663:40 0
14 *2934:A *2911:A 0.000113905
15 *2934:A *3190:CLK 1.12578e-05
16 *2934:A *380:10 8.53113e-06
17 *2934:A *395:8 5.05521e-05
18 *2934:A *419:158 0.000123225
19 *336:12 *2862:A 3.09233e-05
20 *336:12 *3316:A 0.000104588
21 *336:12 *352:20 6.86872e-05
22 *336:12 *361:36 0.000161364
23 *336:23 *2862:A 1.56428e-05
24 *336:23 *2875:B 0.000242694
25 *336:23 *2884:B 2.28891e-05
26 *336:23 *2890:C 4.03507e-05
27 *336:23 *340:43 9.27255e-06
28 *336:23 *354:6 1.77665e-05
29 *336:23 *361:10 1.85674e-05
30 *336:23 *677:20 6.33103e-05
31 *336:25 *3037:A 0.00012752
32 *336:25 *3190:CLK 2.75145e-05
33 *336:25 *432:46 0.000119242
34 *336:25 *873:14 1.03423e-05
35 *2851:A *2854:A1_N 0.000122821
36 *2851:B_N *2854:A1_N 2.88357e-05
37 *2934:B *2934:A 3.54647e-05
38 *2946:A *2958:C 0
39 *2946:A *336:23 1.34503e-05
40 *2946:A *336:25 0.00011964
41 *3190:D *336:25 0.000233283
42 *3468:A *336:25 5.98548e-05
43 *211:14 *2854:A1_N 0
44 *321:28 *2911:C 3.26889e-05
45 *321:28 *2934:A 8.40213e-05
46 *323:62 *336:12 2.62526e-05
*RES
1 *2851:X *336:4 1.6 
2 *336:4 *336:12 8.41 
3 *336:12 *2884:A 1.6 
4 *336:12 *336:23 8.325 
5 *336:23 *336:25 11.49 
6 *336:25 *2911:C 1.96 
7 *336:25 *2934:A 9.62 
8 *336:23 *2958:C 1.96 
9 *336:4 *2854:A1_N 12.62 
*END

*D_NET *337 0.00282606
*CONN
*I *2853:A I *D sky130_fd_sc_hd__nand2_1
*I *2864:A2 I *D sky130_fd_sc_hd__a21bo_1
*I *2852:X O *D sky130_fd_sc_hd__and2_1
*CAP
1 *2853:A 0.000267298
2 *2864:A2 8.79399e-05
3 *2852:X 0.000309931
4 *337:16 0.000665168
5 *2853:A *3142:CLK 0.000233604
6 *2853:A *346:10 7.00426e-05
7 *2853:A *775:51 0.000121039
8 *337:16 *774:48 8.73421e-05
9 *337:16 *774:76 9.56017e-06
10 *337:16 *775:14 0.000113433
11 *2846:B *2853:A 4.87939e-05
12 *2853:B *2853:A 2.5775e-05
13 *2864:A1 *2864:A2 2.10841e-05
14 *2868:B *2853:A 0.000288522
15 *3142:D *2853:A 6.17024e-05
16 *312:27 *2853:A 0.000151477
17 *330:18 *337:16 0.000125262
18 *332:8 *2864:A2 9.14724e-05
19 *332:8 *337:16 4.66108e-05
*RES
1 *2852:X *337:16 10.655 
2 *337:16 *2864:A2 3.1 
3 *337:16 *2853:A 13.25 
*END

*D_NET *338 0.00292975
*CONN
*I *2854:A2_N I *D sky130_fd_sc_hd__a2bb2o_1
*I *2863:A1_N I *D sky130_fd_sc_hd__a2bb2o_1
*I *2869:A1_N I *D sky130_fd_sc_hd__a2bb2o_1
*I *2853:Y O *D sky130_fd_sc_hd__nand2_1
*CAP
1 *2854:A2_N 3.44016e-05
2 *2863:A1_N 0.000225417
3 *2869:A1_N 0
4 *2853:Y 9.46291e-05
5 *338:29 0.000736302
6 *338:10 0.000571113
7 *2854:A2_N *2863:B1 1.23883e-05
8 *2863:A1_N *2856:A 6.83659e-05
9 *2863:A1_N *2863:A2_N 0
10 *2863:A1_N *2863:B1 0.000113011
11 *2863:A1_N *340:10 4.66108e-05
12 *338:10 *2869:A2_N 0.000307018
13 *338:10 *3302:A 0.000132951
14 *338:10 *775:51 5.71963e-05
15 *338:29 *2863:B1 1.68507e-05
16 *338:29 *2869:A2_N 2.14609e-05
17 *338:29 *3302:A 4.11685e-05
18 *338:29 *663:40 0
19 *2853:B *338:10 4.77807e-05
20 *2854:B1 *2854:A2_N 5.4155e-06
21 *2854:B1 *338:29 3.31103e-05
22 *2854:B2 *338:29 0.000124747
23 *2855:A2 *338:29 0.000239807
24 *323:62 *338:29 0
25 *330:28 *338:29 0
*RES
1 *2853:Y *338:10 7.065 
2 *338:10 *2869:A1_N 3.6 
3 *338:10 *338:29 11.1725 
4 *338:29 *2863:A1_N 5.6875 
5 *338:29 *2854:A2_N 2.4925 
*END

*D_NET *339 0.00290845
*CONN
*I *2858:A I *D sky130_fd_sc_hd__and2_1
*I *2863:B1 I *D sky130_fd_sc_hd__a2bb2o_1
*I *2855:Y O *D sky130_fd_sc_hd__o21ai_1
*CAP
1 *2858:A 0.000325525
2 *2863:B1 0.000516184
3 *2855:Y 0
4 *339:4 0.000841709
5 *2858:A *773:14 0.000187064
6 *2863:B1 *2856:A 0.000119762
7 *2863:B1 *2863:A2_N 0.00015639
8 *2849:A2 *2858:A 4.49498e-05
9 *2850:A1 *2858:A 0
10 *2854:A2_N *2863:B1 1.23883e-05
11 *2854:B1 *2863:B1 3.12176e-05
12 *2854:B2 *2858:A 0.000190633
13 *2854:B2 *2863:B1 0.000197269
14 *2855:B1 *2858:A 0
15 *2863:A1_N *2863:B1 0.000113011
16 *3141:D *2863:B1 0.000155497
17 *334:76 *2858:A 0
18 *338:29 *2863:B1 1.68507e-05
*RES
1 *2855:Y *339:4 1.6 
2 *339:4 *2863:B1 10.45 
3 *339:4 *2858:A 11.105 
*END

*D_NET *340 0.0111416
*CONN
*I *2952:B I *D sky130_fd_sc_hd__or3_4
*I *2964:D I *D sky130_fd_sc_hd__or4_2
*I *2958:B I *D sky130_fd_sc_hd__or3_2
*I *2946:B I *D sky130_fd_sc_hd__or3_4
*I *2898:A I *D sky130_fd_sc_hd__or4b_4
*I *2928:C_N I *D sky130_fd_sc_hd__or3b_4
*I *2934:C_N I *D sky130_fd_sc_hd__or3b_2
*I *2911:A I *D sky130_fd_sc_hd__or4b_2
*I *2905:A I *D sky130_fd_sc_hd__or4b_4
*I *2857:B1 I *D sky130_fd_sc_hd__a31o_1
*I *2856:X O *D sky130_fd_sc_hd__buf_2
*CAP
1 *2952:B 2.14525e-05
2 *2964:D 6.76275e-05
3 *2958:B 2.14552e-05
4 *2946:B 0
5 *2898:A 0
6 *2928:C_N 0
7 *2934:C_N 0
8 *2911:A 6.29454e-05
9 *2905:A 0.000306458
10 *2857:B1 8.09604e-05
11 *2856:X 0.000150071
12 *340:88 0.000241288
13 *340:61 0.000811719
14 *340:53 0.000477721
15 *340:43 0.000190408
16 *340:41 0.000614874
17 *340:29 0.000746094
18 *340:27 0.000731549
19 *340:10 0.000816475
20 *2857:B1 *595:10 6.10014e-05
21 *2905:A *2771:A 0.000334617
22 *2905:A *2905:C 2.21074e-05
23 *2905:A *3015:A1 8.7152e-06
24 *2905:A *3015:S 8.35118e-05
25 *2905:A *3095:A 0
26 *2905:A *370:86 9.56017e-06
27 *2905:A *370:88 1.56428e-05
28 *2905:A *759:12 0.000198515
29 *2911:A *3190:CLK 4.99619e-05
30 *2911:A *380:10 2.34345e-05
31 *2964:D *2862:A 1.15196e-05
32 *2964:D *2964:C 1.18236e-05
33 *2964:D *352:12 0.000110492
34 *340:10 *595:10 2.86623e-05
35 *340:10 *663:40 0
36 *340:27 *2952:C 1.47347e-05
37 *340:27 *595:10 0.000315131
38 *340:29 *2952:C 1.56428e-05
39 *340:41 *2875:B 0.000280036
40 *340:41 *3047:A 0
41 *340:41 *365:14 3.82018e-05
42 *340:41 *384:14 0
43 *340:41 *411:8 4.77757e-05
44 *340:41 *415:27 3.41975e-05
45 *340:41 *677:20 0
46 *340:41 *773:59 0
47 *340:43 *2875:B 1.16578e-05
48 *340:53 *2898:B 4.66108e-05
49 *340:53 *2898:C 2.16833e-05
50 *340:53 *2946:C 6.50554e-05
51 *340:61 *2898:C 0.000216782
52 *340:61 *419:158 2.51419e-05
53 *340:88 *3015:A0 4.82863e-05
54 *340:88 *3015:A1 0.000150734
55 *340:88 *376:14 1.91597e-05
56 *340:88 *419:158 0.000369357
57 *2854:A1_N *340:10 0
58 *2855:A1 *2857:B1 0.000158072
59 *2863:A1_N *340:10 4.66108e-05
60 *2890:A *340:41 0.000150654
61 *2917:B *340:41 0.000118081
62 *2934:A *2911:A 0.000113905
63 *2946:A *340:43 0.000164874
64 *2946:A *340:53 8.65961e-05
65 *3139:D *340:10 1.52776e-05
66 *3141:D *340:10 9.54399e-05
67 *3468:A *340:43 0.000151541
68 *3468:A *340:53 8.8266e-05
69 *211:14 *2857:B1 0.000107634
70 *211:14 *340:10 0.000289698
71 *212:20 *340:53 0.000220273
72 *317:38 *340:27 2.51419e-05
73 *317:38 *340:29 1.06624e-05
74 *317:48 *340:29 2.33708e-05
75 *317:48 *340:41 3.40395e-05
76 *317:54 *340:53 7.23635e-05
77 *317:54 *340:61 0.000456018
78 *317:66 *340:61 4.08789e-05
79 *317:66 *340:88 0
80 *317:72 *2905:A 0.000194299
81 *317:113 *340:53 0
82 *318:50 *2964:D 7.9642e-06
83 *318:84 *340:41 6.03229e-05
84 *319:56 *2964:D 2.46089e-05
85 *319:88 *2964:D 1.16467e-05
86 *319:128 *2857:B1 0.000129588
87 *321:28 *2911:A 0.000203628
88 *336:23 *340:43 9.27255e-06
*RES
1 *2856:X *340:10 7.47 
2 *340:10 *2857:B1 6.465 
3 *340:10 *340:27 9.11 
4 *340:27 *340:29 1.485 
5 *340:29 *340:41 12.82 
6 *340:41 *340:43 1.83 
7 *340:43 *340:53 8.245 
8 *340:53 *340:61 7.14 
9 *340:61 *2905:A 12.785 
10 *340:61 *340:88 4.635 
11 *340:88 *2911:A 7.94 
12 *340:88 *2934:C_N 1.6 
13 *340:61 *2928:C_N 1.6 
14 *340:53 *2898:A 1.6 
15 *340:43 *2946:B 1.6 
16 *340:41 *2958:B 1.96 
17 *340:29 *2964:D 7.235 
18 *340:27 *2952:B 1.96 
*END

*D_NET *341 0.00077488
*CONN
*I *2858:B I *D sky130_fd_sc_hd__and2_1
*I *2857:X O *D sky130_fd_sc_hd__a31o_1
*CAP
1 *2858:B 0.000330927
2 *2857:X 0.000330927
3 *2850:B1 *2858:B 2.81051e-05
4 *2855:A1 *2858:B 8.49205e-05
*RES
1 *2857:X *2858:B 7.28 
*END

*D_NET *342 0.00190424
*CONN
*I *2859:A I *D sky130_fd_sc_hd__clkbuf_1
*I *2858:X O *D sky130_fd_sc_hd__and2_1
*CAP
1 *2859:A 0.000417632
2 *2858:X 0.000417632
3 *2859:A *3138:CLK 8.57024e-05
4 *2859:A *3138:RESET_B 9.31061e-05
5 *2859:A *595:10 9.50342e-06
6 *2859:A *595:23 0.000180682
7 *2859:A *595:36 0.00015997
8 *2859:A *663:30 0
9 *2859:A *663:32 0
10 *2859:A *663:34 0
11 *2859:A *770:14 0.000338601
12 *2859:A *773:14 0
13 *3139:D *2859:A 0.000201407
14 *3140:D *2859:A 0
*RES
1 *2858:X *2859:A 21.61 
*END

*D_NET *343 0.00164207
*CONN
*I *2861:A I *D sky130_fd_sc_hd__or3b_1
*I *2898:B I *D sky130_fd_sc_hd__or4b_4
*I *2946:C I *D sky130_fd_sc_hd__or3_4
*I *2860:Y O *D sky130_fd_sc_hd__nand2_1
*CAP
1 *2861:A 4.54521e-05
2 *2898:B 0.000102504
3 *2946:C 0.0001516
4 *2860:Y 0
5 *343:10 0.00037174
6 *343:4 0.000163087
7 *2861:A *2861:C_N 8.40213e-05
8 *2861:A *772:67 3.68999e-05
9 *2898:B *2898:C 4.82919e-05
10 *2946:C *677:20 1.6011e-05
11 *343:10 *677:20 3.26822e-05
12 *212:20 *2946:C 0
13 *212:20 *343:10 0
14 *218:12 *343:10 1.00941e-05
15 *317:54 *2898:B 5.81712e-05
16 *317:113 *2946:C 5.42991e-05
17 *318:62 *2861:A 0.000184984
18 *318:62 *343:10 6.37043e-05
19 *321:28 *2861:A 3.96737e-05
20 *321:28 *343:10 6.71882e-05
21 *340:53 *2898:B 4.66108e-05
22 *340:53 *2946:C 6.50554e-05
*RES
1 *2860:Y *343:4 1.6 
2 *343:4 *343:10 4.52 
3 *343:10 *2946:C 6.255 
4 *343:10 *2898:B 5.55 
5 *343:4 *2861:A 3.43 
*END

*D_NET *344 0.00214326
*CONN
*I *2862:A I *D sky130_fd_sc_hd__buf_2
*I *2861:X O *D sky130_fd_sc_hd__or3b_1
*CAP
1 *2862:A 0.000591874
2 *2861:X 0.000591874
3 *2862:A *2863:A2_N 1.85674e-05
4 *2862:A *2873:A 8.41149e-05
5 *2862:A *3070:A 5.76076e-05
6 *2862:A *352:12 9.73741e-05
7 *2862:A *352:20 0.000172023
8 *2862:A *361:10 3.45252e-05
9 *2862:A *361:36 1.34361e-05
10 *2862:A *607:22 4.23233e-05
11 *2964:D *2862:A 1.15196e-05
12 *318:50 *2862:A 4.53624e-05
13 *318:52 *2862:A 3.83194e-05
14 *318:62 *2862:A 5.78829e-05
15 *319:50 *2862:A 8.35106e-05
16 *319:54 *2862:A 0.000121643
17 *321:28 *2862:A 3.47415e-05
18 *336:12 *2862:A 3.09233e-05
19 *336:23 *2862:A 1.56428e-05
*RES
1 *2861:X *2862:A 18.72 
*END

*D_NET *345 0.0298008
*CONN
*I *2863:A2_N I *D sky130_fd_sc_hd__a2bb2o_1
*I *3017:A I *D sky130_fd_sc_hd__nor2_1
*I *2597:A I *D sky130_fd_sc_hd__nor2_1
*I *2923:B I *D sky130_fd_sc_hd__nor2_1
*I *3101:A I *D sky130_fd_sc_hd__nor2_1
*I *2862:X O *D sky130_fd_sc_hd__buf_2
*CAP
1 *2863:A2_N 0.000173457
2 *3017:A 0
3 *2597:A 0
4 *2923:B 0.00209679
5 *3101:A 0.0005049
6 *2862:X 0
7 *345:61 0.00592668
8 *345:30 0.00502273
9 *345:16 0.00357337
10 *345:4 0.00305888
11 *2923:B *2618:A1 0.000164874
12 *2923:B *2619:A 0.000237243
13 *2923:B *2725:B2 0
14 *2923:B *2727:A1 0.000140912
15 *2923:B *2727:B2 7.81954e-05
16 *2923:B *2814:B2 0.000270409
17 *2923:B *2842:A0 9.0421e-05
18 *2923:B *2896:A 0.00058389
19 *2923:B *3367:A 2.75229e-05
20 *2923:B *369:132 0.000157299
21 *2923:B *528:82 0.000114492
22 *2923:B *922:10 0.00021949
23 *3101:A *3102:A1 9.32375e-05
24 *3101:A *3389:A 5.72604e-05
25 *3101:A *407:20 0
26 *3101:A *445:21 1.88656e-05
27 *3101:A *476:98 0.000155981
28 *345:16 *2707:A1 1.52184e-05
29 *345:16 *3017:B 3.11872e-05
30 *345:16 *3066:A0 0.000104463
31 *345:16 *3070:A 0
32 *345:16 *3080:A 0.000652107
33 *345:16 *365:14 8.01934e-05
34 *345:16 *371:16 0.000112469
35 *345:16 *384:26 0.00123292
36 *345:16 *419:136 0.000350219
37 *345:16 *419:144 0.000725789
38 *345:16 *474:18 0.000232501
39 *345:16 *590:176 0.000101916
40 *345:16 *594:83 0.000104463
41 *345:30 *2707:A1 4.36521e-05
42 *345:30 *3017:B 9.12494e-06
43 *345:30 *430:64 0
44 *345:30 *476:98 1.88656e-05
45 *345:30 *726:26 0.000390144
46 *345:61 *2557:B 6.51714e-05
47 *2718:B1 *345:30 0.000353698
48 *2727:B1 *2923:B 8.09021e-06
49 *2728:C *2923:B 0
50 *2728:C *345:61 0
51 *2805:B1 *2923:B 0
52 *2816:B *2923:B 1.16578e-05
53 *2862:A *2863:A2_N 1.85674e-05
54 *2863:A1_N *2863:A2_N 0
55 *2863:B1 *2863:A2_N 0.00015639
56 *2923:A *2923:B 6.92161e-05
57 *181:32 *345:30 4.91313e-05
58 *202:52 *345:16 0
59 *202:77 *3101:A 1.72577e-05
60 *218:42 *345:61 0.00207952
61 *285:16 *345:30 0
*RES
1 *2862:X *345:4 1.6 
2 *345:4 *345:16 10.9543 
3 *345:16 *345:30 18.4046 
4 *345:30 *3101:A 8.5673 
5 *345:30 *345:61 10.434 
6 *345:61 *2923:B 36.975 
7 *345:61 *2597:A 3.6 
8 *345:16 *3017:A 3.6 
9 *345:4 *2863:A2_N 4.645 
*END

*D_NET *346 0.00314557
*CONN
*I *2866:A I *D sky130_fd_sc_hd__and2_1
*I *2869:B1 I *D sky130_fd_sc_hd__a2bb2o_1
*I *2864:X O *D sky130_fd_sc_hd__a21bo_1
*CAP
1 *2866:A 0.000350576
2 *2869:B1 0.000778361
3 *2864:X 0.000128783
4 *346:10 0.00125772
5 *2866:A *2866:B 7.23284e-05
6 *2866:A *3143:RESET_B 0.000155608
7 *2869:B1 *2869:B2 2.01737e-05
8 *2869:B1 *3143:CLK 9.83921e-06
9 *2869:B1 *3143:RESET_B 4.77769e-05
10 *2853:A *346:10 7.00426e-05
11 *2868:B *346:10 6.88121e-05
12 *3143:D *2869:B1 9.22206e-05
13 *312:27 *346:10 9.33229e-05
14 *334:21 *346:10 0
*RES
1 *2864:X *346:10 8.51 
2 *346:10 *2869:B1 10.6 
3 *346:10 *2866:A 6.115 
*END

*D_NET *347 0.000922782
*CONN
*I *2866:B I *D sky130_fd_sc_hd__and2_1
*I *2865:X O *D sky130_fd_sc_hd__a21o_1
*CAP
1 *2866:B 0.000305499
2 *2865:X 0.000305499
3 *2866:B *3143:RESET_B 0.00011407
4 *2866:B *3316:A 4.77769e-05
5 *2865:A1 *2866:B 4.28112e-06
6 *2866:A *2866:B 7.23284e-05
7 *312:27 *2866:B 7.33283e-05
*RES
1 *2865:X *2866:B 12.855 
*END

*D_NET *348 0.00133023
*CONN
*I *2867:A I *D sky130_fd_sc_hd__clkbuf_1
*I *2866:X O *D sky130_fd_sc_hd__and2_1
*CAP
1 *2867:A 0.00039784
2 *2866:X 0.00039784
3 *2867:A *2865:B1 0.000231815
4 *2867:A *3316:A 8.06779e-05
5 *2867:A *674:10 9.92396e-05
6 *2865:A2 *2867:A 0.000122821
*RES
1 *2866:X *2867:A 15.165 
*END

*D_NET *349 0.000980817
*CONN
*I *2869:A2_N I *D sky130_fd_sc_hd__a2bb2o_1
*I *2868:X O *D sky130_fd_sc_hd__or2_1
*CAP
1 *2869:A2_N 0.00028864
2 *2868:X 0.00028864
3 *2869:A2_N *775:51 1.19028e-05
4 *2853:B *2869:A2_N 6.31559e-05
5 *323:62 *2869:A2_N 0
6 *338:10 *2869:A2_N 0.000307018
7 *338:29 *2869:A2_N 2.14609e-05
*RES
1 *2868:X *2869:A2_N 11.7 
*END

*D_NET *350 0.0372852
*CONN
*I *2653:A2 I *D sky130_fd_sc_hd__a21oi_1
*I *2872:A I *D sky130_fd_sc_hd__buf_2
*I *2989:A I *D sky130_fd_sc_hd__buf_2
*I *3107:A1 I *D sky130_fd_sc_hd__mux2_1
*I *3112:A1 I *D sky130_fd_sc_hd__mux2_1
*I *2896:A I *D sky130_fd_sc_hd__buf_2
*I *2578:A1 I *D sky130_fd_sc_hd__mux2_1
*I *2598:A1 I *D sky130_fd_sc_hd__mux2_1
*I *3005:A I *D sky130_fd_sc_hd__clkbuf_4
*I *3123:A1 I *D sky130_fd_sc_hd__mux2_1
*I *2871:X O *D sky130_fd_sc_hd__clkbuf_4
*CAP
1 *2653:A2 0.000379305
2 *2872:A 8.86867e-05
3 *2989:A 0.000846956
4 *3107:A1 0
5 *3112:A1 0
6 *2896:A 0.00134664
7 *2578:A1 4.20999e-05
8 *2598:A1 0.000201606
9 *3005:A 2.22788e-05
10 *3123:A1 1.83028e-05
11 *2871:X 0
12 *350:137 0.00138874
13 *350:120 0.00176854
14 *350:93 0.00202691
15 *350:85 0.000918565
16 *350:83 0.0018261
17 *350:62 0.00234707
18 *350:50 0.00235431
19 *350:48 0.00247347
20 *350:20 0.00253274
21 *350:4 0.000873705
22 *2578:A1 *927:10 4.80285e-05
23 *2598:A1 *2578:A0 7.1624e-05
24 *2598:A1 *2579:A 5.06832e-05
25 *2598:A1 *2598:A0 7.29122e-05
26 *2598:A1 *2598:S 3.79624e-05
27 *2598:A1 *2727:B2 0
28 *2598:A1 *3473:A 0.000234763
29 *2598:A1 *809:12 5.67804e-05
30 *2653:A2 *630:12 0.000136884
31 *2872:A *351:16 8.82557e-05
32 *2896:A *2619:A 0.00019982
33 *2896:A *2620:A1 0.000160342
34 *2896:A *2814:B2 0.000108617
35 *2896:A *2842:A0 0.000117092
36 *2896:A *3367:A 2.69217e-05
37 *2896:A *369:10 0.000269955
38 *2896:A *369:132 5.19006e-06
39 *2896:A *922:10 0.000141299
40 *2896:A *927:10 4.65188e-05
41 *2989:A *2550:B 2.20728e-05
42 *2989:A *2551:S 0
43 *2989:A *2553:A1 7.14241e-05
44 *2989:A *3067:A 0
45 *2989:A *3133:A0 8.46768e-05
46 *2989:A *3383:A 3.44672e-05
47 *2989:A *355:38 4.77757e-05
48 *2989:A *415:52 0
49 *2989:A *511:150 0
50 *2989:A *524:10 0
51 *2989:A *677:20 0
52 *3005:A *445:124 4.82863e-05
53 *3123:A1 *3123:A0 1.56428e-05
54 *3123:A1 *3126:A 4.66108e-05
55 *350:20 *2810:B2 0.000273229
56 *350:20 *359:96 9.28264e-05
57 *350:20 *592:24 9.30787e-05
58 *350:48 *2556:B 0.000111116
59 *350:48 *2636:A 0
60 *350:48 *2737:A1 0.000233568
61 *350:48 *2737:A2 0.00028271
62 *350:48 *2877:B 9.37931e-06
63 *350:48 *2941:B 0
64 *350:48 *2959:B 0
65 *350:48 *2960:S 0
66 *350:48 *3173:CLK 0.000118081
67 *350:48 *3445:A 0.000370048
68 *350:48 *351:16 0.000301006
69 *350:48 *355:38 0
70 *350:48 *359:70 6.59891e-05
71 *350:48 *419:61 8.52883e-05
72 *350:48 *527:118 6.80651e-05
73 *350:48 *590:108 1.79483e-05
74 *350:48 *606:81 0
75 *350:48 *890:12 2.16917e-05
76 *350:50 *355:38 0.0004252
77 *350:50 *419:61 3.45117e-05
78 *350:62 *355:38 3.96153e-05
79 *350:62 *590:14 4.12356e-05
80 *350:62 *715:30 0.000101764
81 *350:83 *3107:A0 0.000157172
82 *350:83 *3107:S 0.000175593
83 *350:83 *3125:A1 0.000919351
84 *350:83 *715:30 0.000130714
85 *350:85 *3107:A0 4.99619e-05
86 *350:85 *3112:A0 0.000533422
87 *350:93 *2804:A2 0.000313477
88 *350:93 *445:124 0.000722655
89 *350:120 *2577:B 0.00011852
90 *350:120 *2578:S 0.000147214
91 *350:120 *2588:S 0.000119219
92 *350:120 *2590:A1 0.000134509
93 *350:120 *2598:A0 5.84456e-05
94 *350:120 *2600:A0 3.86607e-05
95 *350:120 *2615:S 0.000256626
96 *350:120 *2623:A1 6.44978e-06
97 *350:120 *2625:S 7.84464e-05
98 *350:120 *2721:A1 0
99 *350:120 *2725:B2 0
100 *350:120 *2727:B2 0
101 *350:120 *527:50 0.000130721
102 *350:120 *547:14 3.2867e-05
103 *350:120 *726:38 0.000362378
104 *350:120 *927:10 0
105 *2590:A0 *350:120 2.40658e-05
106 *2595:A0 *350:48 7.03219e-05
107 *2628:A0 *350:48 0.000128913
108 *2725:B1 *350:120 0.000222119
109 *2727:B1 *350:120 0.000387146
110 *2729:A2 *350:120 0.000207345
111 *2729:B1 *350:120 7.9709e-05
112 *2749:C *2989:A 8.90199e-05
113 *2750:B1 *2989:A 8.7277e-05
114 *2752:A2 *350:50 2.43962e-05
115 *2755:A2 *350:48 0.000269292
116 *2761:B *350:48 8.23457e-05
117 *2762:C *350:50 0.000259827
118 *2763:B2 *350:48 5.68523e-06
119 *2791:D *350:48 0.000163419
120 *2791:D *350:50 0
121 *2799:A2 *350:93 8.88799e-05
122 *2808:A3 *350:120 9.44681e-05
123 *2810:C1 *350:20 4.75576e-05
124 *2817:A2 *350:48 0
125 *2819:A3 *350:48 0
126 *2836:A *350:48 3.04982e-05
127 *2836:B *350:48 0.000280925
128 *2837:A *350:48 0
129 *2840:A *2896:A 4.77769e-05
130 *2871:A *350:20 0.000101966
131 *2923:B *2896:A 0.00058389
132 *3135:D *2896:A 0.000132465
133 *3173:D *350:48 7.45772e-05
134 *3227:D *350:93 0
135 *3233:D *350:83 0.000122331
136 *3238:D *2989:A 0.000132581
137 *3295:A *350:93 0.000109836
138 *192:36 *350:85 8.88523e-06
139 *193:14 *350:62 0.000100115
140 *193:14 *350:83 0.000139245
141 *202:115 *350:120 0.000584285
142 *212:91 *350:120 0
143 *218:42 *350:120 0.000233045
144 *218:126 *350:48 0
145 *231:14 *350:62 0
146 *235:18 *350:93 0
147 *315:22 *2653:A2 0.000454522
148 *315:22 *350:20 4.82919e-05
149 *316:36 *350:48 6.44445e-05
150 *325:118 *350:48 0.000136877
151 *328:71 *350:120 0.000593491
152 *328:133 *350:48 0
*RES
1 *2871:X *350:4 1.6 
2 *350:4 *350:20 12.1 
3 *350:20 *350:48 44.91 
4 *350:48 *350:50 10.305 
5 *350:50 *350:62 4.6264 
6 *350:62 *3123:A1 4.05 
7 *350:62 *350:83 24.23 
8 *350:83 *350:85 6.315 
9 *350:85 *350:93 14.335 
10 *350:93 *3005:A 2.05 
11 *350:93 *350:120 41.135 
12 *350:120 *2598:A1 8.895 
13 *350:120 *350:137 2 
14 *350:137 *2578:A1 2.395 
15 *350:137 *2896:A 29.515 
16 *350:85 *3112:A1 1.6 
17 *350:83 *3107:A1 1.6 
18 *350:50 *2989:A 16.935 
19 *350:20 *2872:A 3.445 
20 *350:4 *2653:A2 11.48 
*END

*D_NET *351 0.0229956
*CONN
*I *2984:A0 I *D sky130_fd_sc_hd__mux2_1
*I *2979:A0 I *D sky130_fd_sc_hd__mux2_1
*I *2886:A0 I *D sky130_fd_sc_hd__mux2_1
*I *2892:A0 I *D sky130_fd_sc_hd__mux2_1
*I *2942:A0 I *D sky130_fd_sc_hd__mux2_1
*I *2960:A0 I *D sky130_fd_sc_hd__mux2_1
*I *2954:A0 I *D sky130_fd_sc_hd__mux2_1
*I *2878:A0 I *D sky130_fd_sc_hd__mux2_1
*I *2966:A0 I *D sky130_fd_sc_hd__mux2_1
*I *2919:A0 I *D sky130_fd_sc_hd__mux2_1
*I *2872:X O *D sky130_fd_sc_hd__buf_2
*CAP
1 *2984:A0 0.000225359
2 *2979:A0 2.22896e-05
3 *2886:A0 0.000470304
4 *2892:A0 0.000143373
5 *2942:A0 0
6 *2960:A0 9.44838e-05
7 *2954:A0 0.000114607
8 *2878:A0 4.0513e-05
9 *2966:A0 0.000114423
10 *2919:A0 0.00169506
11 *2872:X 0
12 *351:150 0.00158874
13 *351:114 0.00112291
14 *351:95 0.00110123
15 *351:24 0.00185782
16 *351:22 0.000146336
17 *351:20 0.000338807
18 *351:18 0.000439597
19 *351:16 0.00150943
20 *351:4 0.00208013
21 *2886:A0 *2886:A1 0.000124895
22 *2886:A0 *2887:A 0.000289689
23 *2886:A0 *385:16 0
24 *2886:A0 *606:27 0.000326432
25 *2919:A0 *2809:A1 0.00011852
26 *2919:A0 *3160:CLK 0.000197017
27 *2919:A0 *3174:CLK 0.000246722
28 *2919:A0 *605:60 2.0514e-05
29 *2919:A0 *605:73 0.000333729
30 *2919:A0 *889:14 8.52845e-05
31 *2919:A0 *913:10 0.000240175
32 *2919:A0 *920:8 0.00011852
33 *2954:A0 *2809:A1 4.66108e-05
34 *2954:A0 *2954:A1 2.46218e-05
35 *2954:A0 *2954:S 2.88357e-05
36 *2960:A0 *2960:A1 8.71565e-05
37 *2960:A0 *2960:S 4.77719e-05
38 *2966:A0 *2966:A1 2.68526e-05
39 *2966:A0 *2966:S 8.23457e-05
40 *2979:A0 *425:6 4.77807e-05
41 *2984:A0 *2984:A1 7.03276e-05
42 *351:16 *2962:A0 0.000201511
43 *351:16 *2963:A 7.06865e-05
44 *351:16 *356:14 0
45 *351:16 *890:12 9.14049e-05
46 *351:18 *2953:B 0.000107207
47 *351:18 *2956:S 4.28112e-06
48 *351:18 *2965:B 0.00016052
49 *351:18 *608:37 0.000216823
50 *351:18 *796:30 8.53113e-06
51 *351:20 *2809:B2 2.07338e-05
52 *351:20 *2954:S 0.000102017
53 *351:20 *2956:S 5.4419e-05
54 *351:20 *608:37 0.000168194
55 *351:22 *2809:A1 0.000133336
56 *351:22 *2809:B2 0.000113433
57 *351:22 *920:8 4.21314e-05
58 *351:24 *2809:A1 0.000206817
59 *351:24 *920:8 0.000199953
60 *351:95 *2636:A 1.91597e-05
61 *351:95 *2812:A1 0.00023468
62 *351:95 *2965:B 8.82193e-05
63 *351:95 *3424:A 9.53428e-06
64 *351:95 *511:10 0.000137571
65 *351:95 *511:24 0.000912822
66 *351:95 *608:37 5.89992e-05
67 *351:95 *796:30 6.21553e-05
68 *351:114 *2736:A2 0.000161529
69 *351:114 *2812:A1 8.50308e-05
70 *351:114 *2812:A2 0.000104953
71 *351:114 *2812:B2 6.10014e-05
72 *351:114 *511:24 0.000422847
73 *351:114 *715:58 0
74 *351:114 *759:34 0
75 *351:150 *2639:A 0
76 *351:150 *2810:B2 9.14049e-05
77 *351:150 *2818:B1 2.75538e-05
78 *351:150 *2980:A 4.15546e-05
79 *351:150 *2981:A1 3.86607e-05
80 *351:150 *2981:S 9.76966e-05
81 *351:150 *359:83 0
82 *351:150 *592:24 0
83 *2732:C1 *2878:A0 8.40269e-05
84 *2734:A2 *2886:A0 6.55328e-05
85 *2734:A2 *2892:A0 0.00019554
86 *2736:B1 *351:114 0.000183856
87 *2810:C1 *2954:A0 2.39695e-05
88 *2810:C1 *351:150 0
89 *2812:C1 *351:114 8.53113e-06
90 *2816:A *351:114 7.23602e-05
91 *2872:A *351:16 8.82557e-05
92 *3160:D *2919:A0 0.000149488
93 *3174:D *2919:A0 7.71334e-05
94 *3270:D *351:150 0
95 *3280:D *351:150 9.68865e-05
96 *3281:D *351:150 0.000292381
97 *202:14 *2886:A0 0.000324905
98 *211:47 *351:16 5.65627e-05
99 *322:31 *2886:A0 0.000124895
100 *325:32 *2892:A0 4.99619e-05
101 *325:49 *2886:A0 0.000132096
102 *325:49 *2892:A0 0.000359917
103 *328:133 *351:95 3.96284e-05
104 *328:149 *351:95 4.20983e-05
105 *350:48 *351:16 0.000301006
*RES
1 *2872:X *351:4 1.6 
2 *351:4 *351:16 16.29 
3 *351:16 *351:18 4.95 
4 *351:18 *351:20 4.185 
5 *351:20 *351:22 1.89 
6 *351:22 *351:24 2.4 
7 *351:24 *2919:A0 29.49 
8 *351:24 *2966:A0 5.43 
9 *351:22 *2878:A0 4.395 
10 *351:20 *2954:A0 5.805 
11 *351:18 *2960:A0 5.43 
12 *351:16 *351:95 16.595 
13 *351:95 *2942:A0 1.6 
14 *351:95 *351:114 16.14 
15 *351:114 *2892:A0 8.235 
16 *351:114 *2886:A0 16.575 
17 *351:4 *351:150 25.34 
18 *351:150 *2979:A0 4.05 
19 *351:150 *2984:A0 7.275 
*END

*D_NET *352 0.00612303
*CONN
*I *2952:C I *D sky130_fd_sc_hd__or3_4
*I *2876:A I *D sky130_fd_sc_hd__or2_1
*I *2928:A I *D sky130_fd_sc_hd__or3b_4
*I *2905:C I *D sky130_fd_sc_hd__or4b_4
*I *2873:X O *D sky130_fd_sc_hd__or2b_1
*CAP
1 *2952:C 2.71058e-05
2 *2876:A 2.33926e-05
3 *2928:A 0.000207268
4 *2905:C 0.000102168
5 *2873:X 0.000175563
6 *352:34 0.000978891
7 *352:20 0.00101136
8 *352:12 0.000521181
9 *2876:A *419:136 6.66814e-06
10 *2905:C *3015:S 0.000227078
11 *2905:C *370:86 0.000371184
12 *2905:C *447:12 5.94099e-05
13 *2928:A *3037:A 1.58322e-05
14 *2928:A *419:144 0.00013238
15 *2928:A *432:46 0.000193546
16 *2928:A *678:12 6.3109e-05
17 *352:20 *2876:B 6.13283e-05
18 *352:20 *361:36 3.63701e-06
19 *352:20 *415:27 6.63219e-06
20 *352:34 *2708:A 0.000240854
21 *352:34 *3058:A 2.14725e-05
22 *352:34 *3058:B 4.71087e-05
23 *352:34 *370:86 0.000157401
24 *352:34 *384:14 0.000200327
25 *352:34 *419:136 5.79965e-05
26 *352:34 *447:12 0.000171205
27 *352:34 *873:14 8.23457e-05
28 *2708:B *352:34 0.000156778
29 *2862:A *352:12 9.73741e-05
30 *2862:A *352:20 0.000172023
31 *2875:A *352:20 7.98745e-06
32 *2890:B *352:20 0
33 *2905:A *2905:C 2.21074e-05
34 *2964:D *352:12 0.000110492
35 *3468:A *352:34 0.000143953
36 *317:38 *2952:C 8.40269e-05
37 *319:56 *352:12 0
38 *323:62 *2876:A 5.20849e-05
39 *323:62 *352:34 1.0691e-05
40 *336:12 *352:20 6.86872e-05
41 *340:27 *2952:C 1.47347e-05
42 *340:29 *2952:C 1.56428e-05
*RES
1 *2873:X *352:12 6.645 
2 *352:12 *352:20 7.52 
3 *352:20 *352:34 13.485 
4 *352:34 *2905:C 5.155 
5 *352:34 *2928:A 9.98 
6 *352:20 *2876:A 2.215 
7 *352:12 *2952:C 4.395 
*END

*D_NET *353 0.00139327
*CONN
*I *2875:B I *D sky130_fd_sc_hd__or2_1
*I *2874:Y O *D sky130_fd_sc_hd__nand2_1
*CAP
1 *2875:B 0.000223861
2 *2874:Y 0.000223861
3 *2875:B *2890:C 2.68526e-05
4 *2875:B *3047:A 1.0129e-05
5 *2875:B *677:20 0.000235906
6 *317:113 *2875:B 0.000138277
7 *336:23 *2875:B 0.000242694
8 *340:41 *2875:B 0.000280036
9 *340:43 *2875:B 1.16578e-05
*RES
1 *2874:Y *2875:B 13.8 
*END

*D_NET *354 0.000838091
*CONN
*I *2884:B I *D sky130_fd_sc_hd__or2_2
*I *2876:B I *D sky130_fd_sc_hd__or2_1
*I *2890:C I *D sky130_fd_sc_hd__or3_2
*I *2875:X O *D sky130_fd_sc_hd__or2_1
*CAP
1 *2884:B 3.12978e-05
2 *2876:B 8.16738e-05
3 *2890:C 0.000105542
4 *2875:X 0
5 *354:6 0.000208952
6 *354:4 5.30335e-05
7 *2875:A *2876:B 0.000114196
8 *2875:B *2890:C 2.68526e-05
9 *323:62 *2876:B 7.42098e-05
10 *336:23 *2884:B 2.28891e-05
11 *336:23 *2890:C 4.03507e-05
12 *336:23 *354:6 1.77665e-05
13 *352:20 *2876:B 6.13283e-05
*RES
1 *2875:X *354:4 1.6 
2 *354:4 *354:6 0.45 
3 *354:6 *2890:C 3.445 
4 *354:6 *2876:B 7.85 
5 *354:4 *2884:B 2.41 
*END

*D_NET *355 0.0123874
*CONN
*I *3065:A I *D sky130_fd_sc_hd__or2_1
*I *2978:A I *D sky130_fd_sc_hd__or2_1
*I *2562:A I *D sky130_fd_sc_hd__or2_1
*I *2877:B I *D sky130_fd_sc_hd__or2_1
*I *2876:X O *D sky130_fd_sc_hd__or2_1
*CAP
1 *3065:A 0.0003132
2 *2978:A 0.00097155
3 *2562:A 0
4 *2877:B 0.000463458
5 *2876:X 0.000291002
6 *355:42 0.000514945
7 *355:38 0.00201866
8 *355:10 0.00159982
9 *2877:B *2790:A1 0.000203617
10 *2877:B *571:18 3.79532e-05
11 *2877:B *827:10 1.91597e-05
12 *2978:A *2978:B 5.09431e-05
13 *2978:A *3269:CLK 0.000483544
14 *3065:A *2550:B 8.35157e-05
15 *3065:A *3133:A0 1.98931e-05
16 *3065:A *415:52 0.000116552
17 *355:10 *3059:A 0
18 *355:10 *3299:A 5.05716e-06
19 *355:10 *415:27 0.000405272
20 *355:10 *419:136 4.60814e-05
21 *355:10 *677:20 0
22 *355:10 *715:20 2.12738e-05
23 *355:38 *2550:B 0.000233565
24 *355:38 *2749:B 8.79662e-05
25 *355:38 *3133:A0 0.000107176
26 *355:38 *411:10 9.12494e-06
27 *355:38 *411:14 0.00175019
28 *355:38 *415:27 4.86642e-05
29 *355:38 *606:81 2.01543e-05
30 *355:38 *606:102 8.94564e-05
31 *355:38 *677:20 0.000270314
32 *355:42 *2556:B 4.55864e-06
33 *355:42 *527:118 1.49441e-05
34 *355:42 *606:81 0.000110301
35 *2595:A0 *2978:A 2.49022e-05
36 *2628:A0 *2877:B 2.84864e-05
37 *2761:B *355:38 0.000119242
38 *2762:C *355:38 0.00040376
39 *2786:C *355:38 0.000116158
40 *2791:D *355:38 6.85423e-05
41 *2791:D *355:42 6.88421e-05
42 *2836:B *2877:B 2.59981e-05
43 *2989:A *355:38 4.77757e-05
44 *3269:D *2978:A 2.4057e-05
45 *174:35 *2877:B 8.46717e-05
46 *316:36 *2877:B 0.000120141
47 *316:46 *2877:B 0.000269314
48 *322:10 *2877:B 8.8266e-05
49 *323:26 *2877:B 1.11052e-05
50 *350:48 *2877:B 9.37931e-06
51 *350:48 *355:38 0
52 *350:50 *355:38 0.0004252
53 *350:62 *355:38 3.96153e-05
*RES
1 *2876:X *355:10 9.345 
2 *355:10 *355:38 36.905 
3 *355:38 *355:42 3.38 
4 *355:42 *2877:B 14.54 
5 *355:42 *2562:A 1.6 
6 *355:38 *2978:A 14.76 
7 *355:10 *3065:A 7.77 
*END

*D_NET *356 0.0052768
*CONN
*I *2878:S I *D sky130_fd_sc_hd__mux2_1
*I *2882:S I *D sky130_fd_sc_hd__mux2_1
*I *2877:X O *D sky130_fd_sc_hd__or2_1
*CAP
1 *2878:S 2.299e-05
2 *2882:S 0.000155064
3 *2877:X 0.00107179
4 *356:14 0.00124985
5 *2878:S *2878:A1 8.49205e-05
6 *2878:S *3352:A 1.34503e-05
7 *2882:S *2968:A0 0.000164874
8 *2882:S *359:119 0
9 *2882:S *416:12 8.78813e-05
10 *356:14 *2633:S 0.000175207
11 *356:14 *2635:S 0.000287528
12 *356:14 *2763:A1 0
13 *356:14 *2954:S 1.6359e-05
14 *356:14 *2955:A 3.78687e-05
15 *356:14 *2965:B 0.000677482
16 *356:14 *3445:A 0.000113964
17 *356:14 *359:70 0.000118081
18 *356:14 *359:119 0
19 *356:14 *415:52 6.73424e-05
20 *356:14 *416:12 7.1301e-06
21 *356:14 *890:12 3.39151e-05
22 *2732:C1 *2878:S 2.75229e-05
23 *2732:C1 *356:14 0.000282286
24 *2763:B1 *356:14 0.00013687
25 *2810:C1 *356:14 0.000124446
26 *211:47 *356:14 0
27 *316:22 *356:14 3.50033e-05
28 *316:36 *356:14 0.000284969
29 *351:16 *356:14 0
*RES
1 *2877:X *356:14 29.37 
2 *356:14 *2882:S 6.975 
3 *356:14 *2878:S 4.395 
*END

*D_NET *357 0.00133267
*CONN
*I *2879:A I *D sky130_fd_sc_hd__clkbuf_1
*I *2878:X O *D sky130_fd_sc_hd__mux2_1
*CAP
1 *2879:A 0.000350111
2 *2878:X 0.000350111
3 *2879:A *2809:A1 6.65548e-05
4 *2879:A *2966:A1 7.14241e-05
5 *2879:A *2967:A 0
6 *2879:A *3357:A 3.05238e-05
7 *2879:A *888:8 6.34651e-05
8 *2879:A *889:14 8.36537e-05
9 *2879:A *920:8 0.000247567
10 *3146:D *2879:A 6.92569e-05
*RES
1 *2878:X *2879:A 15.435 
*END

*D_NET *358 0.0310089
*CONN
*I *2881:A I *D sky130_fd_sc_hd__buf_2
*I *2902:A I *D sky130_fd_sc_hd__clkbuf_4
*I *2600:A1 I *D sky130_fd_sc_hd__mux2_1
*I *3114:A1 I *D sky130_fd_sc_hd__mux2_1
*I *3109:A1 I *D sky130_fd_sc_hd__mux2_1
*I *3125:A1 I *D sky130_fd_sc_hd__mux2_1
*I *2986:A I *D sky130_fd_sc_hd__clkbuf_4
*I *3009:A I *D sky130_fd_sc_hd__clkbuf_4
*I *3098:A I *D sky130_fd_sc_hd__buf_2
*I *2580:A1 I *D sky130_fd_sc_hd__mux2_1
*I *2880:X O *D sky130_fd_sc_hd__clkbuf_4
*CAP
1 *2881:A 0.000376957
2 *2902:A 0
3 *2600:A1 0
4 *3114:A1 0
5 *3109:A1 7.8478e-05
6 *3125:A1 0.00110286
7 *2986:A 0
8 *3009:A 0
9 *3098:A 0
10 *2580:A1 0
11 *2880:X 0
12 *358:114 0.002051
13 *358:96 0.00157151
14 *358:79 0.000824238
15 *358:64 0.000235446
16 *358:57 0.00108877
17 *358:36 0.00187497
18 *358:30 0.00091782
19 *358:28 0.00315767
20 *358:6 0.00318191
21 *358:4 0.000419763
22 *2881:A *2959:B 5.30144e-05
23 *2881:A *359:8 0.000123225
24 *2881:A *605:8 1.82563e-05
25 *3109:A1 *832:10 0.000159156
26 *3125:A1 *2786:A 6.80182e-05
27 *3125:A1 *3107:S 0.0001914
28 *3125:A1 *3110:A 0.000184519
29 *3125:A1 *3122:A 4.66108e-05
30 *3125:A1 *3122:B 8.23457e-05
31 *3125:A1 *3125:S 0.000119866
32 *358:28 *2600:A0 3.54025e-05
33 *358:28 *2600:S 2.16917e-05
34 *358:28 *2797:B2 0.000130205
35 *358:28 *2805:B2 0
36 *358:28 *2894:S 0.00025512
37 *358:28 *3150:CLK 0.000214918
38 *358:28 *3435:A 4.82919e-05
39 *358:28 *374:8 6.71882e-05
40 *358:28 *528:82 1.95352e-05
41 *358:28 *917:8 0.000207506
42 *358:28 *924:8 0.000233004
43 *358:30 *2600:S 9.53428e-06
44 *358:36 *2560:S 0.000141599
45 *358:36 *2573:A0 0
46 *358:36 *2573:A1 7.23602e-05
47 *358:36 *2573:S 3.77112e-05
48 *358:36 *2575:A1 0
49 *358:36 *2599:A 0.000160635
50 *358:36 *2600:A0 1.47256e-05
51 *358:36 *2600:S 1.08758e-05
52 *358:36 *2601:A 9.02259e-05
53 *358:36 *2724:B2 0
54 *358:36 *2803:B2 8.26527e-05
55 *358:36 *2806:B2 0
56 *358:36 *3334:A 0
57 *358:36 *529:8 0.000136182
58 *358:36 *591:10 0.000205556
59 *358:36 *811:10 1.34594e-05
60 *358:36 *817:10 0
61 *358:36 *926:8 7.45881e-05
62 *358:57 *2622:A 5.72573e-05
63 *358:57 *2622:B 6.72593e-05
64 *358:57 *2801:A1 0.000252645
65 *358:57 *2801:B2 0.000201237
66 *358:57 *511:100 0.000319174
67 *358:57 *544:22 4.24632e-05
68 *358:57 *591:10 4.83324e-05
69 *358:57 *598:29 0.000104828
70 *358:57 *598:44 0.000102544
71 *358:57 *598:55 0.000188769
72 *358:64 *442:16 3.00381e-05
73 *358:79 *3413:A 4.66108e-05
74 *358:79 *442:16 4.66742e-05
75 *358:79 *445:8 0.000183043
76 *358:79 *726:38 0
77 *358:96 *2612:A 0.00013994
78 *358:96 *2804:A2 0.000348592
79 *358:96 *3114:A0 4.66108e-05
80 *358:96 *3413:A 0.000263173
81 *358:96 *476:66 1.91597e-05
82 *358:96 *748:39 9.3233e-05
83 *358:96 *828:16 4.00541e-06
84 *358:114 *3109:A0 6.67962e-05
85 *358:114 *3110:A 4.66376e-05
86 *358:114 *3112:S 3.2703e-05
87 *358:114 *399:34 0
88 *358:114 *476:56 2.70236e-05
89 *358:114 *748:39 8.55211e-05
90 *2557:A *358:36 0.000140912
91 *2618:A0 *358:28 0
92 *2713:B *358:114 0.000119756
93 *2713:D *358:114 7.74878e-05
94 *2724:B1 *358:36 4.94404e-05
95 *2727:A2 *358:28 0.000165779
96 *2727:B1 *358:28 4.65607e-05
97 *2730:D1 *3125:A1 0
98 *2730:D1 *358:114 0
99 *2762:A *2881:A 0.00105907
100 *2763:B1 *358:114 1.79483e-05
101 *2770:C1 *358:114 6.67523e-05
102 *2777:B1 *358:114 0.000267292
103 *2801:A2 *358:57 0
104 *2801:B1 *358:57 0.000114016
105 *2817:A2 *2881:A 1.56428e-05
106 *2817:A2 *358:6 6.0011e-05
107 *2817:A2 *358:28 0.000263525
108 *2838:B *358:28 4.70919e-05
109 *2839:A1 *358:28 6.1627e-05
110 *2839:S *358:28 4.54251e-05
111 *2840:A *358:28 0
112 *3150:D *358:28 1.17309e-05
113 *3226:D *358:114 8.63492e-05
114 *3232:D *3125:A1 0.000544856
115 *187:64 *3125:A1 0.000202095
116 *187:112 *358:28 0.000805545
117 *192:32 *3125:A1 0.000222035
118 *192:36 *3125:A1 0.0004321
119 *197:134 *358:36 0.000126635
120 *197:134 *358:57 7.00066e-05
121 *202:115 *358:57 0
122 *202:115 *358:79 0.000205169
123 *208:58 *358:28 2.71912e-06
124 *215:108 *358:57 2.24423e-05
125 *285:16 *358:96 0.000164221
126 *316:89 *358:28 0
127 *325:16 *2881:A 0.000878446
128 *325:28 *2881:A 3.74161e-05
129 *325:28 *358:6 0.000148084
130 *325:28 *358:28 0.000317407
131 *326:6 *358:28 2.77283e-05
132 *328:30 *358:28 9.11794e-05
133 *350:83 *3125:A1 0.000919351
*RES
1 *2880:X *358:4 1.6 
2 *358:4 *358:6 1.485 
3 *358:6 *358:28 49.99 
4 *358:28 *358:30 0.36 
5 *358:30 *358:36 21.98 
6 *358:36 *2580:A1 3.6 
7 *358:36 *358:57 27.195 
8 *358:57 *3098:A 1.6 
9 *358:57 *358:64 1.83 
10 *358:64 *3009:A 1.6 
11 *358:64 *358:79 7.645 
12 *358:79 *2986:A 1.6 
13 *358:79 *358:96 17.71 
14 *358:96 *358:114 18.99 
15 *358:114 *3125:A1 35.215 
16 *358:114 *3109:A1 5.085 
17 *358:96 *3114:A1 1.6 
18 *358:30 *2600:A1 1.6 
19 *358:6 *2902:A 1.6 
20 *358:4 *2881:A 19.535 
*END

*D_NET *359 0.0207857
*CONN
*I *2956:A0 I *D sky130_fd_sc_hd__mux2_1
*I *2882:A0 I *D sky130_fd_sc_hd__mux2_1
*I *2968:A0 I *D sky130_fd_sc_hd__mux2_1
*I *2962:A0 I *D sky130_fd_sc_hd__mux2_1
*I *2639:A I *D sky130_fd_sc_hd__xnor2_1
*I *2981:A0 I *D sky130_fd_sc_hd__mux2_1
*I *2944:A0 I *D sky130_fd_sc_hd__mux2_1
*I *2888:A0 I *D sky130_fd_sc_hd__mux2_1
*I *2894:A0 I *D sky130_fd_sc_hd__mux2_1
*I *2921:A0 I *D sky130_fd_sc_hd__mux2_1
*I *2881:X O *D sky130_fd_sc_hd__buf_2
*CAP
1 *2956:A0 6.04201e-05
2 *2882:A0 0
3 *2968:A0 0.000202637
4 *2962:A0 0.000226962
5 *2639:A 0.000207813
6 *2981:A0 3.55506e-05
7 *2944:A0 0.000252002
8 *2888:A0 0
9 *2894:A0 3.58858e-05
10 *2921:A0 0.000528935
11 *2881:X 0
12 *359:119 0.000629236
13 *359:111 0.000667106
14 *359:96 0.000734055
15 *359:83 0.00131827
16 *359:70 0.00191221
17 *359:18 0.00114776
18 *359:12 0.0019073
19 *359:8 0.00179943
20 *359:4 0.00131627
21 *2639:A *2810:B2 0
22 *2639:A *592:102 0
23 *2894:A0 *2894:A1 4.66108e-05
24 *2921:A0 *2735:B2 7.23237e-05
25 *2921:A0 *2813:A1 5.56288e-05
26 *2921:A0 *2842:A0 0
27 *2921:A0 *369:10 0.00036779
28 *2921:A0 *900:12 0
29 *2921:A0 *906:10 0
30 *2944:A0 *590:86 3.1388e-05
31 *2956:A0 *2956:A1 8.41384e-05
32 *2962:A0 *2810:A1 6.64516e-05
33 *2962:A0 *2810:A2 2.87433e-05
34 *2962:A0 *2810:B1 5.4155e-06
35 *2962:A0 *2962:A1 0.000113765
36 *2962:A0 *2963:A 5.41685e-05
37 *2962:A0 *3333:A 8.57024e-05
38 *2962:A0 *796:30 3.9385e-05
39 *2968:A0 *2882:A1 4.82863e-05
40 *2968:A0 *2966:S 1.16578e-05
41 *2968:A0 *2968:A1 0.000328073
42 *2968:A0 *416:12 7.66083e-05
43 *359:12 *2888:A1 0.000269625
44 *359:12 *3381:A 2.8585e-06
45 *359:12 *606:27 5.56048e-05
46 *359:12 *606:42 6.07575e-06
47 *359:12 *759:28 0.00023468
48 *359:12 *919:6 9.76295e-06
49 *359:18 *2888:A1 4.82919e-05
50 *359:18 *3151:CLK 0
51 *359:18 *369:10 0.000399694
52 *359:18 *369:19 0.000632261
53 *359:70 *2981:A1 3.94592e-05
54 *359:70 *2982:A 0.00012402
55 *359:83 *2981:A1 1.7386e-05
56 *359:83 *3374:A 0
57 *359:96 *2810:A1 8.34281e-06
58 *359:96 *2810:B1 4.66108e-05
59 *359:96 *2810:B2 0.000109437
60 *359:111 *2731:A2 0.000383324
61 *359:111 *2737:A2 0.000201393
62 *359:111 *2957:A 8.33066e-06
63 *359:111 *592:28 2.70314e-05
64 *359:111 *619:62 5.16418e-05
65 *359:111 *737:46 2.07184e-05
66 *359:119 *2731:A2 3.54721e-05
67 *359:119 *2882:A1 7.4027e-05
68 *359:119 *2955:A 0
69 *359:119 *2957:A 0.000112589
70 *359:119 *592:28 2.41554e-05
71 *359:119 *592:30 4.46958e-05
72 *359:119 *592:32 5.09385e-05
73 *2640:A0 *359:83 0
74 *2735:A2 *359:18 0
75 *2759:C *359:12 3.81758e-05
76 *2760:B1 *359:8 8.65961e-05
77 *2760:B1 *359:12 3.27343e-05
78 *2760:C1 *359:12 3.00381e-05
79 *2762:A *2944:A0 2.53847e-05
80 *2819:A1 *2944:A0 0.000236262
81 *2838:A *359:18 0
82 *2838:B *2894:A0 8.23457e-05
83 *2877:A *359:70 0.000107952
84 *2881:A *359:8 0.000123225
85 *2882:S *2968:A0 0.000164874
86 *2882:S *359:119 0
87 *3148:D *359:12 0.000420319
88 *3163:D *359:18 9.30717e-05
89 *3171:D *359:119 0.000156916
90 *3173:D *359:111 4.39079e-05
91 *174:43 *2944:A0 8.53113e-06
92 *174:43 *359:12 7.67345e-05
93 *174:61 *359:12 1.19928e-05
94 *183:75 *359:18 0
95 *187:98 *2944:A0 4.34171e-05
96 *197:28 *359:18 0.000118417
97 *208:58 *2921:A0 4.61701e-06
98 *211:47 *359:111 1.32017e-05
99 *211:47 *359:119 1.48851e-05
100 *299:32 *359:18 1.91597e-05
101 *315:39 *2639:A 4.43871e-06
102 *315:39 *359:83 8.78813e-05
103 *316:22 *359:83 0.00030018
104 *322:12 *359:70 0.00014766
105 *322:16 *359:70 0.000155601
106 *323:10 *359:83 2.65814e-06
107 *328:149 *359:70 0.000119762
108 *350:20 *359:96 9.28264e-05
109 *350:48 *359:70 6.59891e-05
110 *351:16 *2962:A0 0.000201511
111 *351:150 *2639:A 0
112 *351:150 *359:83 0
113 *356:14 *359:70 0.000118081
114 *356:14 *359:119 0
*RES
1 *2881:X *359:4 1.6 
2 *359:4 *359:8 3.825 
3 *359:8 *359:12 16.845 
4 *359:12 *359:18 14.885 
5 *359:18 *2921:A0 13.335 
6 *359:18 *2894:A0 4.395 
7 *359:12 *2888:A0 1.6 
8 *359:8 *2944:A0 9.41 
9 *359:4 *359:70 20.035 
10 *359:70 *2981:A0 2.215 
11 *359:70 *359:83 16.76 
12 *359:83 *2639:A 6 
13 *359:83 *359:96 7.28 
14 *359:96 *2962:A0 7.6 
15 *359:96 *359:111 7.205 
16 *359:111 *359:119 10.31 
17 *359:119 *2968:A0 6.91 
18 *359:119 *2882:A0 1.6 
19 *359:111 *2956:A0 4.395 
*END

*D_NET *360 0.000948922
*CONN
*I *2883:A I *D sky130_fd_sc_hd__clkbuf_1
*I *2882:X O *D sky130_fd_sc_hd__mux2_1
*CAP
1 *2883:A 0.000214442
2 *2882:X 0.000214442
3 *2883:A *3175:CLK 0.000139238
4 *2883:A *592:32 0.000116165
5 *2883:A *921:10 0.00011033
6 *3147:D *2883:A 0.00011852
7 *3175:D *2883:A 3.57846e-05
*RES
1 *2882:X *2883:A 12.015 
*END

*D_NET *361 0.0340663
*CONN
*I *3070:A I *D sky130_fd_sc_hd__or2_1
*I *2983:A I *D sky130_fd_sc_hd__or2_1
*I *2885:B I *D sky130_fd_sc_hd__or2_1
*I *2567:A I *D sky130_fd_sc_hd__or2_1
*I *2884:X O *D sky130_fd_sc_hd__or2_2
*CAP
1 *3070:A 0.00300835
2 *2983:A 0.000386002
3 *2885:B 7.2006e-05
4 *2567:A 0.00246549
5 *2884:X 4.38036e-05
6 *361:54 0.00437699
7 *361:36 0.0032563
8 *361:10 0.00408296
9 *2567:A *2580:S 0.000143266
10 *2567:A *528:18 8.53113e-06
11 *2567:A *590:24 0.000539792
12 *2567:A *590:52 0.00181855
13 *2567:A *737:36 4.02362e-05
14 *2885:B *2899:B 1.85674e-05
15 *2983:A *2834:B 8.29071e-05
16 *2983:A *2983:B 8.65961e-05
17 *2983:A *3277:RESET_B 0.000317708
18 *2983:A *619:54 0.000212923
19 *2983:A *652:23 8.40213e-05
20 *3070:A *3066:A0 0.00121434
21 *3070:A *3080:A 5.04839e-05
22 *3070:A *365:14 0.00058667
23 *3070:A *590:208 0.00198426
24 *3070:A *590:222 0.00160166
25 *3070:A *602:10 0
26 *3070:A *607:22 0.000123516
27 *361:36 *2551:S 4.66108e-05
28 *361:36 *2834:B 5.71e-05
29 *361:36 *3065:B 1.9291e-05
30 *361:36 *3066:A0 0.000374091
31 *361:36 *3133:A0 5.12462e-05
32 *361:36 *3314:A 0.000664174
33 *361:36 *3383:A 0.000229541
34 *361:36 *3465:A 0.000153144
35 *361:36 *407:14 5.3346e-05
36 *361:36 *415:27 0
37 *361:36 *415:52 0.00055053
38 *361:36 *474:6 2.49909e-05
39 *361:36 *511:150 0.000272016
40 *361:36 *607:22 0.000216089
41 *361:36 *775:57 0.000156774
42 *361:36 *775:61 0.000376016
43 *361:54 *370:16 0.000150302
44 *361:54 *370:33 0.000198715
45 *361:54 *370:54 0.000345115
46 *361:54 *528:18 6.21553e-05
47 *361:54 *532:18 0
48 *361:54 *715:47 5.46101e-05
49 *361:54 *737:36 4.34315e-05
50 *2729:A2 *2567:A 1.44809e-05
51 *2750:B1 *361:36 0
52 *2750:B1 *361:54 0.000171028
53 *2752:C1 *361:36 0
54 *2762:B *361:54 6.41438e-05
55 *2783:A *2983:A 7.18092e-05
56 *2784:B *361:54 0.000377775
57 *2788:B *361:36 0
58 *2791:B *361:36 0.000113939
59 *2791:D *361:36 0
60 *2862:A *3070:A 5.76076e-05
61 *2862:A *361:10 3.45252e-05
62 *2862:A *361:36 1.34361e-05
63 *3060:A *3070:A 0.00104453
64 *3210:D *361:36 7.03219e-05
65 *174:61 *2567:A 2.82975e-05
66 *174:61 *361:54 0.000132498
67 *202:115 *2567:A 0.000175038
68 *211:37 *361:36 4.92096e-05
69 *211:85 *2567:A 0
70 *215:68 *361:36 0.000103597
71 *215:108 *2567:A 0.000492358
72 *218:42 *3070:A 7.81994e-05
73 *231:14 *361:54 0
74 *321:63 *3070:A 2.37183e-05
75 *322:10 *361:54 0
76 *322:18 *2885:B 4.47209e-05
77 *322:31 *2885:B 1.62913e-05
78 *336:12 *361:36 0.000161364
79 *336:23 *361:10 1.85674e-05
80 *345:16 *3070:A 0
81 *352:20 *361:36 3.63701e-06
*RES
1 *2884:X *361:10 4.41 
2 *361:10 *361:36 39.37 
3 *361:36 *361:54 19.5143 
4 *361:54 *2567:A 13.5379 
5 *361:54 *2885:B 4.755 
6 *361:36 *2983:A 10.81 
7 *361:10 *3070:A 14.6265 
*END

*D_NET *362 0.00220817
*CONN
*I *2886:S I *D sky130_fd_sc_hd__mux2_1
*I *2888:S I *D sky130_fd_sc_hd__mux2_1
*I *2885:X O *D sky130_fd_sc_hd__or2_1
*CAP
1 *2886:S 2.21004e-05
2 *2888:S 0.000451563
3 *2885:X 0.000322026
4 *362:6 0.00079569
5 *2888:S *369:19 9.44681e-05
6 *2888:S *528:18 0.000158579
7 *362:6 *2886:A1 0.000235573
8 *183:75 *2888:S 0
9 *322:31 *2888:S 4.9253e-06
10 *322:31 *362:6 0.000123248
*RES
1 *2885:X *362:6 6.88 
2 *362:6 *2888:S 12.62 
3 *362:6 *2886:S 1.96 
*END

*D_NET *363 0.001155
*CONN
*I *2887:A I *D sky130_fd_sc_hd__clkbuf_1
*I *2886:X O *D sky130_fd_sc_hd__mux2_1
*CAP
1 *2887:A 0.000134731
2 *2886:X 0.000134731
3 *2887:A *2760:A1 0.000197264
4 *2887:A *2811:B2 7.10578e-05
5 *2887:A *918:6 2.75145e-05
6 *2886:A0 *2887:A 0.000289689
7 *202:14 *2887:A 0.000288023
8 *299:32 *2887:A 1.19928e-05
*RES
1 *2886:X *2887:A 12.45 
*END

*D_NET *364 0.000390427
*CONN
*I *2889:A I *D sky130_fd_sc_hd__clkbuf_1
*I *2888:X O *D sky130_fd_sc_hd__mux2_1
*CAP
1 *2889:A 9.64434e-05
2 *2888:X 9.64434e-05
3 *2889:A *391:43 0
4 *2889:A *606:42 0.000135896
5 *3149:D *2889:A 4.05358e-05
6 *299:32 *2889:A 2.11084e-05
*RES
1 *2888:X *2889:A 9.285 
*END

*D_NET *365 0.0223622
*CONN
*I *2990:A I *D sky130_fd_sc_hd__or2_1
*I *3075:A I *D sky130_fd_sc_hd__or2_1
*I *2891:B I *D sky130_fd_sc_hd__or2_1
*I *2572:A I *D sky130_fd_sc_hd__or2_1
*I *2890:X O *D sky130_fd_sc_hd__or3_2
*CAP
1 *2990:A 0
2 *3075:A 0.000436613
3 *2891:B 0.000184959
4 *2572:A 0.00175944
5 *2890:X 0.00114506
6 *365:64 0.00162936
7 *365:22 0.00346754
8 *365:14 0.00386096
9 *2572:A *2626:A 4.77719e-05
10 *2572:A *2798:A1 5.51638e-05
11 *2572:A *3423:A 0.000161631
12 *2572:A *527:40 0.000382726
13 *2572:A *527:50 2.0851e-06
14 *2572:A *600:18 7.14653e-05
15 *2572:A *600:26 9.02174e-05
16 *2891:B *2899:B 0.000306155
17 *2891:B *366:10 4.66826e-05
18 *3075:A *3075:B 4.92062e-05
19 *3075:A *433:10 8.23457e-05
20 *365:14 *3080:A 0.000263177
21 *365:14 *371:16 0.00114222
22 *365:14 *384:26 0.000199855
23 *365:14 *677:20 1.22824e-05
24 *365:22 *2596:A 0.000115652
25 *365:22 *2703:A 0.00025683
26 *365:22 *2912:B 0.000511036
27 *365:22 *2913:A0 3.72081e-05
28 *365:22 *3091:A0 7.4027e-05
29 *365:22 *3099:A0 0.00064224
30 *365:22 *3191:CLK 1.0911e-05
31 *365:22 *391:37 0
32 *365:22 *391:43 0
33 *365:22 *500:131 7.87176e-05
34 *365:22 *603:82 5.78474e-05
35 *365:22 *603:91 0.000314906
36 *365:22 *606:42 0.000511897
37 *365:64 *2775:A1 0.000194694
38 *365:64 *2976:A0 0.000160115
39 *365:64 *2977:A 2.8585e-06
40 *365:64 *3191:CLK 0.000142778
41 *365:64 *391:37 0
42 *365:64 *439:10 0.000178227
43 *2775:B1 *365:64 2.30292e-05
44 *2807:B1 *2572:A 4.94474e-05
45 *2808:A1 *2572:A 5.93963e-05
46 *2891:A *2891:B 4.66108e-05
47 *3070:A *365:14 0.00058667
48 *3157:D *2572:A 1.43717e-05
49 *3176:D *365:64 9.79246e-05
50 *3267:D *2572:A 7.23533e-05
51 *177:10 *365:22 0.000284808
52 *177:24 *365:22 5.95556e-05
53 *177:100 *365:22 1.88889e-05
54 *193:56 *365:22 8.09021e-06
55 *207:12 *365:64 0.000648875
56 *208:10 *365:64 0
57 *208:18 *365:22 0.000144906
58 *208:118 *3075:A 3.83194e-05
59 *208:118 *365:64 0.000210257
60 *215:108 *2572:A 0.000247806
61 *235:18 *3075:A 0.000574273
62 *291:24 *2891:B 2.16833e-05
63 *291:24 *365:22 0.000349648
64 *340:41 *365:14 3.82018e-05
65 *345:16 *365:14 8.01934e-05
*RES
1 *2890:X *365:14 8.33017 
2 *365:14 *365:22 37.5575 
3 *365:22 *2572:A 29.75 
4 *365:22 *2891:B 5.5 
5 *365:14 *365:64 21.4775 
6 *365:64 *3075:A 10.33 
7 *365:64 *2990:A 1.6 
*END

*D_NET *366 0.00572126
*CONN
*I *2894:S I *D sky130_fd_sc_hd__mux2_1
*I *2892:S I *D sky130_fd_sc_hd__mux2_1
*I *2891:X O *D sky130_fd_sc_hd__or2_1
*CAP
1 *2894:S 0.000144595
2 *2892:S 0.00019961
3 *2891:X 0.000451358
4 *366:10 0.000795563
5 *366:10 *2935:B 5.50989e-05
6 *366:10 *374:90 0.000675822
7 *2816:B *2892:S 0.00027299
8 *2838:B *2894:S 0.000342778
9 *2891:B *366:10 4.66826e-05
10 *181:75 *2892:S 0.000198373
11 *181:75 *366:10 0.00050254
12 *187:112 *2892:S 9.07709e-05
13 *208:20 *366:10 0.00116953
14 *208:26 *2892:S 0.000179032
15 *208:26 *366:10 0.00015997
16 *208:58 *2892:S 8.86778e-05
17 *325:32 *2892:S 9.27495e-05
18 *358:28 *2894:S 0.00025512
*RES
1 *2891:X *366:10 20.055 
2 *366:10 *2892:S 9.9 
3 *366:10 *2894:S 7.845 
*END

*D_NET *367 0.00099561
*CONN
*I *2893:A I *D sky130_fd_sc_hd__clkbuf_1
*I *2892:X O *D sky130_fd_sc_hd__mux2_1
*CAP
1 *2893:A 0.000173824
2 *2892:X 0.000173824
3 *2893:A *3392:A 2.75229e-05
4 *2893:A *385:16 0.000309722
5 *2736:B1 *2893:A 0.000122325
6 *2738:A *2893:A 2.0514e-05
7 *325:49 *2893:A 0.000167879
*RES
1 *2892:X *2893:A 12.36 
*END

*D_NET *368 0.00065823
*CONN
*I *2895:A I *D sky130_fd_sc_hd__clkbuf_1
*I *2894:X O *D sky130_fd_sc_hd__mux2_1
*CAP
1 *2895:A 0.000191919
2 *2894:X 0.000191919
3 *2895:A *2735:B2 0
4 *2895:A *396:12 0.000109808
5 *2814:B1 *2895:A 9.44791e-05
6 *3151:D *2895:A 7.0104e-05
*RES
1 *2894:X *2895:A 10.875 
*END

*D_NET *369 0.026453
*CONN
*I *2948:A1 I *D sky130_fd_sc_hd__mux2_1
*I *2900:A1 I *D sky130_fd_sc_hd__mux2_1
*I *2924:A1 I *D sky130_fd_sc_hd__mux2_1
*I *2936:A1 I *D sky130_fd_sc_hd__mux2_1
*I *3001:A1 I *D sky130_fd_sc_hd__mux2_1
*I *2974:A1 I *D sky130_fd_sc_hd__mux2_1
*I *2996:A1 I *D sky130_fd_sc_hd__mux2_1
*I *2907:A1 I *D sky130_fd_sc_hd__mux2_1
*I *2913:A1 I *D sky130_fd_sc_hd__mux2_1
*I *2930:A1 I *D sky130_fd_sc_hd__mux2_1
*I *2896:X O *D sky130_fd_sc_hd__buf_2
*CAP
1 *2948:A1 0
2 *2900:A1 0.000419061
3 *2924:A1 0.00024398
4 *2936:A1 0
5 *3001:A1 0.000431502
6 *2974:A1 0.000203217
7 *2996:A1 0.00157862
8 *2907:A1 6.99795e-05
9 *2913:A1 0
10 *2930:A1 0
11 *2896:X 0
12 *369:132 0.0012229
13 *369:104 0.000626394
14 *369:74 0.00189975
15 *369:30 0.0016486
16 *369:28 0.00155983
17 *369:19 0.00084801
18 *369:10 0.00107884
19 *369:4 0.00171188
20 *2900:A1 *2815:B2 0.000307028
21 *2900:A1 *2900:A0 4.99619e-05
22 *2900:A1 *2900:S 8.65961e-05
23 *2900:A1 *2948:S 8.53113e-06
24 *2900:A1 *374:18 6.30797e-05
25 *2900:A1 *896:12 0
26 *2907:A1 *2907:A0 0.000157551
27 *2907:A1 *2907:S 0.000158965
28 *2907:A1 *3391:A 4.01749e-05
29 *2924:A1 *2924:S 1.83847e-05
30 *2924:A1 *2936:S 2.11084e-05
31 *2974:A1 *2973:B 4.12061e-05
32 *2974:A1 *2974:S 0.000269292
33 *2996:A1 *2784:A 4.77769e-05
34 *2996:A1 *2784:C 5.39916e-05
35 *2996:A1 *2907:S 1.19928e-05
36 *2996:A1 *2996:A0 4.77757e-05
37 *2996:A1 *2996:S 9.36295e-05
38 *2996:A1 *2997:A 0.000339654
39 *2996:A1 *3391:A 3.12334e-05
40 *2996:A1 *3408:A 0.000172303
41 *2996:A1 *436:14 0.000158484
42 *3001:A1 *2770:A1 9.51969e-05
43 *3001:A1 *2976:A0 2.12738e-05
44 *3001:A1 *3001:A0 4.82863e-05
45 *3001:A1 *3359:A 8.21687e-05
46 *3001:A1 *3360:A 4.52778e-05
47 *3001:A1 *374:141 0.000481411
48 *369:10 *2602:A 3.09233e-05
49 *369:10 *2735:B2 0.000578407
50 *369:10 *2814:B2 2.03356e-05
51 *369:19 *2602:A 0.00018471
52 *369:19 *2913:S 3.05858e-05
53 *369:19 *391:43 0.000545644
54 *369:28 *2913:S 0.00017107
55 *369:28 *3437:A 3.70021e-05
56 *369:28 *374:105 0
57 *369:28 *376:84 8.69202e-05
58 *369:28 *377:10 0.000112689
59 *369:28 *381:8 0.000103183
60 *369:28 *391:43 5.23984e-05
61 *369:74 *2770:A1 0.000510842
62 *369:74 *2909:S 0.000153794
63 *369:74 *2910:A 8.74489e-05
64 *369:74 *3384:A 9.17261e-05
65 *369:74 *374:141 0.000190889
66 *369:74 *376:84 0.0002488
67 *369:74 *377:10 2.92496e-05
68 *369:74 *391:43 0.000150046
69 *369:74 *603:82 6.42099e-05
70 *369:104 *2919:S 0.000233918
71 *369:104 *2921:A1 3.78687e-05
72 *369:104 *2936:A0 5.062e-06
73 *369:104 *2936:S 5.80755e-05
74 *369:104 *396:12 0.000112046
75 *369:104 *905:12 0.000233925
76 *369:104 *906:10 0
77 *369:132 *2814:B2 6.72833e-06
78 *369:132 *3168:CLK 0.000247196
79 *369:132 *3395:A 0.000230656
80 *369:132 *605:18 0.000383438
81 *369:132 *897:6 3.12916e-05
82 *2704:B1 *369:74 0.000109583
83 *2730:A2 *3001:A1 0
84 *2730:A2 *369:74 0
85 *2730:D1 *369:74 0
86 *2733:A2 *369:104 0.000215552
87 *2740:A1 *2900:A1 0
88 *2770:A2 *369:74 6.15019e-05
89 *2800:A2 *369:74 9.06252e-05
90 *2800:B1 *369:74 0.000561257
91 *2814:B1 *369:10 0
92 *2814:C1 *369:104 6.90254e-05
93 *2816:B *369:132 3.06569e-06
94 *2888:S *369:19 9.44681e-05
95 *2896:A *369:10 0.000269955
96 *2896:A *369:132 5.19006e-06
97 *2921:A0 *369:10 0.00036779
98 *2923:A *369:132 0.000122817
99 *2923:B *369:132 0.000157299
100 *3168:D *369:132 1.43717e-05
101 *3185:D *2996:A1 7.32433e-05
102 *3255:D *2996:A1 0.000244543
103 *3295:A *369:74 2.4321e-05
104 *176:74 *369:74 0.000863314
105 *181:75 *369:104 0.000102962
106 *183:75 *369:19 0
107 *183:75 *369:28 0
108 *197:28 *369:10 0
109 *197:28 *369:19 0.000117045
110 *231:26 *369:74 0.0001495
111 *321:34 *3001:A1 1.7635e-05
112 *321:63 *369:74 0.000129951
113 *359:18 *369:10 0.000399694
114 *359:18 *369:19 0.000632261
*RES
1 *2896:X *369:4 1.6 
2 *369:4 *369:10 14.24 
3 *369:10 *2930:A1 3.6 
4 *369:10 *369:19 14.385 
5 *369:19 *2913:A1 3.6 
6 *369:19 *369:28 5.97 
7 *369:28 *369:30 2 
8 *369:30 *2907:A1 3.775 
9 *369:30 *2996:A1 22.915 
10 *369:28 *369:74 29.4809 
11 *369:74 *2974:A1 7.17 
12 *369:74 *3001:A1 11.745 
13 *369:4 *369:104 13.405 
14 *369:104 *2936:A1 1.6 
15 *369:104 *2924:A1 4.465 
16 *369:4 *369:132 14.535 
17 *369:132 *2900:A1 14.915 
18 *369:132 *2948:A1 1.6 
*END

*D_NET *370 0.015919
*CONN
*I *2556:A I *D sky130_fd_sc_hd__or2_2
*I *2898:C I *D sky130_fd_sc_hd__or4b_4
*I *2971:A I *D sky130_fd_sc_hd__or2_1
*I *2905:B I *D sky130_fd_sc_hd__or4b_4
*I *2911:B I *D sky130_fd_sc_hd__or4b_2
*I *3095:A I *D sky130_fd_sc_hd__or3_1
*I *3012:A I *D sky130_fd_sc_hd__or3_1
*I *3058:A I *D sky130_fd_sc_hd__or2_1
*I *2592:A I *D sky130_fd_sc_hd__or3_1
*I *2918:B I *D sky130_fd_sc_hd__or3_2
*I *2897:X O *D sky130_fd_sc_hd__buf_2
*CAP
1 *2556:A 0
2 *2898:C 0.000228351
3 *2971:A 0
4 *2905:B 0
5 *2911:B 4.95022e-05
6 *3095:A 7.79001e-05
7 *3012:A 0
8 *3058:A 0.000187843
9 *2592:A 0
10 *2918:B 0.00019087
11 *2897:X 6.47804e-05
12 *370:119 0.000362525
13 *370:88 0.000284318
14 *370:86 0.000573958
15 *370:82 0.000639894
16 *370:64 0.000684715
17 *370:54 0.00169491
18 *370:33 0.00131854
19 *370:16 0.000714697
20 *370:8 0.000379433
21 *2898:C *2972:A 0.00012291
22 *2911:B *3095:B 9.50342e-06
23 *2911:B *376:14 1.59202e-05
24 *2911:B *380:10 2.96342e-05
25 *2911:B *384:26 9.82856e-06
26 *3058:A *2708:A 1.10085e-05
27 *3058:A *3058:B 8.41384e-05
28 *3058:A *447:12 0
29 *3095:A *474:49 4.52301e-05
30 *370:8 *2556:B 0.000104623
31 *370:8 *528:135 2.14725e-05
32 *370:16 *2899:B 0.000194694
33 *370:16 *528:18 0.000571637
34 *370:16 *528:135 8.41307e-05
35 *370:16 *737:36 0.000151962
36 *370:33 *2592:C 1.92979e-05
37 *370:54 *2549:A 0.000115254
38 *370:54 *2999:A 0
39 *370:54 *3014:A 8.7152e-06
40 *370:54 *3122:A 1.93765e-05
41 *370:54 *3185:CLK 7.35849e-05
42 *370:54 *432:29 0
43 *370:54 *515:10 0.000116165
44 *370:54 *594:22 0.000208603
45 *370:54 *594:26 0.000285726
46 *370:54 *715:30 1.43805e-05
47 *370:64 *3012:C 1.00941e-05
48 *370:64 *3014:A 4.60061e-05
49 *370:64 *3058:B 7.07824e-05
50 *370:64 *411:10 6.41825e-07
51 *370:64 *474:12 1.7635e-05
52 *370:64 *715:20 0.000453364
53 *370:82 *3014:A 6.13304e-05
54 *370:82 *419:144 3.64367e-05
55 *370:119 *3037:A 0.000157651
56 *370:119 *419:144 4.30639e-05
57 *2709:A3 *370:54 0.000146658
58 *2751:C *370:54 0.000133663
59 *2761:D *370:33 0
60 *2784:B *370:54 1.17309e-05
61 *2788:A *370:54 0.000462735
62 *2898:B *2898:C 4.82919e-05
63 *2905:A *3095:A 0
64 *2905:A *370:86 9.56017e-06
65 *2905:A *370:88 1.56428e-05
66 *2905:C *370:86 0.000371184
67 *3184:D *370:33 0
68 *3184:D *370:54 0
69 *3185:D *370:54 4.70982e-05
70 *3232:D *370:54 9.29751e-06
71 *3468:A *3058:A 2.86975e-05
72 *174:61 *2918:B 0.000193129
73 *174:61 *370:33 7.54194e-05
74 *174:69 *2918:B 0.000194914
75 *176:54 *370:54 6.98629e-05
76 *187:64 *2898:C 5.91891e-05
77 *187:64 *370:54 0.000165641
78 *187:64 *370:82 0.000166107
79 *187:64 *370:119 0.000257138
80 *193:14 *370:54 0.000585137
81 *194:8 *2898:C 6.59891e-05
82 *212:20 *370:64 0
83 *212:42 *370:54 6.7449e-05
84 *215:86 *370:8 0.000158536
85 *215:86 *370:16 0.000271712
86 *291:24 *370:16 1.91597e-05
87 *316:46 *2918:B 0.000255379
88 *316:46 *370:33 6.81888e-05
89 *316:60 *2918:B 3.0933e-05
90 *317:54 *2898:C 4.66108e-05
91 *317:54 *370:119 4.66108e-05
92 *317:72 *3095:A 2.0187e-05
93 *317:72 *370:88 3.86413e-05
94 *340:53 *2898:C 2.16833e-05
95 *340:61 *2898:C 0.000216782
96 *352:34 *3058:A 2.14725e-05
97 *352:34 *370:86 0.000157401
98 *361:54 *370:16 0.000150302
99 *361:54 *370:33 0.000198715
100 *361:54 *370:54 0.000345115
*RES
1 *2897:X *370:8 3.7 
2 *370:8 *370:16 14.62 
3 *370:16 *2918:B 6.895 
4 *370:16 *370:33 6.245 
5 *370:33 *2592:A 3.6 
6 *370:33 *370:54 28.8 
7 *370:54 *370:64 12.66 
8 *370:64 *3058:A 4.405 
9 *370:64 *3012:A 1.6 
10 *370:54 *370:82 2.145 
11 *370:82 *370:86 7.28 
12 *370:86 *370:88 1.83 
13 *370:88 *3095:A 3.01 
14 *370:88 *2911:B 6.47 
15 *370:86 *2905:B 1.6 
16 *370:82 *370:119 5.615 
17 *370:119 *2971:A 1.6 
18 *370:119 *2898:C 10.25 
19 *370:8 *2556:A 1.6 
*END

*D_NET *371 0.0283269
*CONN
*I *2995:A I *D sky130_fd_sc_hd__nor2_1
*I *2899:B I *D sky130_fd_sc_hd__nor2_1
*I *2577:A I *D sky130_fd_sc_hd__nor2_1
*I *3080:A I *D sky130_fd_sc_hd__nor2_1
*I *2898:X O *D sky130_fd_sc_hd__or4b_4
*CAP
1 *2995:A 0
2 *2899:B 0.000493503
3 *2577:A 0.00206459
4 *3080:A 0.00135679
5 *2898:X 0.00054606
6 *371:61 0.00281208
7 *371:57 0.00298423
8 *371:16 0.00463309
9 *2577:A *2577:B 8.40213e-05
10 *2577:A *2609:A 6.27029e-05
11 *2577:A *2614:A 8.65905e-05
12 *2577:A *2615:S 3.59784e-05
13 *2577:A *2746:A1 0.000268215
14 *2577:A *2888:A1 9.044e-05
15 *2577:A *2932:S 0.000198945
16 *2577:A *2935:B 0.00015829
17 *2577:A *3261:CLK 4.82863e-05
18 *2577:A *374:90 0.000668802
19 *2577:A *511:30 0.000787875
20 *2577:A *538:22 0.000137571
21 *2577:A *606:42 0.000177384
22 *2577:A *893:12 8.40325e-05
23 *2577:A *902:8 3.17194e-05
24 *2577:A *914:8 6.4316e-05
25 *3080:A *2774:A1 3.91137e-05
26 *3080:A *430:64 0.000160198
27 *3080:A *445:70 0.000306484
28 *3080:A *474:49 0.000129772
29 *3080:A *474:69 7.9642e-06
30 *3080:A *590:222 9.34773e-06
31 *371:16 *2971:B 0
32 *371:16 *384:26 0.00091105
33 *371:16 *403:49 5.8023e-05
34 *371:57 *737:24 0
35 *371:61 *374:90 0.000343945
36 *371:61 *606:42 7.58798e-06
37 *2718:B1 *3080:A 4.14843e-05
38 *2727:B1 *2577:A 0.000139238
39 *2811:A2 *2577:A 0.00025386
40 *2819:A1 *2899:B 0.00013654
41 *2885:B *2899:B 1.85674e-05
42 *2891:B *2899:B 0.000306155
43 *3060:A *3080:A 0.00103543
44 *3070:A *3080:A 5.04839e-05
45 *3149:D *2577:A 0
46 *3163:D *2577:A 0.000201897
47 *3192:D *3080:A 1.43717e-05
48 *3193:D *3080:A 0.000650887
49 *3254:D *371:61 0.00013426
50 *3260:D *2577:A 2.84434e-05
51 *3261:D *2577:A 1.54049e-05
52 *174:61 *2899:B 0.00013654
53 *183:85 *2577:A 8.74209e-05
54 *194:8 *371:16 5.87934e-05
55 *197:18 *371:57 4.57946e-05
56 *197:28 *371:57 0.000188205
57 *208:18 *371:57 0.00026275
58 *208:18 *371:61 8.89007e-05
59 *218:108 *371:16 0.000210546
60 *231:26 *371:57 1.09082e-05
61 *291:24 *2899:B 0.000963238
62 *291:24 *371:57 0.000140709
63 *291:24 *371:61 0.000636998
64 *299:32 *2577:A 2.58522e-05
65 *317:54 *371:16 4.82863e-05
66 *321:63 *3080:A 2.6397e-05
67 *322:16 *2899:B 3.2732e-05
68 *322:18 *2899:B 0.000122184
69 *345:16 *3080:A 0.000652107
70 *345:16 *371:16 0.000112469
71 *365:14 *3080:A 0.000263177
72 *365:14 *371:16 0.00114222
73 *370:16 *2899:B 0.000194694
*RES
1 *2898:X *371:16 9.25263 
2 *371:16 *3080:A 21.0636 
3 *371:16 *371:57 8.51863 
4 *371:57 *371:61 8.46 
5 *371:61 *2577:A 46.6 
6 *371:61 *2899:B 20.86 
7 *371:57 *2995:A 3.6 
*END

*D_NET *372 0.00553562
*CONN
*I *2900:S I *D sky130_fd_sc_hd__mux2_1
*I *2903:S I *D sky130_fd_sc_hd__mux2_1
*I *2899:Y O *D sky130_fd_sc_hd__nor2_1
*CAP
1 *2900:S 0.000139756
2 *2903:S 2.03181e-05
3 *2899:Y 0.00101205
4 *372:14 0.00117212
5 *2900:S *2900:A0 2.30292e-05
6 *2900:S *2901:A 3.83041e-05
7 *2903:S *2901:A 4.99619e-05
8 *372:14 *2736:A2 0.000159964
9 *372:14 *2736:B2 0
10 *372:14 *2737:B2 0.00019703
11 *372:14 *2815:A1 5.07293e-05
12 *372:14 *2815:B2 0.000186646
13 *372:14 *2926:A1 4.18603e-06
14 *372:14 *2947:B 0
15 *372:14 *2949:A 7.03276e-05
16 *372:14 *2950:S 3.27181e-06
17 *372:14 *374:18 0.000720619
18 *372:14 *374:40 0.000134005
19 *372:14 *374:76 0.000606827
20 *372:14 *403:53 0.000103105
21 *372:14 *759:28 0.000137205
22 *372:14 *759:34 0
23 *2761:D *372:14 7.23602e-05
24 *2819:A1 *372:14 0
25 *2900:A1 *2900:S 8.65961e-05
26 *187:98 *372:14 0
27 *231:116 *372:14 0.000487991
28 *328:20 *372:14 5.92191e-05
*RES
1 *2899:Y *372:14 32.015 
2 *372:14 *2903:S 2.05 
3 *372:14 *2900:S 4.12 
*END

*D_NET *373 0.000842323
*CONN
*I *2901:A I *D sky130_fd_sc_hd__clkbuf_1
*I *2900:X O *D sky130_fd_sc_hd__mux2_1
*CAP
1 *2901:A 0.000239664
2 *2900:X 0.000239664
3 *2901:A *2903:A0 0.00015896
4 *2900:S *2901:A 3.83041e-05
5 *2903:S *2901:A 4.99619e-05
6 *3152:D *2901:A 0.00011577
*RES
1 *2900:X *2901:A 8.06 
*END

*D_NET *374 0.0289473
*CONN
*I *2932:A1 I *D sky130_fd_sc_hd__mux2_1
*I *2976:A1 I *D sky130_fd_sc_hd__mux2_1
*I *3003:A1 I *D sky130_fd_sc_hd__mux2_1
*I *2998:A1 I *D sky130_fd_sc_hd__mux2_1
*I *2909:A1 I *D sky130_fd_sc_hd__mux2_1
*I *2915:A1 I *D sky130_fd_sc_hd__mux2_1
*I *2903:A1 I *D sky130_fd_sc_hd__mux2_1
*I *2926:A1 I *D sky130_fd_sc_hd__mux2_1
*I *2938:A1 I *D sky130_fd_sc_hd__mux2_1
*I *2950:A1 I *D sky130_fd_sc_hd__mux2_1
*I *2902:X O *D sky130_fd_sc_hd__clkbuf_4
*CAP
1 *2932:A1 0
2 *2976:A1 0
3 *3003:A1 0.000265452
4 *2998:A1 0.000657984
5 *2909:A1 0
6 *2915:A1 0.000169868
7 *2903:A1 0
8 *2926:A1 0.000599092
9 *2938:A1 0.00100086
10 *2950:A1 0
11 *2902:X 3.45092e-05
12 *374:141 0.00149936
13 *374:113 0.000790256
14 *374:105 0.00158521
15 *374:90 0.00114831
16 *374:76 0.00175262
17 *374:40 0.000732067
18 *374:20 0.00104621
19 *374:18 0.000563752
20 *374:8 0.00141315
21 *2915:A1 *2915:S 0.000234746
22 *2926:A1 *2815:B2 0
23 *2926:A1 *2903:A0 0.00010344
24 *2926:A1 *2904:A 0
25 *2926:A1 *2926:A0 4.99619e-05
26 *2926:A1 *2926:S 8.26509e-05
27 *2926:A1 *3146:CLK 0
28 *2926:A1 *605:37 8.26527e-05
29 *2938:A1 *2815:A1 1.22325e-05
30 *2938:A1 *2936:S 0.000193136
31 *2938:A1 *2938:A0 3.07842e-05
32 *2938:A1 *2938:S 0.000530199
33 *2938:A1 *2950:A0 1.42598e-05
34 *2938:A1 *3348:A 2.10905e-05
35 *2998:A1 *2757:A1 0.000272984
36 *2998:A1 *2909:A0 0.000159851
37 *2998:A1 *2998:A0 4.66108e-05
38 *2998:A1 *2999:A 0.000121019
39 *3003:A1 *2775:A1 0
40 *3003:A1 *3022:A 0.000417905
41 *3003:A1 *604:10 4.31856e-05
42 *3003:A1 *604:40 0
43 *374:18 *2815:A1 0.000157394
44 *374:18 *2815:B2 0.000195953
45 *374:18 *2950:A0 3.69049e-05
46 *374:20 *2815:A1 1.08758e-05
47 *374:20 *2950:A0 0.000121659
48 *374:40 *605:29 5.85741e-05
49 *374:40 *605:31 6.44051e-05
50 *374:76 *2811:A1 0.000169616
51 *374:76 *2932:A0 0.000160641
52 *374:76 *606:8 0.000146866
53 *374:76 *606:10 4.82863e-05
54 *374:76 *606:27 0.000115697
55 *374:76 *902:8 0.000123444
56 *374:90 *2915:S 0.000184654
57 *374:90 *2932:A0 4.66108e-05
58 *374:90 *2935:B 3.42142e-05
59 *374:90 *902:8 2.16833e-05
60 *374:105 *3220:CLK 5.16348e-05
61 *374:105 *376:84 0.000190921
62 *374:113 *2909:A0 4.82863e-05
63 *374:113 *3220:CLK 5.61451e-05
64 *374:141 *2974:S 6.79508e-05
65 *374:141 *2976:A0 0
66 *374:141 *2976:S 0.000605562
67 *374:141 *3002:A 4.19967e-05
68 *374:141 *3100:A 9.1224e-05
69 *374:141 *3220:CLK 0.000282326
70 *374:141 *3221:CLK 0.000667633
71 *374:141 *376:84 0.00072498
72 *374:141 *391:37 0
73 *374:141 *395:26 0.000107905
74 *374:141 *603:82 5.93455e-05
75 *2577:A *374:90 0.000668802
76 *2730:A2 *3003:A1 0.000352553
77 *2733:A2 *2938:A1 0.000111068
78 *2738:C *374:18 0.000157595
79 *2738:C *374:76 0.000157595
80 *2740:A1 *374:18 0
81 *2740:A2 *374:18 0
82 *2757:A2 *2998:A1 4.35432e-05
83 *2761:C *2998:A1 1.19928e-05
84 *2817:A2 *374:8 0.000120655
85 *2900:A1 *374:18 6.30797e-05
86 *3001:A1 *374:141 0.000481411
87 *3152:D *2926:A1 0.000178321
88 *3152:D *374:40 2.14129e-05
89 *3167:D *374:76 1.43717e-05
90 *3222:D *374:141 0.00013026
91 *3254:D *374:90 1.14192e-05
92 *174:83 *2915:A1 4.40028e-05
93 *174:83 *374:90 0.000118138
94 *177:24 *2998:A1 0.000859581
95 *183:75 *374:105 0.000525019
96 *183:75 *374:141 0.000470792
97 *187:98 *374:18 2.54779e-05
98 *187:98 *374:76 0.000176
99 *197:108 *3003:A1 0.000319973
100 *208:18 *374:90 0.000299716
101 *208:20 *374:90 5.01899e-05
102 *212:42 *2998:A1 0.000417142
103 *212:142 *2915:A1 4.87465e-06
104 *358:28 *374:8 6.71882e-05
105 *366:10 *374:90 0.000675822
106 *369:28 *374:105 0
107 *369:74 *374:141 0.000190889
108 *371:61 *374:90 0.000343945
109 *372:14 *2926:A1 4.18603e-06
110 *372:14 *374:18 0.000720619
111 *372:14 *374:40 0.000134005
112 *372:14 *374:76 0.000606827
*RES
1 *2902:X *374:8 4.74 
2 *374:8 *374:18 12.815 
3 *374:18 *374:20 1.14 
4 *374:20 *2950:A1 1.6 
5 *374:20 *2938:A1 17.86 
6 *374:18 *374:40 5.93 
7 *374:40 *2926:A1 15.39 
8 *374:40 *2903:A1 3.6 
9 *374:8 *374:76 20.285 
10 *374:76 *374:90 23.305 
11 *374:90 *2915:A1 4.825 
12 *374:90 *374:105 8.585 
13 *374:105 *374:113 3.95 
14 *374:113 *2909:A1 1.6 
15 *374:113 *2998:A1 16.54 
16 *374:105 *374:141 35.645 
17 *374:141 *3003:A1 13.685 
18 *374:141 *2976:A1 1.6 
19 *374:76 *2932:A1 1.6 
*END

*D_NET *375 0.00078616
*CONN
*I *2904:A I *D sky130_fd_sc_hd__clkbuf_1
*I *2903:X O *D sky130_fd_sc_hd__mux2_1
*CAP
1 *2904:A 0.000279104
2 *2903:X 0.000279104
3 *2904:A *2812:B2 0
4 *2904:A *2926:A0 0
5 *2904:A *605:31 5.84456e-05
6 *2904:A *605:37 0.00011741
7 *2904:A *904:12 0
8 *2926:A1 *2904:A 0
9 *3153:D *2904:A 5.20968e-05
*RES
1 *2903:X *2904:A 12.765 
*END

*D_NET *376 0.0173261
*CONN
*I *2906:B I *D sky130_fd_sc_hd__nor2_1
*I *2582:A I *D sky130_fd_sc_hd__or2_1
*I *3000:A I *D sky130_fd_sc_hd__nor2_1
*I *3085:A I *D sky130_fd_sc_hd__nor2_1
*I *2905:X O *D sky130_fd_sc_hd__or4b_4
*CAP
1 *2906:B 0
2 *2582:A 0.00120865
3 *3000:A 1.64952e-05
4 *3085:A 0.00118491
5 *2905:X 0
6 *376:84 0.00263996
7 *376:14 0.00174505
8 *376:6 0.00197496
9 *2582:A *2802:A2 9.09055e-05
10 *2582:A *2908:A 5.06989e-05
11 *2582:A *3267:CLK 9.09055e-05
12 *2582:A *547:14 4.66108e-05
13 *3000:A *3000:B 4.87465e-06
14 *3085:A *2793:A1 0.000140912
15 *3085:A *2977:A 4.66108e-05
16 *3085:A *2990:B 0.000547508
17 *3085:A *3000:B 1.73667e-05
18 *3085:A *3020:A0 0.000198046
19 *3085:A *3021:A 0.000309336
20 *3085:A *3070:B 0.000122155
21 *3085:A *419:158 4.06954e-05
22 *3085:A *439:10 4.21973e-05
23 *3085:A *474:53 2.75145e-05
24 *3085:A *483:18 0
25 *3085:A *886:10 4.88478e-05
26 *376:14 *3015:A0 4.83522e-05
27 *376:14 *3016:A 4.82919e-05
28 *376:14 *380:10 0
29 *376:14 *384:26 3.82018e-05
30 *376:14 *419:158 0.000464851
31 *376:14 *439:10 8.69583e-05
32 *376:84 *3092:A 0.000116165
33 *376:84 *3220:CLK 0.000323668
34 *376:84 *384:26 5.53549e-06
35 *376:84 *384:43 0.000149042
36 *376:84 *391:37 0.000373917
37 *376:84 *391:43 0.000394468
38 *376:84 *603:82 0.000236486
39 *376:84 *726:26 0.000108871
40 *2703:C *376:84 2.81312e-05
41 *2722:A2 *2582:A 0.00023879
42 *2730:D1 *2582:A 4.66108e-05
43 *2745:A2 *2582:A 0.000210121
44 *2745:B1 *2582:A 2.88357e-05
45 *2763:B1 *376:84 0.000117466
46 *2772:A2 *376:84 1.88602e-05
47 *2772:B1 *376:84 7.8079e-05
48 *2906:A *2582:A 1.72577e-05
49 *2911:B *376:14 1.59202e-05
50 *3154:D *2582:A 2.87161e-05
51 *3176:D *3085:A 0.000134818
52 *3177:D *3085:A 0.000205255
53 *3222:D *376:84 0.000132439
54 *183:56 *376:84 1.74678e-05
55 *193:60 *376:84 4.6912e-05
56 *202:8 *376:14 0.000141553
57 *202:8 *376:84 0.000342129
58 *202:14 *376:84 0.000133148
59 *202:52 *376:84 0.000139079
60 *207:98 *2582:A 0.000379791
61 *218:24 *3085:A 0.000498681
62 *321:28 *376:14 6.52942e-05
63 *340:88 *376:14 1.91597e-05
64 *369:28 *376:84 8.69202e-05
65 *369:74 *376:84 0.0002488
66 *374:105 *376:84 0.000190921
67 *374:141 *376:84 0.00072498
*RES
1 *2905:X *376:6 3.6 
2 *376:6 *376:14 12.515 
3 *376:14 *3085:A 33.14 
4 *376:14 *3000:A 1.96 
5 *376:6 *376:84 37.0818 
6 *376:84 *2582:A 27.17 
7 *376:84 *2906:B 1.6 
*END

*D_NET *377 0.00138718
*CONN
*I *2909:S I *D sky130_fd_sc_hd__mux2_1
*I *2907:S I *D sky130_fd_sc_hd__mux2_1
*I *2906:Y O *D sky130_fd_sc_hd__nor2_1
*CAP
1 *2909:S 3.99841e-05
2 *2907:S 4.70364e-05
3 *2906:Y 0.000116859
4 *377:10 0.00020388
5 *2907:S *3391:A 0.0001947
6 *2909:S *391:43 0.000162325
7 *377:10 *2912:B 6.72833e-06
8 *377:10 *391:43 0.000135769
9 *2906:A *377:10 1.32102e-05
10 *2907:A1 *2907:S 0.000158965
11 *2996:A1 *2907:S 1.19928e-05
12 *369:28 *377:10 0.000112689
13 *369:74 *2909:S 0.000153794
14 *369:74 *377:10 2.92496e-05
*RES
1 *2906:Y *377:10 6.03 
2 *377:10 *2907:S 5.43 
3 *377:10 *2909:S 5.49 
*END

*D_NET *378 0.00049024
*CONN
*I *2908:A I *D sky130_fd_sc_hd__clkbuf_1
*I *2907:X O *D sky130_fd_sc_hd__mux2_1
*CAP
1 *2908:A 0.000208035
2 *2907:X 0.000208035
3 *2908:A *3391:A 2.34721e-05
4 *2582:A *2908:A 5.06989e-05
*RES
1 *2907:X *2908:A 10.275 
*END

*D_NET *379 0.00109913
*CONN
*I *2910:A I *D sky130_fd_sc_hd__clkbuf_1
*I *2909:X O *D sky130_fd_sc_hd__mux2_1
*CAP
1 *2910:A 0.000232226
2 *2909:X 0.000232226
3 *2910:A *3220:CLK 0.000119756
4 *2744:B *2910:A 0.000173305
5 *3155:D *2910:A 0.000231662
6 *176:74 *2910:A 2.25106e-05
7 *369:74 *2910:A 8.74489e-05
*RES
1 *2909:X *2910:A 12.015 
*END

*D_NET *380 0.0119208
*CONN
*I *3090:A I *D sky130_fd_sc_hd__nor2_1
*I *2912:B I *D sky130_fd_sc_hd__nor2_1
*I *3006:A I *D sky130_fd_sc_hd__nor2_1
*I *2587:A I *D sky130_fd_sc_hd__or2_1
*I *2911:X O *D sky130_fd_sc_hd__or4b_2
*CAP
1 *3090:A 0
2 *2912:B 0.000316121
3 *3006:A 1.68714e-05
4 *2587:A 0.000601752
5 *2911:X 0.000428761
6 *380:38 0.00143413
7 *380:22 0.00172688
8 *380:10 0.00102401
9 *2587:A *2582:B 8.49205e-05
10 *2587:A *2804:A2 0
11 *2587:A *3188:CLK 0.000418498
12 *2587:A *527:89 0.000123225
13 *2587:A *600:109 7.14699e-05
14 *2912:B *2909:A0 7.23602e-05
15 *2912:B *391:43 0.000167785
16 *380:10 *3090:B 0.000168677
17 *380:10 *3095:B 4.13879e-05
18 *380:10 *3096:S 0.00034092
19 *380:10 *3097:A 6.60474e-05
20 *380:10 *3400:A 0.000276686
21 *380:10 *384:43 0
22 *380:10 *474:33 4.92205e-05
23 *380:10 *498:10 0.00013475
24 *380:22 *2757:A1 0.000180675
25 *380:22 *3090:B 4.55864e-06
26 *380:22 *3097:A 3.59531e-06
27 *380:22 *3325:A 0.000452337
28 *380:22 *384:43 1.01784e-05
29 *380:22 *495:8 0.000290183
30 *380:38 *2796:A1 5.24934e-05
31 *380:38 *3006:B 0.000406075
32 *380:38 *3397:A 6.33103e-05
33 *2730:D1 *2587:A 0.00010952
34 *2744:B *2587:A 4.82919e-05
35 *2744:C *2587:A 4.39079e-05
36 *2796:A2 *2587:A 7.06865e-05
37 *2796:A2 *3006:A 7.47284e-05
38 *2796:B1 *380:38 2.91854e-05
39 *2799:B1 *380:38 0
40 *2799:C1 *2587:A 2.88436e-05
41 *2906:A *2912:B 7.15734e-05
42 *2911:A *380:10 2.34345e-05
43 *2911:B *380:10 2.96342e-05
44 *2934:A *380:10 8.53113e-06
45 *2934:B *380:10 2.7881e-05
46 *3155:D *380:38 2.12738e-05
47 *183:56 *380:10 1.8309e-05
48 *197:28 *2912:B 0.000119309
49 *207:90 *2587:A 0.000309729
50 *207:90 *3006:A 6.68849e-05
51 *208:18 *380:22 0.000561974
52 *212:65 *380:22 9.83349e-05
53 *212:65 *380:38 0.000103406
54 *212:91 *2587:A 7.23533e-05
55 *231:26 *380:38 8.52845e-05
56 *235:18 *2587:A 0.000141606
57 *317:72 *380:10 0.000111313
58 *321:28 *380:10 4.82863e-05
59 *322:61 *2912:B 5.08762e-05
60 *365:22 *2912:B 0.000511036
61 *376:14 *380:10 0
62 *377:10 *2912:B 6.72833e-06
*RES
1 *2911:X *380:10 15.12 
2 *380:10 *380:22 17.015 
3 *380:22 *380:38 17.55 
4 *380:38 *2587:A 21.67 
5 *380:38 *3006:A 4.47 
6 *380:22 *2912:B 13.775 
7 *380:10 *3090:A 3.6 
*END

*D_NET *381 0.00175342
*CONN
*I *2915:S I *D sky130_fd_sc_hd__mux2_1
*I *2913:S I *D sky130_fd_sc_hd__mux2_1
*I *2912:Y O *D sky130_fd_sc_hd__nor2_1
*CAP
1 *2915:S 8.10354e-05
2 *2913:S 7.41946e-05
3 *2912:Y 3.85788e-05
4 *381:8 0.000193809
5 *2913:S *391:43 0.000192941
6 *381:8 *391:43 0.000111147
7 *2915:A1 *2915:S 0.000234746
8 *174:83 *2915:S 0.000337478
9 *369:19 *2913:S 3.05858e-05
10 *369:28 *2913:S 0.00017107
11 *369:28 *381:8 0.000103183
12 *374:90 *2915:S 0.000184654
*RES
1 *2912:Y *381:8 4.98 
2 *381:8 *2913:S 6 
3 *381:8 *2915:S 7.5 
*END

*D_NET *382 0.00285244
*CONN
*I *2914:A I *D sky130_fd_sc_hd__clkbuf_1
*I *2913:X O *D sky130_fd_sc_hd__mux2_1
*CAP
1 *2914:A 0.000909526
2 *2913:X 0.000909526
3 *2914:A *2798:A1 3.62258e-06
4 *2914:A *395:57 0
5 *2914:A *527:26 0.000309614
6 *2914:A *600:66 3.73048e-05
7 *2914:A *600:81 5.66369e-05
8 *2798:B1 *2914:A 2.09749e-05
9 *2799:C1 *2914:A 1.01276e-05
10 *3156:D *2914:A 2.3358e-05
11 *174:104 *2914:A 5.98276e-05
12 *174:112 *2914:A 5.18608e-05
13 *316:60 *2914:A 0.000460061
*RES
1 *2913:X *2914:A 19.1891 
*END

*D_NET *383 0.00185805
*CONN
*I *2916:A I *D sky130_fd_sc_hd__clkbuf_1
*I *2915:X O *D sky130_fd_sc_hd__mux2_1
*CAP
1 *2916:A 0.000451542
2 *2915:X 0.000451542
3 *2916:A *2747:A1 3.03284e-05
4 *2916:A *2798:A1 4.04213e-05
5 *2916:A *395:57 0.000172996
6 *2916:A *600:66 1.02164e-05
7 *2747:B1 *2916:A 0.00010227
8 *2798:A2 *2916:A 0.000189953
9 *2798:A3 *2916:A 0.000106377
10 *2798:B1 *2916:A 0.000295216
11 *212:142 *2916:A 7.18795e-06
*RES
1 *2915:X *2916:A 15.735 
*END

*D_NET *384 0.0113537
*CONN
*I *3012:B I *D sky130_fd_sc_hd__or3_1
*I *2592:B I *D sky130_fd_sc_hd__or3_1
*I *2918:C I *D sky130_fd_sc_hd__or3_2
*I *3095:B I *D sky130_fd_sc_hd__or3_1
*I *2917:X O *D sky130_fd_sc_hd__or4b_2
*CAP
1 *3012:B 0
2 *2592:B 0.000505503
3 *2918:C 0.000112901
4 *3095:B 9.36799e-05
5 *2917:X 0.000213116
6 *384:43 0.00188279
7 *384:26 0.00179519
8 *384:14 0.000650243
9 *2592:B *2593:S 0.000341432
10 *2592:B *550:6 4.66108e-05
11 *3095:B *474:33 3.51395e-05
12 *384:14 *3047:A 0.000160145
13 *384:14 *411:10 3.23391e-05
14 *384:14 *677:20 0.000154586
15 *384:43 *2757:A1 4.19797e-05
16 *384:43 *3006:B 0.000241123
17 *384:43 *3090:B 0.000276592
18 *384:43 *3093:A0 0.000135916
19 *384:43 *3093:S 3.50033e-05
20 *384:43 *3096:A1 0.000234342
21 *384:43 *3325:A 3.84342e-05
22 *384:43 *419:61 9.60799e-05
23 *384:43 *474:33 5.36921e-05
24 *384:43 *495:8 0.000254085
25 *384:43 *726:26 0.000110153
26 *2593:A0 *2918:C 4.89078e-05
27 *2757:B1 *2918:C 3.41864e-05
28 *2757:B1 *384:43 0.000170081
29 *2772:B1 *384:43 8.8975e-05
30 *2784:B *2592:B 2.03356e-05
31 *2911:B *3095:B 9.50342e-06
32 *2911:B *384:26 9.82856e-06
33 *3468:A *384:14 0.000149321
34 *3468:A *384:26 1.88602e-05
35 *174:83 *2592:B 0.000157394
36 *176:64 *384:43 0.000154775
37 *177:24 *384:43 0
38 *202:14 *384:43 1.83728e-05
39 *208:18 *384:43 0
40 *322:61 *2918:C 0.000111687
41 *322:61 *384:43 3.18891e-05
42 *340:41 *384:14 0
43 *345:16 *384:26 0.00123292
44 *352:34 *384:14 0.000200327
45 *365:14 *384:26 0.000199855
46 *371:16 *384:26 0.00091105
47 *376:14 *384:26 3.82018e-05
48 *376:84 *384:26 5.53549e-06
49 *376:84 *384:43 0.000149042
50 *380:10 *3095:B 4.13879e-05
51 *380:10 *384:43 0
52 *380:22 *384:43 1.01784e-05
*RES
1 *2917:X *384:14 10.955 
2 *384:14 *384:26 5.8083 
3 *384:26 *3095:B 5.2275 
4 *384:26 *384:43 28.8375 
5 *384:43 *2918:C 6.255 
6 *384:43 *2592:B 9.915 
7 *384:14 *3012:B 1.6 
*END

*D_NET *385 0.00620582
*CONN
*I *2919:S I *D sky130_fd_sc_hd__mux2_1
*I *2921:S I *D sky130_fd_sc_hd__mux2_1
*I *2918:X O *D sky130_fd_sc_hd__or3_2
*CAP
1 *2919:S 0.000190629
2 *2921:S 9.2383e-05
3 *2918:X 0.00149017
4 *385:16 0.00177318
5 *2919:S *2919:A1 5.53249e-06
6 *2919:S *901:16 0
7 *2919:S *905:12 3.50033e-05
8 *2921:S *2733:A1 1.46744e-05
9 *2921:S *2921:A1 1.19928e-05
10 *2921:S *901:16 0.0001249
11 *385:16 *2733:A1 0.000282518
12 *385:16 *2734:A1 0.000127389
13 *385:16 *2936:S 6.30332e-05
14 *385:16 *3328:A 6.00003e-05
15 *385:16 *3392:A 6.55328e-05
16 *385:16 *606:27 0.00011846
17 *385:16 *905:12 0.000198945
18 *2886:A0 *385:16 0
19 *2893:A *385:16 0.000309722
20 *2918:A *385:16 2.49909e-05
21 *2923:A *385:16 7.81695e-05
22 *3150:D *385:16 0.000140905
23 *181:75 *385:16 0
24 *202:14 *385:16 0
25 *208:20 *385:16 0.000369321
26 *208:26 *385:16 3.03513e-05
27 *316:60 *385:16 2.27064e-05
28 *322:31 *385:16 0.00011352
29 *322:42 *385:16 0.000150249
30 *325:49 *385:16 7.76246e-05
31 *369:104 *2919:S 0.000233918
*RES
1 *2918:X *385:16 37.52 
2 *385:16 *2921:S 3.43 
3 *385:16 *2919:S 9.785 
*END

*D_NET *386 0.000304682
*CONN
*I *2920:A I *D sky130_fd_sc_hd__clkbuf_1
*I *2919:X O *D sky130_fd_sc_hd__mux2_1
*CAP
1 *2920:A 0.000107472
2 *2919:X 0.000107472
3 *2920:A *2937:A 7.23533e-05
4 *2920:A *901:16 1.7386e-05
*RES
1 *2919:X *2920:A 9.03 
*END

*D_NET *387 0.00117968
*CONN
*I *2922:A I *D sky130_fd_sc_hd__clkbuf_1
*I *2921:X O *D sky130_fd_sc_hd__mux2_1
*CAP
1 *2922:A 0.000565377
2 *2921:X 0.000565377
3 *2922:A *3158:CLK 4.89295e-05
4 *3165:D *2922:A 0
*RES
1 *2921:X *2922:A 15.795 
*END

*D_NET *388 0.00270252
*CONN
*I *2924:S I *D sky130_fd_sc_hd__mux2_1
*I *2926:S I *D sky130_fd_sc_hd__mux2_1
*I *2923:Y O *D sky130_fd_sc_hd__nor2_1
*CAP
1 *2924:S 6.38212e-05
2 *2926:S 0.000468708
3 *2923:Y 0.000316554
4 *388:8 0.000849084
5 *2924:S *2924:A0 4.82863e-05
6 *2926:S *2733:B2 0.000124649
7 *2926:S *2812:B2 0
8 *2926:S *2926:A0 2.30292e-05
9 *2926:S *3327:A 0.000100057
10 *2926:S *904:12 0
11 *388:8 *2733:B1 0.000119176
12 *388:8 *2733:B2 6.23206e-05
13 *388:8 *2734:A1 0
14 *388:8 *2812:B2 0
15 *388:8 *2924:A0 7.4027e-05
16 *388:8 *715:58 3.12983e-05
17 *2733:A2 *388:8 0.000133336
18 *2734:A2 *388:8 7.1624e-05
19 *2734:B1 *388:8 0.000115511
20 *2924:A1 *2924:S 1.83847e-05
21 *2926:A1 *2926:S 8.26509e-05
22 *3160:D *2926:S 0
*RES
1 *2923:Y *388:8 11.1 
2 *388:8 *2926:S 12.285 
3 *388:8 *2924:S 4.74 
*END

*D_NET *389 0.000229681
*CONN
*I *2925:A I *D sky130_fd_sc_hd__clkbuf_1
*I *2924:X O *D sky130_fd_sc_hd__mux2_1
*CAP
1 *2925:A 0.000112133
2 *2924:X 0.000112133
3 *2925:A *2924:A0 5.4155e-06
*RES
1 *2924:X *2925:A 4.955 
*END

*D_NET *390 0.000942
*CONN
*I *2927:A I *D sky130_fd_sc_hd__clkbuf_1
*I *2926:X O *D sky130_fd_sc_hd__mux2_1
*CAP
1 *2927:A 0.000396795
2 *2926:X 0.000396795
3 *2927:A *2919:A1 4.91189e-05
4 *2927:A *3327:A 9.92913e-05
*RES
1 *2926:X *2927:A 12.48 
*END

*D_NET *391 0.0195345
*CONN
*I *3106:A I *D sky130_fd_sc_hd__nor2_1
*I *2929:B I *D sky130_fd_sc_hd__nor2_1
*I *2602:A I *D sky130_fd_sc_hd__or2_1
*I *3022:A I *D sky130_fd_sc_hd__nor2_1
*I *2928:X O *D sky130_fd_sc_hd__or3b_4
*CAP
1 *3106:A 0.000100329
2 *2929:B 8.60917e-06
3 *2602:A 0.000435005
4 *3022:A 0.00100634
5 *2928:X 0.000446624
6 *391:43 0.00187995
7 *391:37 0.00248089
8 *391:16 0.00239718
9 *2602:A *2602:B 5.06989e-05
10 *2602:A *2930:A0 8.40269e-05
11 *2602:A *2930:S 6.95335e-05
12 *2602:A *2931:A 9.35556e-05
13 *2602:A *511:24 0.000110654
14 *2929:B *2933:A 4.77757e-05
15 *3022:A *2717:B2 0.000122337
16 *3022:A *2977:A 0.00056671
17 *3022:A *2993:S 0.000226848
18 *3022:A *3004:A 3.59784e-05
19 *3022:A *3022:B 0
20 *3022:A *3032:A 0.000330952
21 *3022:A *3425:A 0.000148084
22 *3022:A *421:32 0
23 *3022:A *433:10 5.33085e-05
24 *3022:A *445:89 0.000269597
25 *3106:A *476:31 0.000192125
26 *391:16 *3004:A 1.83847e-05
27 *391:16 *3015:A0 0.00015896
28 *391:16 *432:46 5.92482e-05
29 *391:16 *432:73 0.00045076
30 *391:16 *678:12 0.000501731
31 *391:37 *2772:A1 2.09146e-05
32 *391:37 *3027:A 0.00025947
33 *391:37 *3100:A 2.9393e-05
34 *391:37 *395:26 0.000187776
35 *391:37 *439:10 4.3498e-05
36 *391:43 *2909:A0 3.86607e-05
37 *391:43 *2913:A0 3.72081e-05
38 *391:43 *2930:S 2.7881e-05
39 *391:43 *2932:S 7.26551e-05
40 *391:43 *2935:B 0
41 *391:43 *3092:A 0.000116165
42 *391:43 *606:42 0
43 *2557:A *2602:A 0.000306436
44 *2689:A_N *391:16 3.00381e-05
45 *2689:B_N *391:16 9.60203e-05
46 *2689:D *391:16 0.000106378
47 *2703:B *391:37 0.000185484
48 *2703:C *391:37 0.00013718
49 *2772:A2 *391:37 3.78111e-05
50 *2772:A3 *391:37 5.10462e-05
51 *2838:A *2602:A 7.49327e-05
52 *2889:A *391:43 0
53 *2909:S *391:43 0.000162325
54 *2912:B *391:43 0.000167785
55 *2913:S *391:43 0.000192941
56 *3003:A1 *3022:A 0.000417905
57 *3149:D *391:43 0.000139572
58 *3220:D *391:43 0.000433059
59 *171:37 *391:16 7.4542e-05
60 *180:10 *391:16 0.000102913
61 *181:32 *3022:A 7.73812e-05
62 *181:75 *2929:B 4.89295e-05
63 *192:32 *391:37 7.9642e-06
64 *192:32 *391:43 0.000133246
65 *193:56 *391:43 4.70999e-05
66 *197:28 *2602:A 0
67 *197:108 *3022:A 0.000317278
68 *207:12 *391:37 0.000153612
69 *215:24 *3022:A 4.66108e-05
70 *215:24 *391:16 0.000797884
71 *215:24 *391:37 2.92496e-05
72 *299:32 *391:43 0
73 *365:22 *391:37 0
74 *365:22 *391:43 0
75 *365:64 *391:37 0
76 *369:10 *2602:A 3.09233e-05
77 *369:19 *2602:A 0.00018471
78 *369:19 *391:43 0.000545644
79 *369:28 *391:43 5.23984e-05
80 *369:74 *391:43 0.000150046
81 *374:141 *391:37 0
82 *376:84 *391:37 0.000373917
83 *376:84 *391:43 0.000394468
84 *377:10 *391:43 0.000135769
85 *381:8 *391:43 0.000111147
*RES
1 *2928:X *391:16 21.8 
2 *391:16 *3022:A 29.75 
3 *391:16 *391:37 21.995 
4 *391:37 *391:43 33.645 
5 *391:43 *2602:A 14.385 
6 *391:43 *2929:B 4.05 
7 *391:37 *3106:A 5.43 
*END

*D_NET *392 0.00165079
*CONN
*I *2932:S I *D sky130_fd_sc_hd__mux2_1
*I *2930:S I *D sky130_fd_sc_hd__mux2_1
*I *2929:Y O *D sky130_fd_sc_hd__nor2_1
*CAP
1 *2932:S 0.000188602
2 *2930:S 0.000107585
3 *2929:Y 0
4 *392:6 0.000296187
5 *2930:S *2930:A0 5.30673e-05
6 *2930:S *2933:A 4.18603e-06
7 *2930:S *2935:B 0
8 *2930:S *511:24 5.05437e-05
9 *2932:S *2933:A 2.87867e-05
10 *2932:S *2935:B 0
11 *2932:S *902:8 0.000307825
12 *2577:A *2932:S 0.000198945
13 *2602:A *2930:S 6.95335e-05
14 *2811:A2 *2932:S 8.05167e-05
15 *197:28 *2930:S 0.000148039
16 *325:57 *2930:S 1.64319e-05
17 *391:43 *2930:S 2.7881e-05
18 *391:43 *2932:S 7.26551e-05
*RES
1 *2929:Y *392:6 3.6 
2 *392:6 *2930:S 7.05 
3 *392:6 *2932:S 8.445 
*END

*D_NET *393 0.00024484
*CONN
*I *2931:A I *D sky130_fd_sc_hd__clkbuf_1
*I *2930:X O *D sky130_fd_sc_hd__mux2_1
*CAP
1 *2931:A 7.56422e-05
2 *2930:X 7.56422e-05
3 *2602:A *2931:A 9.35556e-05
*RES
1 *2930:X *2931:A 4.61 
*END

*D_NET *394 0.000743815
*CONN
*I *2933:A I *D sky130_fd_sc_hd__clkbuf_1
*I *2932:X O *D sky130_fd_sc_hd__mux2_1
*CAP
1 *2933:A 0.000223133
2 *2932:X 0.000223133
3 *2933:A *2935:B 7.4027e-05
4 *2929:A *2933:A 4.82863e-05
5 *2929:B *2933:A 4.77757e-05
6 *2930:S *2933:A 4.18603e-06
7 *2932:S *2933:A 2.87867e-05
8 *181:75 *2933:A 9.44868e-05
*RES
1 *2932:X *2933:A 11.31 
*END

*D_NET *395 0.0193494
*CONN
*I *3027:A I *D sky130_fd_sc_hd__nor2_1
*I *2935:B I *D sky130_fd_sc_hd__nor2_1
*I *2607:A I *D sky130_fd_sc_hd__or2_1
*I *3111:A I *D sky130_fd_sc_hd__nor2_1
*I *2934:X O *D sky130_fd_sc_hd__or3b_2
*CAP
1 *3027:A 0.000707611
2 *2935:B 0.000716232
3 *2607:A 7.69996e-05
4 *3111:A 0.000115107
5 *2934:X 0.000399035
6 *395:57 0.00215644
7 *395:26 0.00269393
8 *395:8 0.00232226
9 *2607:A *2607:B 4.66108e-05
10 *2607:A *600:37 3.83194e-05
11 *2607:A *915:10 4.66108e-05
12 *2935:B *2607:B 8.40269e-05
13 *2935:B *2760:A1 0.000156009
14 *2935:B *3149:CLK 0.00020418
15 *2935:B *600:37 0.000238719
16 *3027:A *2707:A1 4.10132e-05
17 *3027:A *2976:S 5.10948e-05
18 *3027:A *3004:A 8.68646e-05
19 *3027:A *3037:A 0
20 *3027:A *421:20 0.000351041
21 *3027:A *887:10 0.000134475
22 *3111:A *3108:A 0.00013265
23 *3111:A *3386:A 0.000148977
24 *3111:A *399:34 0.000131301
25 *3111:A *500:131 0.000233786
26 *3111:A *831:6 0.000119762
27 *3111:A *832:10 1.08758e-05
28 *395:8 *2990:B 4.82919e-05
29 *395:8 *419:158 0.000416171
30 *395:26 *2707:A1 0.00037789
31 *395:26 *2974:S 2.15594e-05
32 *395:26 *3386:A 4.66108e-05
33 *395:26 *474:49 0.000512318
34 *395:26 *832:10 0.00014719
35 *395:57 *2798:A1 8.33066e-06
36 *395:57 *3007:A1 5.22266e-05
37 *395:57 *3091:A1 4.83241e-05
38 *395:57 *3112:A0 0.000137082
39 *395:57 *3330:A 4.76659e-05
40 *395:57 *3386:A 4.92861e-05
41 *395:57 *500:131 0.000103983
42 *395:57 *528:62 8.05212e-05
43 *395:57 *528:66 2.92496e-05
44 *395:57 *590:24 1.93765e-05
45 *395:57 *590:35 0.000194773
46 *395:57 *590:52 1.0145e-05
47 *395:57 *600:18 2.76356e-05
48 *395:57 *600:26 1.83756e-05
49 *395:57 *600:66 4.0788e-05
50 *395:57 *600:81 0
51 *2577:A *2935:B 0.00015829
52 *2693:B *3027:A 0.000141606
53 *2713:D *395:26 0.000318321
54 *2718:B1 *395:26 0.000130721
55 *2730:D1 *395:57 0.000646165
56 *2748:B1 *395:57 3.29196e-05
57 *2768:C *395:57 5.46877e-05
58 *2798:A2 *395:57 0
59 *2798:B1 *395:57 0.000145166
60 *2914:A *395:57 0
61 *2916:A *395:57 0.000172996
62 *2930:S *2935:B 0
63 *2932:S *2935:B 0
64 *2933:A *2935:B 7.4027e-05
65 *2934:A *395:8 5.05521e-05
66 *3149:D *2935:B 8.93021e-05
67 *3157:D *395:57 9.17274e-05
68 *174:104 *395:57 4.03869e-05
69 *179:41 *3027:A 0.000143501
70 *181:32 *395:26 0
71 *181:34 *395:57 0.000182444
72 *181:56 *395:57 0.000899752
73 *185:14 *3027:A 4.7043e-05
74 *192:57 *395:26 0.000160553
75 *192:57 *395:57 2.13396e-05
76 *197:8 *3027:A 0.000132178
77 *197:18 *3027:A 0.000296295
78 *207:12 *3027:A 0
79 *207:86 *395:26 0.000379605
80 *207:86 *395:57 0
81 *215:24 *3027:A 0.000177333
82 *299:32 *2935:B 9.10587e-05
83 *316:60 *395:57 0.000122393
84 *316:70 *395:57 1.84465e-05
85 *325:57 *2935:B 4.43871e-06
86 *366:10 *2935:B 5.50989e-05
87 *374:90 *2935:B 3.42142e-05
88 *374:141 *395:26 0.000107905
89 *391:37 *3027:A 0.00025947
90 *391:37 *395:26 0.000187776
91 *391:43 *2935:B 0
*RES
1 *2934:X *395:8 8.88 
2 *395:8 *395:26 29.895 
3 *395:26 *3111:A 9.755 
4 *395:26 *395:57 40.355 
5 *395:57 *2607:A 3.1 
6 *395:57 *2935:B 21.05 
7 *395:8 *3027:A 21.96 
*END

*D_NET *396 0.00505748
*CONN
*I *2936:S I *D sky130_fd_sc_hd__mux2_1
*I *2938:S I *D sky130_fd_sc_hd__mux2_1
*I *2935:Y O *D sky130_fd_sc_hd__nor2_1
*CAP
1 *2936:S 0.000242073
2 *2938:S 9.65609e-05
3 *2935:Y 0.000573923
4 *396:12 0.000912557
5 *2936:S *2733:B2 0
6 *2936:S *2936:A0 9.98831e-05
7 *2936:S *3348:A 0.000182875
8 *2936:S *905:12 9.24049e-05
9 *2938:S *2813:A1 4.77769e-05
10 *2938:S *2938:A0 2.10841e-05
11 *2938:S *3348:A 0.000160342
12 *2938:S *900:12 0.000271125
13 *2733:A2 *2936:S 2.50751e-05
14 *2814:B1 *396:12 0.000251962
15 *2814:C1 *396:12 0.000300622
16 *2838:B *396:12 0.000377308
17 *2895:A *396:12 0.000109808
18 *2924:A1 *2936:S 2.11084e-05
19 *2938:A1 *2936:S 0.000193136
20 *2938:A1 *2938:S 0.000530199
21 *181:75 *396:12 0.000114894
22 *197:28 *396:12 8.34426e-05
23 *325:57 *396:12 0.000116165
24 *369:104 *2936:S 5.80755e-05
25 *369:104 *396:12 0.000112046
26 *385:16 *2936:S 6.30332e-05
*RES
1 *2935:Y *396:12 19.67 
2 *396:12 *2938:S 6.535 
3 *396:12 *2936:S 12.065 
*END

*D_NET *397 0.00186015
*CONN
*I *2937:A I *D sky130_fd_sc_hd__clkbuf_1
*I *2936:X O *D sky130_fd_sc_hd__mux2_1
*CAP
1 *2937:A 0.000773357
2 *2936:X 0.000773357
3 *2937:A *901:16 4.9253e-06
4 *2937:A *906:10 1.8644e-05
5 *2920:A *2937:A 7.23533e-05
6 *3158:D *2937:A 9.54469e-05
7 *3164:D *2937:A 0.000122062
*RES
1 *2936:X *2937:A 17.97 
*END

*D_NET *398 0.00121235
*CONN
*I *2939:A I *D sky130_fd_sc_hd__clkbuf_1
*I *2938:X O *D sky130_fd_sc_hd__mux2_1
*CAP
1 *2939:A 0.000446176
2 *2938:X 0.000446176
3 *2939:A *3264:CLK 1.56428e-05
4 *2939:A *599:65 0.000131265
5 *2939:A *599:75 0.000173093
*RES
1 *2938:X *2939:A 14.19 
*END

*D_NET *399 0.0316942
*CONN
*I *2941:B I *D sky130_fd_sc_hd__or2_1
*I *3032:A I *D sky130_fd_sc_hd__or2_1
*I *2612:A I *D sky130_fd_sc_hd__or2_1
*I *3117:A I *D sky130_fd_sc_hd__or2_1
*I *2940:X O *D sky130_fd_sc_hd__or4b_4
*CAP
1 *2941:B 0.00566812
2 *3032:A 0.000527842
3 *2612:A 0.00119806
4 *3117:A 0.00040374
5 *2940:X 7.0464e-05
6 *399:34 0.00257806
7 *399:16 0.00378945
8 *399:12 0.00802392
9 *2612:A *2802:A2 0
10 *2612:A *2804:A2 0.000680962
11 *2612:A *3189:CLK 0
12 *2612:A *599:10 2.97004e-06
13 *2941:B *3066:A0 0
14 *2941:B *403:53 0
15 *2941:B *411:14 0.000255212
16 *2941:B *590:18 0
17 *2941:B *590:157 0
18 *2941:B *590:208 0
19 *2941:B *606:81 7.82498e-05
20 *3032:A *2994:A 0.000165068
21 *3032:A *421:26 0.000120655
22 *3032:A *421:32 0.000188574
23 *3032:A *433:10 2.46007e-05
24 *3032:A *881:10 0.000162325
25 *3117:A *3117:B 0.000339749
26 *3117:A *829:14 0.00015028
27 *3117:A *830:8 8.58866e-05
28 *399:16 *3066:A0 0
29 *399:34 *2774:A1 1.64067e-05
30 *399:34 *3108:A 8.26592e-05
31 *399:34 *3112:A0 0.000237249
32 *399:34 *3112:S 1.16597e-05
33 *399:34 *3114:A0 6.32598e-05
34 *399:34 *3449:A 0.000110557
35 *399:34 *421:32 0.000104428
36 *399:34 *603:39 0.00042814
37 *399:34 *748:39 0
38 *399:34 *830:8 0.000174595
39 *2712:A2 *399:34 4.31127e-05
40 *2712:B1 *399:34 0
41 *2774:A3 *399:34 1.14192e-05
42 *2774:B1 *399:34 0.000110791
43 *2777:B1 *399:34 6.79978e-05
44 *2805:A2 *2612:A 0.000153638
45 *2805:B1 *2612:A 0.000664728
46 *2808:A2 *2612:A 0
47 *2819:A1 *2941:B 4.89295e-05
48 *2940:A *399:12 4.29445e-05
49 *3022:A *3032:A 0.000330952
50 *3111:A *399:34 0.000131301
51 *3188:D *2612:A 0.000116158
52 *3189:D *2612:A 0.000140905
53 *3227:D *399:34 0.000203484
54 *3229:D *3117:A 7.62528e-05
55 *176:44 *2941:B 0.000142915
56 *177:116 *399:34 1.32102e-05
57 *181:16 *399:16 0.000271658
58 *181:32 *399:34 0.000171281
59 *197:18 *399:16 0.000122868
60 *197:108 *3032:A 0.000179015
61 *202:67 *399:34 0.000155608
62 *207:98 *2612:A 7.08297e-05
63 *208:106 *399:16 0.000395396
64 *208:118 *3032:A 5.08304e-06
65 *208:118 *399:34 3.3075e-05
66 *218:12 *399:12 6.63219e-06
67 *218:12 *399:16 5.50733e-05
68 *218:24 *399:16 0.000443789
69 *218:24 *399:34 0.000104234
70 *235:18 *399:34 0.00078055
71 *285:16 *2612:A 0.000397039
72 *299:32 *2612:A 0.000253386
73 *319:88 *2941:B 1.90991e-05
74 *325:8 *2941:B 4.77757e-05
75 *350:48 *2941:B 0
76 *358:96 *2612:A 0.00013994
77 *358:114 *399:34 0
*RES
1 *2940:X *399:12 5.1275 
2 *399:12 *399:16 5.37413 
3 *399:16 *399:34 31.3875 
4 *399:34 *3117:A 10.225 
5 *399:34 *2612:A 35 
6 *399:16 *3032:A 17.0175 
7 *399:12 *2941:B 14.7935 
*END

*D_NET *400 0.00194407
*CONN
*I *2942:S I *D sky130_fd_sc_hd__mux2_1
*I *2944:S I *D sky130_fd_sc_hd__mux2_1
*I *2941:X O *D sky130_fd_sc_hd__or2_1
*CAP
1 *2942:S 0.000160153
2 *2944:S 3.50727e-05
3 *2941:X 8.51946e-05
4 *400:6 0.000280421
5 *2942:S *2812:A1 9.62101e-05
6 *2942:S *3447:A 7.76064e-05
7 *2944:S *2944:A1 2.49909e-05
8 *400:6 *2944:A1 2.75229e-05
9 *400:6 *3447:A 0.000153816
10 *2819:A1 *400:6 7.63291e-05
11 *2819:A2 *2944:S 4.66108e-05
12 *2819:A2 *400:6 0.000329333
13 *187:98 *2942:S 0.000489637
14 *231:116 *2942:S 5.16348e-05
15 *299:32 *2944:S 9.53428e-06
*RES
1 *2941:X *400:6 4.81 
2 *400:6 *2944:S 2.41 
3 *400:6 *2942:S 11.315 
*END

*D_NET *401 0.00113566
*CONN
*I *2943:A I *D sky130_fd_sc_hd__clkbuf_1
*I *2942:X O *D sky130_fd_sc_hd__mux2_1
*CAP
1 *2943:A 0.000375407
2 *2942:X 0.000375407
3 *2943:A *2945:A 4.00541e-06
4 *2943:A *759:34 2.66935e-05
5 *3166:D *2943:A 0.000120273
6 *3167:D *2943:A 0.000161521
7 *231:116 *2943:A 7.23533e-05
*RES
1 *2942:X *2943:A 12.84 
*END

*D_NET *402 0.00115973
*CONN
*I *2945:A I *D sky130_fd_sc_hd__clkbuf_1
*I *2944:X O *D sky130_fd_sc_hd__mux2_1
*CAP
1 *2945:A 0.000190967
2 *2944:X 0.000190967
3 *2945:A *3166:CLK 8.23457e-05
4 *2945:A *737:46 0.000232099
5 *2945:A *759:34 8.53177e-05
6 *2943:A *2945:A 4.00541e-06
7 *3166:D *2945:A 0.000115585
8 *3167:D *2945:A 0.000112123
9 *231:116 *2945:A 0.000146319
*RES
1 *2944:X *2945:A 13.245 
*END

*D_NET *403 0.0271919
*CONN
*I *3122:A I *D sky130_fd_sc_hd__nor2_1
*I *2947:B I *D sky130_fd_sc_hd__nor2_1
*I *2617:A I *D sky130_fd_sc_hd__or2_1
*I *3037:A I *D sky130_fd_sc_hd__nor2_1
*I *2946:X O *D sky130_fd_sc_hd__or3_4
*CAP
1 *3122:A 7.85191e-05
2 *2947:B 0.000161387
3 *2617:A 0.00247154
4 *3037:A 0.00186341
5 *2946:X 0
6 *403:53 0.00602089
7 *403:49 0.00475507
8 *403:4 0.00315199
9 *2617:A *3265:CLK 0
10 *2947:B *3150:CLK 0.000145694
11 *3037:A *2767:A1 0
12 *3037:A *3037:B 0.000136884
13 *3037:A *419:144 0.000137893
14 *3037:A *678:12 7.25503e-05
15 *3037:A *800:19 4.43871e-06
16 *3037:A *873:14 8.01592e-05
17 *3122:A *594:26 1.79483e-05
18 *403:49 *2708:C 9.58678e-06
19 *403:49 *419:144 0.000217269
20 *403:49 *474:18 0.000219275
21 *403:49 *590:157 0.00026392
22 *403:49 *590:208 3.61405e-05
23 *403:49 *737:24 2.87203e-05
24 *403:49 *873:14 0.000106377
25 *403:53 *590:18 0.000137217
26 *403:53 *737:36 0.000108412
27 *2693:C *3037:A 6.11009e-05
28 *2705:B *3037:A 1.56428e-05
29 *2705:D *3037:A 2.04648e-05
30 *2708:B *403:49 0.000117278
31 *2763:B1 *403:49 0.000432143
32 *2763:B1 *403:53 0.00193688
33 *2928:A *3037:A 1.58322e-05
34 *2941:B *403:53 0
35 *3027:A *3037:A 0
36 *3125:A1 *3122:A 4.66108e-05
37 *3468:A *3037:A 8.41307e-05
38 *171:23 *3037:A 0.000192125
39 *171:29 *3037:A 0.000184071
40 *178:41 *3037:A 4.58166e-05
41 *178:43 *3037:A 7.25441e-05
42 *179:31 *3037:A 2.8585e-06
43 *179:41 *3037:A 0.000157355
44 *180:61 *3037:A 1.52945e-05
45 *180:138 *3037:A 8.30297e-05
46 *183:22 *3037:A 0
47 *185:14 *3037:A 0.000118513
48 *187:64 *3037:A 0.000644859
49 *187:64 *403:49 0.000104583
50 *194:8 *403:49 1.23268e-05
51 *194:26 *403:49 2.01943e-05
52 *207:12 *3037:A 0.000116165
53 *208:10 *3037:A 8.88715e-05
54 *218:108 *403:49 1.88889e-05
55 *328:20 *2617:A 0.0018085
56 *328:20 *2947:B 8.48688e-05
57 *336:25 *3037:A 0.00012752
58 *370:54 *3122:A 1.93765e-05
59 *370:119 *3037:A 0.000157651
60 *371:16 *403:49 5.8023e-05
61 *372:14 *2947:B 0
62 *372:14 *403:53 0.000103105
*RES
1 *2946:X *403:4 1.6 
2 *403:4 *3037:A 42.81 
3 *403:4 *403:49 8.16003 
4 *403:49 *403:53 6.7396 
5 *403:53 *2617:A 9.00777 
6 *403:53 *2947:B 6.4379 
7 *403:49 *3122:A 5.34963 
*END

*D_NET *404 0.00202204
*CONN
*I *2948:S I *D sky130_fd_sc_hd__mux2_1
*I *2950:S I *D sky130_fd_sc_hd__mux2_1
*I *2947:Y O *D sky130_fd_sc_hd__nor2_1
*CAP
1 *2948:S 0.000330509
2 *2950:S 0.000265164
3 *2947:Y 0
4 *404:4 0.000595674
5 *2948:S *2737:A2 3.87723e-05
6 *2950:S *2737:B2 7.15121e-05
7 *2950:S *2815:A1 0.000134248
8 *2950:S *2949:A 2.41307e-05
9 *2950:S *3150:CLK 3.50033e-05
10 *2950:S *605:29 8.80441e-05
11 *2740:A1 *2948:S 1.65105e-05
12 *2740:A2 *2948:S 3.67779e-05
13 *2740:A2 *2950:S 0.000219796
14 *2900:A1 *2948:S 8.53113e-06
15 *187:98 *2948:S 8.69098e-05
16 *187:100 *2948:S 6.71882e-05
17 *372:14 *2950:S 3.27181e-06
*RES
1 *2947:Y *404:4 1.6 
2 *404:4 *2950:S 11.06 
3 *404:4 *2948:S 10.19 
*END

*D_NET *405 0.00104072
*CONN
*I *2949:A I *D sky130_fd_sc_hd__clkbuf_1
*I *2948:X O *D sky130_fd_sc_hd__mux2_1
*CAP
1 *2949:A 0.000280353
2 *2948:X 0.000280353
3 *2949:A *693:32 5.79099e-06
4 *2740:A2 *2949:A 0.000153681
5 *2815:A2 *2949:A 9.83921e-06
6 *2815:B1 *2949:A 2.01737e-05
7 *2816:C *2949:A 0.000196073
8 *2950:S *2949:A 2.41307e-05
9 *372:14 *2949:A 7.03276e-05
*RES
1 *2948:X *2949:A 12.795 
*END

*D_NET *406 0.00030844
*CONN
*I *2951:A I *D sky130_fd_sc_hd__clkbuf_1
*I *2950:X O *D sky130_fd_sc_hd__mux2_1
*CAP
1 *2951:A 9.26774e-05
2 *2950:X 9.26774e-05
3 *2951:A *2733:B1 1.85674e-05
4 *2951:A *2733:B2 1.65432e-05
5 *2951:A *2812:B2 7.28318e-05
6 *2951:A *605:29 0
7 *3169:D *2951:A 1.51429e-05
*RES
1 *2950:X *2951:A 9.24 
*END

*D_NET *407 0.0354659
*CONN
*I *3042:A I *D sky130_fd_sc_hd__or2_1
*I *2953:B I *D sky130_fd_sc_hd__or2_1
*I *3127:A I *D sky130_fd_sc_hd__or2_1
*I *2622:A I *D sky130_fd_sc_hd__or2_1
*I *2952:X O *D sky130_fd_sc_hd__or3_4
*CAP
1 *3042:A 0.00116055
2 *2953:B 0.00405862
3 *3127:A 0
4 *2622:A 0.00146157
5 *2952:X 0.000222869
6 *407:20 0.00515887
7 *407:14 0.00823233
8 *407:8 0.00185983
9 *2622:A *2589:A 0.000141599
10 *2622:A *2591:A 5.42473e-05
11 *2622:A *2624:A 0.000137252
12 *2622:A *2773:A 4.87677e-05
13 *2622:A *2805:A1 7.25495e-05
14 *2622:A *3120:S 0
15 *2622:A *3128:A0 6.07277e-05
16 *2622:A *430:64 0.000212465
17 *2622:A *500:31 0
18 *2622:A *511:100 0.000402379
19 *2622:A *598:44 0.000199386
20 *2622:A *598:55 0.000339997
21 *2953:B *2780:A 0.000101216
22 *2953:B *2960:S 1.87328e-05
23 *2953:B *2965:B 0.000139929
24 *2953:B *3314:A 0.000108771
25 *2953:B *511:150 0.00240361
26 *2953:B *608:37 0.000141864
27 *2953:B *775:61 0.000122587
28 *3042:A *2694:B 0.000293301
29 *3042:A *2694:C 0.000271029
30 *3042:A *2694:D_N 4.82863e-05
31 *3042:A *2723:A_N 9.30717e-05
32 *3042:A *3052:A 3.11927e-05
33 *3042:A *3052:B 0.000145184
34 *3042:A *3276:CLK 0.000484204
35 *3042:A *3276:D 0.000291358
36 *3042:A *421:16 9.53428e-06
37 *3042:A *421:95 5.30673e-05
38 *3042:A *471:10 5.03424e-05
39 *3042:A *594:83 5.16418e-05
40 *3042:A *607:12 1.15688e-05
41 *3042:A *607:22 0.000587643
42 *3042:A *798:69 1.58858e-05
43 *3042:A *799:20 0.000265504
44 *3042:A *800:75 6.74266e-05
45 *3042:A *801:93 1.34361e-05
46 *407:14 *3066:A0 5.33585e-05
47 *407:14 *3314:A 0.000567282
48 *407:14 *3387:A 1.92979e-05
49 *407:14 *415:52 0.00021208
50 *407:14 *480:14 7.28318e-05
51 *407:14 *594:83 0.000477053
52 *407:14 *607:22 0.0003091
53 *407:20 *2773:A 9.5799e-06
54 *407:20 *430:64 1.10537e-05
55 *407:20 *748:14 0.000960125
56 *2763:B1 *407:20 0.00214787
57 *2777:B1 *407:20 0.000176938
58 *2965:A *2953:B 1.14169e-05
59 *3101:A *407:20 0
60 *3210:D *407:14 7.03219e-05
61 *3228:D *2622:A 0.000115464
62 *197:134 *2622:A 0
63 *317:38 *407:8 0.000217604
64 *317:48 *407:8 8.5844e-05
65 *325:118 *2953:B 8.64421e-05
66 *351:18 *2953:B 0.000107207
67 *358:57 *2622:A 5.72573e-05
68 *361:36 *407:14 5.3346e-05
*RES
1 *2952:X *407:8 6.465 
2 *407:8 *407:14 12.7044 
3 *407:14 *407:20 8.49083 
4 *407:20 *2622:A 26.3753 
5 *407:20 *3127:A 3.6 
6 *407:14 *2953:B 15.6745 
7 *407:8 *3042:A 34.015 
*END

*D_NET *408 0.00151814
*CONN
*I *2956:S I *D sky130_fd_sc_hd__mux2_1
*I *2954:S I *D sky130_fd_sc_hd__mux2_1
*I *2953:X O *D sky130_fd_sc_hd__or2_1
*CAP
1 *2956:S 0.000235498
2 *2954:S 0.000132994
3 *2953:X 8.69703e-05
4 *408:8 0.000455462
5 *2954:S *2965:B 2.85623e-05
6 *2954:S *416:12 4.76051e-05
7 *2956:S *2963:A 3.19932e-05
8 *2956:S *2965:B 0.000113222
9 *408:8 *2965:B 8.41384e-05
10 *2810:C1 *2954:S 4.77769e-05
11 *2810:C1 *2956:S 2.69217e-05
12 *2954:A0 *2954:S 2.88357e-05
13 *2965:A *408:8 2.10841e-05
14 *351:18 *2956:S 4.28112e-06
15 *351:20 *2954:S 0.000102017
16 *351:20 *2956:S 5.4419e-05
17 *356:14 *2954:S 1.6359e-05
*RES
1 *2953:X *408:8 4.74 
2 *408:8 *2954:S 6.81 
3 *408:8 *2956:S 7.86 
*END

*D_NET *409 0.000638264
*CONN
*I *2955:A I *D sky130_fd_sc_hd__clkbuf_1
*I *2954:X O *D sky130_fd_sc_hd__mux2_1
*CAP
1 *2955:A 0.0001901
2 *2954:X 0.0001901
3 *2955:A *2878:A1 0.000164352
4 *2955:A *3352:A 5.58436e-05
5 *356:14 *2955:A 3.78687e-05
6 *359:119 *2955:A 0
*RES
1 *2954:X *2955:A 11.205 
*END

*D_NET *410 0.000548892
*CONN
*I *2957:A I *D sky130_fd_sc_hd__clkbuf_1
*I *2956:X O *D sky130_fd_sc_hd__mux2_1
*CAP
1 *2957:A 8.78405e-05
2 *2956:X 8.78405e-05
3 *2957:A *2731:A1 4.66108e-05
4 *2957:A *2731:B2 4.77769e-05
5 *2957:A *2956:A1 4.66108e-05
6 *2957:A *592:28 0.000111293
7 *359:111 *2957:A 8.33066e-06
8 *359:119 *2957:A 0.000112589
*RES
1 *2956:X *2957:A 9.48 
*END

*D_NET *411 0.0156543
*CONN
*I *3047:A I *D sky130_fd_sc_hd__or2_1
*I *3132:A I *D sky130_fd_sc_hd__or2_1
*I *2627:A I *D sky130_fd_sc_hd__or2_1
*I *2959:B I *D sky130_fd_sc_hd__or2_1
*I *2958:X O *D sky130_fd_sc_hd__or3_2
*CAP
1 *3047:A 0.000975226
2 *3132:A 3.18899e-05
3 *2627:A 0.000341085
4 *2959:B 0.000726377
5 *2958:X 3.41697e-05
6 *411:14 0.00195859
7 *411:10 0.00129823
8 *411:8 0.00138461
9 *2627:A *2632:B 7.51699e-05
10 *2627:A *528:135 0.000378109
11 *2959:B *606:8 8.23457e-05
12 *3047:A *3052:A 0.000460981
13 *3047:A *3052:B 0.000189845
14 *3047:A *421:12 0
15 *3047:A *421:16 3.63661e-05
16 *3047:A *421:18 5.05437e-05
17 *3047:A *421:95 0.0001249
18 *3047:A *677:20 0.000351368
19 *3047:A *772:67 1.23331e-05
20 *3047:A *772:82 0.000134134
21 *3047:A *773:59 2.98989e-05
22 *3047:A *799:45 0
23 *3047:A *801:14 0
24 *3132:A *2550:B 6.06053e-05
25 *3132:A *432:14 0.000122817
26 *3132:A *476:125 8.64599e-05
27 *411:10 *3012:C 1.88656e-05
28 *411:10 *3058:B 3.79584e-05
29 *411:10 *474:12 9.68119e-05
30 *411:10 *677:20 0.00016443
31 *411:14 *2751:A 0
32 *411:14 *2782:A 1.26626e-05
33 *411:14 *532:18 0.000182622
34 *411:14 *619:39 0
35 *2762:A *2959:B 0
36 *2762:A *411:14 0.000113781
37 *2762:C *411:14 1.07416e-05
38 *2782:B *411:14 9.14049e-05
39 *2790:A3 *411:14 1.92979e-05
40 *2875:B *3047:A 1.0129e-05
41 *2881:A *2959:B 5.30144e-05
42 *2940:B *3047:A 8.5913e-05
43 *2941:B *411:14 0.000255212
44 *3468:A *411:10 0.000104975
45 *176:44 *411:14 0.00096322
46 *185:27 *3047:A 8.65905e-05
47 *212:20 *3047:A 0
48 *212:20 *411:14 0
49 *218:12 *3047:A 0
50 *218:112 *411:14 0.000112123
51 *218:126 *2959:B 0.0013762
52 *218:126 *411:14 0.000684796
53 *319:88 *3047:A 2.24912e-05
54 *325:16 *2959:B 0.000132867
55 *325:101 *2959:B 7.19229e-05
56 *340:41 *3047:A 0
57 *340:41 *411:8 4.77757e-05
58 *350:48 *2959:B 0
59 *355:38 *411:10 9.12494e-06
60 *355:38 *411:14 0.00175019
61 *370:64 *411:10 6.41825e-07
62 *384:14 *3047:A 0.000160145
63 *384:14 *411:10 3.23391e-05
*RES
1 *2958:X *411:8 4.05 
2 *411:8 *411:10 7.5 
3 *411:10 *411:14 27.84 
4 *411:14 *2959:B 25.225 
5 *411:14 *2627:A 8.205 
6 *411:10 *3132:A 5.1 
7 *411:8 *3047:A 26.25 
*END

*D_NET *412 0.00130174
*CONN
*I *2962:S I *D sky130_fd_sc_hd__mux2_1
*I *2960:S I *D sky130_fd_sc_hd__mux2_1
*I *2959:X O *D sky130_fd_sc_hd__or2_1
*CAP
1 *2962:S 0
2 *2960:S 0.000240553
3 *2959:X 5.74555e-05
4 *412:6 0.000298009
5 *2960:S *608:37 0.000129312
6 *412:6 *2880:A 8.6076e-05
7 *412:6 *796:30 0.000196669
8 *2817:A2 *412:6 0.000157052
9 *2953:B *2960:S 1.87328e-05
10 *2960:A0 *2960:S 4.77719e-05
11 *325:118 *2960:S 0
12 *328:133 *2960:S 7.01148e-05
13 *350:48 *2960:S 0
*RES
1 *2959:X *412:6 4.12 
2 *412:6 *2960:S 10.235 
3 *412:6 *2962:S 1.6 
*END

*D_NET *413 0.000278685
*CONN
*I *2961:A I *D sky130_fd_sc_hd__clkbuf_1
*I *2960:X O *D sky130_fd_sc_hd__mux2_1
*CAP
1 *2961:A 0.000139342
2 *2960:X 0.000139342
*RES
1 *2960:X *2961:A 5.3 
*END

*D_NET *414 0.0020678
*CONN
*I *2963:A I *D sky130_fd_sc_hd__clkbuf_1
*I *2962:X O *D sky130_fd_sc_hd__mux2_1
*CAP
1 *2963:A 0.000439723
2 *2962:X 0.000439723
3 *2963:A *2731:A2 0.000121043
4 *2963:A *2810:A1 8.23457e-05
5 *2963:A *2956:A1 0.000228871
6 *2963:A *2962:A1 4.82919e-05
7 *2963:A *3445:A 6.74403e-05
8 *2963:A *592:76 0.000122821
9 *2810:C1 *2963:A 7.16931e-05
10 *2956:S *2963:A 3.19932e-05
11 *2962:A0 *2963:A 5.41685e-05
12 *211:47 *2963:A 0.000288997
13 *351:16 *2963:A 7.06865e-05
*RES
1 *2962:X *2963:A 16.71 
*END

*D_NET *415 0.0158498
*CONN
*I *2632:A I *D sky130_fd_sc_hd__or2_1
*I *2965:B I *D sky130_fd_sc_hd__or2_1
*I *2550:A I *D sky130_fd_sc_hd__or2_1
*I *3052:A I *D sky130_fd_sc_hd__or2_1
*I *2964:X O *D sky130_fd_sc_hd__or4_2
*CAP
1 *2632:A 0.000263171
2 *2965:B 0.000504816
3 *2550:A 0
4 *3052:A 0.000688461
5 *2964:X 0
6 *415:52 0.00236752
7 *415:27 0.00231188
8 *415:4 0.0014008
9 *2632:A *2632:B 9.41239e-05
10 *2632:A *3271:CLK 5.23546e-05
11 *3052:A *772:67 0.000178569
12 *415:27 *2964:C 5.59909e-05
13 *415:27 *419:136 1.79483e-05
14 *415:27 *594:12 9.91348e-05
15 *415:27 *677:20 0
16 *415:52 *2629:A 1.21166e-05
17 *415:52 *2630:S 0.00029877
18 *415:52 *2632:B 5.50279e-05
19 *415:52 *2750:A1 0.000160233
20 *415:52 *2750:A2 3.57768e-05
21 *415:52 *2780:A 0.000206466
22 *415:52 *2834:A 1.73877e-05
23 *415:52 *3133:A0 0.000114934
24 *415:52 *3210:CLK 8.35118e-05
25 *415:52 *3314:A 0.000127671
26 *415:52 *3387:A 4.87478e-05
27 *415:52 *619:54 3.67779e-05
28 *415:52 *652:23 5.42473e-05
29 *415:52 *775:61 0
30 *415:52 *827:10 0.000200539
31 *2783:A *415:52 9.1566e-05
32 *2783:B *415:52 0.000274406
33 *2783:C *415:52 4.49328e-05
34 *2783:D *415:52 0.000137578
35 *2791:A *415:52 3.60648e-06
36 *2809:B1 *2965:B 2.10905e-05
37 *2875:A *415:27 0
38 *2890:A *415:27 0.000150654
39 *2890:B *415:27 0.000264336
40 *2953:B *2965:B 0.000139929
41 *2954:S *2965:B 2.85623e-05
42 *2956:S *2965:B 0.000113222
43 *2965:A *2965:B 8.41384e-05
44 *2989:A *415:52 0
45 *3042:A *3052:A 3.11927e-05
46 *3047:A *3052:A 0.000460981
47 *3065:A *415:52 0.000116552
48 *3210:D *415:52 5.83121e-06
49 *3268:D *415:52 2.17842e-05
50 *211:37 *415:52 0
51 *215:72 *415:52 0
52 *316:36 *415:52 0.000534592
53 *318:84 *415:27 0.000189155
54 *319:56 *415:27 8.41536e-05
55 *319:88 *415:27 3.04305e-05
56 *321:28 *3052:A 0.000195432
57 *328:149 *2965:B 0.000468159
58 *328:149 *415:52 0.000535453
59 *340:41 *415:27 3.41975e-05
60 *351:18 *2965:B 0.00016052
61 *351:95 *2965:B 8.82193e-05
62 *352:20 *415:27 6.63219e-06
63 *355:10 *415:27 0.000405272
64 *355:38 *415:27 4.86642e-05
65 *356:14 *2965:B 0.000677482
66 *356:14 *415:52 6.73424e-05
67 *361:36 *415:27 0
68 *361:36 *415:52 0.00055053
69 *407:14 *415:52 0.00021208
70 *408:8 *2965:B 8.41384e-05
*RES
1 *2964:X *415:4 1.6 
2 *415:4 *3052:A 19.265 
3 *415:4 *415:27 18.445 
4 *415:27 *2550:A 1.6 
5 *415:27 *415:52 41.765 
6 *415:52 *2965:B 19.38 
7 *415:52 *2632:A 6.99 
*END

*D_NET *416 0.00144139
*CONN
*I *2968:S I *D sky130_fd_sc_hd__mux2_1
*I *2966:S I *D sky130_fd_sc_hd__mux2_1
*I *2965:X O *D sky130_fd_sc_hd__or2_1
*CAP
1 *2968:S 0
2 *2966:S 9.73211e-05
3 *2965:X 0.000266196
4 *416:12 0.000363517
5 *416:12 *2809:A1 0.000119471
6 *2732:C1 *416:12 0.000281659
7 *2882:S *416:12 8.78813e-05
8 *2954:S *416:12 4.76051e-05
9 *2966:A0 *2966:S 8.23457e-05
10 *2968:A0 *2966:S 1.16578e-05
11 *2968:A0 *416:12 7.66083e-05
12 *356:14 *416:12 7.1301e-06
*RES
1 *2965:X *416:12 11.855 
2 *416:12 *2966:S 3.085 
3 *416:12 *2968:S 1.6 
*END

*D_NET *417 0.000627898
*CONN
*I *2967:A I *D sky130_fd_sc_hd__clkbuf_1
*I *2966:X O *D sky130_fd_sc_hd__mux2_1
*CAP
1 *2967:A 0.000313949
2 *2966:X 0.000313949
3 *2967:A *889:14 0
4 *2879:A *2967:A 0
*RES
1 *2966:X *2967:A 11.775 
*END

*D_NET *418 0.000819321
*CONN
*I *2969:A I *D sky130_fd_sc_hd__clkbuf_1
*I *2968:X O *D sky130_fd_sc_hd__mux2_1
*CAP
1 *2969:A 0.000288538
2 *2968:X 0.000288538
3 *2969:A *2809:A1 0
4 *2969:A *2968:A1 4.05358e-05
5 *2969:A *3147:CLK 8.65905e-05
6 *3147:D *2969:A 0.000115119
*RES
1 *2968:X *2969:A 12 
*END

*D_NET *419 0.0277097
*CONN
*I *3012:C I *D sky130_fd_sc_hd__or3_1
*I *2971:B I *D sky130_fd_sc_hd__or2_1
*I *3000:B I *D sky130_fd_sc_hd__nor2_1
*I *2990:B I *D sky130_fd_sc_hd__or2_1
*I *2983:B I *D sky130_fd_sc_hd__or2_1
*I *3006:B I *D sky130_fd_sc_hd__nor2_1
*I *2995:B I *D sky130_fd_sc_hd__nor2_1
*I *2978:B I *D sky130_fd_sc_hd__or2_1
*I *2970:Y O *D sky130_fd_sc_hd__nand3b_4
*CAP
1 *3012:C 7.66505e-06
2 *2971:B 5.28689e-05
3 *3000:B 1.98677e-05
4 *2990:B 0.000861546
5 *2983:B 1.41735e-05
6 *3006:B 0.00104271
7 *2995:B 7.43314e-05
8 *2978:B 0.000271347
9 *2970:Y 1.45973e-05
10 *419:158 0.00157138
11 *419:144 0.00122129
12 *419:136 0.00160814
13 *419:61 0.00306134
14 *419:16 0.0023416
15 *419:14 0.000985452
16 *419:8 0.00198192
17 *2978:B *2630:A1 7.58382e-05
18 *2983:B *3277:RESET_B 8.65961e-05
19 *2990:B *2975:A 4.91032e-05
20 *2990:B *2977:A 0.000114578
21 *2990:B *603:25 9.01765e-05
22 *2990:B *603:31 2.91176e-05
23 *2995:B *436:14 3.00381e-05
24 *3006:B *2757:A1 0.000288237
25 *3006:B *3010:S 1.16578e-05
26 *419:8 *3057:B 8.53011e-05
27 *419:8 *775:57 8.53011e-05
28 *419:14 *2699:B 0
29 *419:14 *2781:A 0.000117419
30 *419:14 *2785:A 0.000160651
31 *419:14 *2869:B2 2.69443e-06
32 *419:14 *2987:A1 0.000175855
33 *419:14 *3066:A1 0.000117331
34 *419:14 *3068:A0 0.000172964
35 *419:14 *3376:A 4.28483e-05
36 *419:14 *3380:A 0.000227543
37 *419:14 *774:92 5.92849e-05
38 *419:14 *774:124 4.87939e-05
39 *419:16 *2984:S 0
40 *419:61 *2595:A1 8.64599e-05
41 *419:61 *2596:A 0.000342609
42 *419:61 *2754:A 0.000211577
43 *419:61 *2996:A0 0.000196061
44 *419:61 *3184:CLK 4.77719e-05
45 *419:61 *3255:CLK 0.000132233
46 *419:61 *3408:A 0.000127457
47 *419:61 *606:102 0.000418227
48 *419:136 *2869:B2 6.71425e-05
49 *419:136 *3300:A 0.000101936
50 *419:136 *590:161 6.6e-05
51 *419:136 *590:176 4.08906e-05
52 *419:136 *663:40 0
53 *419:144 *432:46 1.66435e-05
54 *419:144 *474:18 0.000243341
55 *419:144 *590:161 1.41941e-05
56 *2595:A0 *419:61 0.000170652
57 *2682:A *2978:B 5.53249e-06
58 *2682:A *419:14 2.42236e-05
59 *2682:A *419:16 0.00010844
60 *2748:A1 *3006:B 0.000121516
61 *2750:B1 *419:61 0.00029712
62 *2755:A2 *419:61 0.000177292
63 *2755:B1 *2978:B 6.35828e-05
64 *2755:B1 *419:61 0.000118081
65 *2761:B *419:61 2.56752e-06
66 *2775:B1 *2990:B 1.08758e-05
67 *2799:B1 *3006:B 0.000169844
68 *2876:A *419:136 6.66814e-06
69 *2928:A *419:144 0.00013238
70 *2934:A *419:158 0.000123225
71 *2978:A *2978:B 5.09431e-05
72 *2983:A *2983:B 8.65961e-05
73 *3000:A *3000:B 4.87465e-06
74 *3037:A *419:144 0.000137893
75 *3085:A *2990:B 0.000547508
76 *3085:A *3000:B 1.73667e-05
77 *3085:A *419:158 4.06954e-05
78 *3155:D *3006:B 4.77719e-05
79 *3177:D *2990:B 0.0001809
80 *3255:D *2995:B 6.02035e-05
81 *173:12 *419:14 0
82 *174:14 *419:61 0.000216573
83 *181:32 *2990:B 3.79481e-05
84 *191:10 *419:14 4.21372e-05
85 *193:20 *3006:B 0.000153075
86 *193:26 *3006:B 0.000256658
87 *208:18 *3006:B 6.10789e-05
88 *208:18 *419:61 1.73877e-05
89 *208:118 *2990:B 0.000118913
90 *211:14 *419:14 0.000128721
91 *211:14 *419:136 7.07105e-05
92 *211:41 *419:14 0
93 *215:68 *419:136 0.000112951
94 *317:54 *2971:B 2.49909e-05
95 *317:54 *419:158 4.21973e-05
96 *317:66 *2971:B 3.21081e-06
97 *317:66 *419:158 0.000120655
98 *321:28 *419:158 7.03893e-05
99 *322:61 *419:61 2.65814e-06
100 *323:62 *419:136 0.000497928
101 *340:61 *419:158 2.51419e-05
102 *340:88 *419:158 0.000369357
103 *345:16 *419:136 0.000350219
104 *345:16 *419:144 0.000725789
105 *350:48 *419:61 8.52883e-05
106 *350:50 *419:61 3.45117e-05
107 *352:34 *419:136 5.79965e-05
108 *355:10 *419:136 4.60814e-05
109 *370:64 *3012:C 1.00941e-05
110 *370:82 *419:144 3.64367e-05
111 *370:119 *419:144 4.30639e-05
112 *371:16 *2971:B 0
113 *376:14 *419:158 0.000464851
114 *380:38 *3006:B 0.000406075
115 *384:43 *3006:B 0.000241123
116 *384:43 *419:61 9.60799e-05
117 *395:8 *2990:B 4.82919e-05
118 *395:8 *419:158 0.000416171
119 *403:49 *419:144 0.000217269
120 *411:10 *3012:C 1.88656e-05
121 *415:27 *419:136 1.79483e-05
*RES
1 *2970:Y *419:8 4.395 
2 *419:8 *419:14 18.765 
3 *419:14 *419:16 2.4 
4 *419:16 *2978:B 8.925 
5 *419:16 *419:61 39.83 
6 *419:61 *2995:B 5.22 
7 *419:61 *3006:B 24 
8 *419:14 *2983:B 4.395 
9 *419:8 *419:136 24.2199 
10 *419:136 *419:144 7.44757 
11 *419:144 *419:158 17.53 
12 *419:158 *2990:B 20.195 
13 *419:158 *3000:B 2.0875 
14 *419:144 *2971:B 2.41 
15 *419:136 *3012:C 4.3325 
*END

*D_NET *420 0.000575657
*CONN
*I *2972:A I *D sky130_fd_sc_hd__buf_2
*I *2971:X O *D sky130_fd_sc_hd__or2_1
*CAP
1 *2972:A 0.000144839
2 *2971:X 0.000144839
3 *2898:C *2972:A 0.00012291
4 *194:8 *2972:A 4.77736e-05
5 *212:20 *2972:A 1.2961e-05
6 *218:108 *2972:A 0.000102334
*RES
1 *2971:X *2972:A 9.975 
*END

*D_NET *421 0.0142269
*CONN
*I *3052:B I *D sky130_fd_sc_hd__or2_1
*I *3042:B I *D sky130_fd_sc_hd__or2_1
*I *3047:B I *D sky130_fd_sc_hd__or2_1
*I *3037:B I *D sky130_fd_sc_hd__nor2_1
*I *3027:B I *D sky130_fd_sc_hd__nor2_1
*I *3032:B I *D sky130_fd_sc_hd__or2_1
*I *3022:B I *D sky130_fd_sc_hd__nor2_1
*I *2973:B I *D sky130_fd_sc_hd__nor2_1
*I *3017:B I *D sky130_fd_sc_hd__nor2_1
*I *2972:X O *D sky130_fd_sc_hd__buf_2
*CAP
1 *3052:B 4.4958e-05
2 *3042:B 0
3 *3047:B 0
4 *3037:B 8.84468e-05
5 *3027:B 2.09808e-05
6 *3032:B 0
7 *3022:B 0.000136482
8 *2973:B 0.000272284
9 *3017:B 0.000177791
10 *2972:X 0.000485427
11 *421:95 7.1589e-05
12 *421:32 0.00103797
13 *421:26 0.000844182
14 *421:22 0.000488067
15 *421:20 0.000707511
16 *421:18 0.00113309
17 *421:16 0.00077355
18 *421:12 0.000559234
19 *2973:B *2707:A1 0.00068235
20 *2973:B *2974:S 0.000161467
21 *2973:B *2975:A 2.16833e-05
22 *2973:B *603:31 0.000198939
23 *2973:B *603:39 1.34594e-05
24 *3017:B *2707:A1 0
25 *3022:B *3033:A1 2.11084e-05
26 *3022:B *430:95 1.15688e-05
27 *3022:B *459:10 0.00011852
28 *421:12 *798:21 2.15594e-05
29 *421:12 *799:45 3.99039e-05
30 *421:12 *801:14 8.70923e-05
31 *421:16 *465:12 4.82919e-05
32 *421:18 *465:12 4.82863e-05
33 *421:18 *468:12 0.000241483
34 *421:20 *456:10 4.89295e-05
35 *421:22 *456:10 4.89295e-05
36 *421:32 *2775:B2 2.76276e-05
37 *421:32 *2975:A 3.54626e-05
38 *421:32 *2977:A 0.000107325
39 *421:32 *2993:A0 0.000249928
40 *421:32 *2994:A 0.000296088
41 *421:32 *430:95 0.000370885
42 *421:32 *603:31 0
43 *421:32 *881:10 8.97564e-05
44 *2710:A_N *421:18 8.8266e-05
45 *2710:C *421:18 2.4526e-05
46 *2710:D *421:18 8.8266e-05
47 *2767:C1 *3037:B 4.82919e-05
48 *2974:A1 *2973:B 4.12061e-05
49 *3022:A *3022:B 0
50 *3022:A *421:32 0
51 *3027:A *421:20 0.000351041
52 *3032:A *421:26 0.000120655
53 *3032:A *421:32 0.000188574
54 *3037:A *3037:B 0.000136884
55 *3042:A *3052:B 0.000145184
56 *3042:A *421:16 9.53428e-06
57 *3042:A *421:95 5.30673e-05
58 *3047:A *3052:B 0.000189845
59 *3047:A *421:12 0
60 *3047:A *421:16 3.63661e-05
61 *3047:A *421:18 5.05437e-05
62 *3047:A *421:95 0.0001249
63 *3472:A *421:18 4.82863e-05
64 *172:14 *421:12 0
65 *181:32 *3017:B 0.000108075
66 *181:32 *421:32 0.000607783
67 *182:31 *3037:B 4.82919e-05
68 *183:22 *3037:B 0
69 *185:14 *421:18 0.000205762
70 *185:14 *421:20 2.31329e-05
71 *185:27 *421:12 2.7881e-05
72 *185:27 *421:18 0.000185835
73 *212:20 *421:12 0.000767676
74 *218:12 *421:12 0.000444385
75 *321:28 *421:12 8.57024e-05
76 *345:16 *3017:B 3.11872e-05
77 *345:30 *3017:B 9.12494e-06
78 *399:34 *421:32 0.000104428
*RES
1 *2972:X *421:12 18.23 
2 *421:12 *421:16 1.155 
3 *421:16 *421:18 13.905 
4 *421:18 *421:20 5.625 
5 *421:20 *421:22 4.935 
6 *421:22 *421:26 3.83 
7 *421:26 *421:32 17.235 
8 *421:32 *3017:B 6.45 
9 *421:32 *2973:B 11.295 
10 *421:26 *3022:B 6.375 
11 *421:22 *3032:B 1.6 
12 *421:20 *3027:B 1.96 
13 *421:18 *3037:B 7.685 
14 *421:16 *3047:B 1.6 
15 *421:12 *421:95 1.14 
16 *421:95 *3042:B 1.6 
17 *421:95 *3052:B 3.775 
*END

*D_NET *422 0.00298727
*CONN
*I *2976:S I *D sky130_fd_sc_hd__mux2_1
*I *2974:S I *D sky130_fd_sc_hd__mux2_1
*I *2973:Y O *D sky130_fd_sc_hd__nor2_1
*CAP
1 *2976:S 0.000237217
2 *2974:S 0.000121338
3 *2973:Y 0.000120238
4 *422:8 0.000478793
5 *2974:S *2707:A1 6.40827e-05
6 *2976:S *2707:A1 0.000112143
7 *2976:S *887:10 0.000125286
8 *422:8 *2707:A1 0.000153816
9 *2973:B *2974:S 0.000161467
10 *2974:A1 *2974:S 0.000269292
11 *3027:A *2976:S 5.10948e-05
12 *197:18 *2976:S 0.000277676
13 *321:28 *2974:S 0.000119756
14 *374:141 *2974:S 6.79508e-05
15 *374:141 *2976:S 0.000605562
16 *395:26 *2974:S 2.15594e-05
*RES
1 *2973:Y *422:8 5.085 
2 *422:8 *2974:S 7.68 
3 *422:8 *2976:S 11.1 
*END

*D_NET *423 0.000983841
*CONN
*I *2975:A I *D sky130_fd_sc_hd__clkbuf_1
*I *2974:X O *D sky130_fd_sc_hd__mux2_1
*CAP
1 *2975:A 0.000292298
2 *2974:X 0.000292298
3 *2975:A *2707:A1 0.000269898
4 *2975:A *2977:A 3.59531e-06
5 *2975:A *603:31 1.95015e-05
6 *2973:B *2975:A 2.16833e-05
7 *2990:B *2975:A 4.91032e-05
8 *421:32 *2975:A 3.54626e-05
*RES
1 *2974:X *2975:A 11.445 
*END

*D_NET *424 0.00295545
*CONN
*I *2977:A I *D sky130_fd_sc_hd__clkbuf_1
*I *2976:X O *D sky130_fd_sc_hd__mux2_1
*CAP
1 *2977:A 0.000785154
2 *2976:X 0.000785154
3 *2977:A *2775:A1 4.85669e-05
4 *2977:A *2775:B2 0
5 *2977:A *3176:CLK 2.49909e-05
6 *2977:A *603:21 0.000130832
7 *2977:A *603:25 4.93879e-05
8 *2775:B1 *2977:A 1.47347e-05
9 *2777:A2 *2977:A 8.53113e-06
10 *2975:A *2977:A 3.59531e-06
11 *2990:B *2977:A 0.000114578
12 *3022:A *2977:A 0.00056671
13 *3085:A *2977:A 4.66108e-05
14 *3186:D *2977:A 8.17292e-05
15 *181:32 *2977:A 8.53113e-06
16 *207:39 *2977:A 0.000150642
17 *207:86 *2977:A 2.55163e-05
18 *365:64 *2977:A 2.8585e-06
19 *421:32 *2977:A 0.000107325
*RES
1 *2976:X *2977:A 24.58 
*END

*D_NET *425 0.00161934
*CONN
*I *2979:S I *D sky130_fd_sc_hd__mux2_1
*I *2981:S I *D sky130_fd_sc_hd__mux2_1
*I *2978:X O *D sky130_fd_sc_hd__or2_1
*CAP
1 *2979:S 0
2 *2981:S 0.000254782
3 *2978:X 0.000226406
4 *425:6 0.000481188
5 *425:6 *2979:A1 3.33763e-05
6 *2979:A0 *425:6 4.77807e-05
7 *323:10 *2981:S 0.000104457
8 *323:62 *2981:S 0.000373651
9 *351:150 *2981:S 9.76966e-05
*RES
1 *2978:X *425:6 5.155 
2 *425:6 *2981:S 12.08 
3 *425:6 *2979:S 1.6 
*END

*D_NET *426 0.000199204
*CONN
*I *2980:A I *D sky130_fd_sc_hd__clkbuf_1
*I *2979:X O *D sky130_fd_sc_hd__mux2_1
*CAP
1 *2980:A 6.02209e-05
2 *2979:X 6.02209e-05
3 *2980:A *2630:A1 3.72081e-05
4 *351:150 *2980:A 4.15546e-05
*RES
1 *2979:X *2980:A 8.58 
*END

*D_NET *427 0.000848018
*CONN
*I *2982:A I *D sky130_fd_sc_hd__clkbuf_1
*I *2981:X O *D sky130_fd_sc_hd__mux2_1
*CAP
1 *2982:A 0.000303538
2 *2981:X 0.000303538
3 *2982:A *2981:A1 0
4 *2982:A *619:62 0.000116921
5 *359:70 *2982:A 0.00012402
*RES
1 *2981:X *2982:A 11.79 
*END

*D_NET *428 0.00178932
*CONN
*I *2987:S I *D sky130_fd_sc_hd__mux2_1
*I *2984:S I *D sky130_fd_sc_hd__mux2_1
*I *2983:X O *D sky130_fd_sc_hd__or2_1
*CAP
1 *2987:S 0.000257074
2 *2984:S 0.000163285
3 *2983:X 0
4 *428:6 0.000420359
5 *2984:S *2754:A 3.00381e-05
6 *2984:S *802:12 9.50342e-06
7 *2987:S *2699:A_N 0.000120186
8 *2987:S *2699:B 0.000183745
9 *2987:S *2987:A0 5.30673e-05
10 *2987:S *774:92 0.000203905
11 *2987:S *802:12 9.54399e-05
12 *173:12 *2984:S 4.43871e-06
13 *173:12 *2987:S 4.13443e-05
14 *323:62 *2984:S 9.07429e-05
15 *323:62 *2987:S 0.000116187
16 *419:16 *2984:S 0
*RES
1 *2983:X *428:6 3.6 
2 *428:6 *2984:S 6.705 
3 *428:6 *2987:S 10.8 
*END

*D_NET *429 0.000691673
*CONN
*I *2985:A I *D sky130_fd_sc_hd__clkbuf_1
*I *2984:X O *D sky130_fd_sc_hd__mux2_1
*CAP
1 *2985:A 0.000192439
2 *2984:X 0.000192439
3 *2985:A *2755:A1 0.000235171
4 *323:62 *2985:A 7.1624e-05
*RES
1 *2984:X *2985:A 11.205 
*END

*D_NET *430 0.0373345
*CONN
*I *3073:A0 I *D sky130_fd_sc_hd__mux2_1
*I *3078:A0 I *D sky130_fd_sc_hd__mux2_1
*I *3050:A0 I *D sky130_fd_sc_hd__mux2_1
*I *3045:A0 I *D sky130_fd_sc_hd__mux2_1
*I *3055:A0 I *D sky130_fd_sc_hd__mux2_1
*I *3015:A0 I *D sky130_fd_sc_hd__mux2_1
*I *3035:A0 I *D sky130_fd_sc_hd__mux2_1
*I *2993:A0 I *D sky130_fd_sc_hd__mux2_1
*I *2987:A0 I *D sky130_fd_sc_hd__mux2_1
*I *3068:A0 I *D sky130_fd_sc_hd__mux2_1
*I *2986:X O *D sky130_fd_sc_hd__clkbuf_4
*CAP
1 *3073:A0 0.000301233
2 *3078:A0 0.00015971
3 *3050:A0 0.000167902
4 *3045:A0 0
5 *3055:A0 0.000389304
6 *3015:A0 0.000697138
7 *3035:A0 0
8 *2993:A0 0.00012713
9 *2987:A0 0.000132276
10 *3068:A0 0.00026757
11 *2986:X 3.98087e-05
12 *430:184 0.000527042
13 *430:155 0.000814202
14 *430:141 0.000694262
15 *430:116 0.00157451
16 *430:95 0.00107809
17 *430:74 0.00106549
18 *430:64 0.00225112
19 *430:30 0.000801021
20 *430:24 0.00385029
21 *430:8 0.00503777
22 *2987:A0 *2785:A 3.66286e-05
23 *2993:A0 *2775:B2 0.000165781
24 *2993:A0 *3443:A 6.75724e-05
25 *3015:A0 *3016:A 0.00015631
26 *3015:A0 *432:73 0
27 *3015:A0 *759:12 7.37934e-05
28 *3015:A0 *857:12 2.85623e-05
29 *3050:A0 *3048:S 0.000160992
30 *3050:A0 *3050:S 9.39901e-06
31 *3050:A0 *432:115 4.22944e-05
32 *3055:A0 *3043:S 0.000308719
33 *3055:A0 *3045:A1 6.32751e-05
34 *3068:A0 *2785:A 0.000141606
35 *3068:A0 *3068:A1 2.49909e-05
36 *3068:A0 *3238:CLK 3.09451e-05
37 *3068:A0 *3380:A 0.000223727
38 *3073:A0 *3071:A1 4.82919e-05
39 *3073:A0 *3073:A1 4.43871e-06
40 *3073:A0 *3078:A1 7.23602e-05
41 *3073:A0 *483:18 0
42 *3078:A0 *442:108 0.000235568
43 *430:8 *3413:A 2.49909e-05
44 *430:24 *3093:A1 0.000160188
45 *430:24 *3232:CLK 0.000167346
46 *430:24 *3233:CLK 0.000237459
47 *430:24 *442:16 4.82863e-05
48 *430:24 *442:154 0.00128953
49 *430:24 *726:38 7.23533e-05
50 *430:30 *2785:A 0.00023468
51 *430:30 *3314:A 1.19928e-05
52 *430:64 *2773:A 8.99944e-05
53 *430:64 *3117:B 0
54 *430:64 *3192:CLK 8.65961e-05
55 *430:64 *3307:A 0
56 *430:64 *3413:A 0
57 *430:64 *445:21 0
58 *430:64 *445:70 6.42094e-06
59 *430:64 *474:49 0.000107314
60 *430:64 *474:69 8.91544e-05
61 *430:64 *476:98 0
62 *430:64 *483:18 0.000198031
63 *430:64 *590:222 0.000103637
64 *430:64 *602:10 0
65 *430:64 *726:26 0.000392707
66 *430:64 *726:28 0.000181452
67 *430:64 *726:38 0.000575594
68 *430:74 *3183:CLK 2.87179e-05
69 *430:95 *3035:A1 4.77807e-05
70 *430:95 *3035:S 5.83121e-06
71 *430:95 *3443:A 0.000164686
72 *430:95 *432:133 4.17373e-05
73 *430:95 *442:108 0.000389631
74 *430:95 *459:10 0.000292241
75 *430:116 *2696:A1 4.66108e-05
76 *430:116 *2696:B2 0.000148303
77 *430:116 *3035:A1 0.000304442
78 *430:116 *3040:A0 0.000122821
79 *430:116 *3415:A 3.5678e-06
80 *430:116 *3461:A 5.3399e-05
81 *430:116 *432:133 0.000928235
82 *430:116 *861:14 0.000349102
83 *430:141 *432:115 4.60814e-05
84 *430:141 *432:133 2.49909e-05
85 *430:141 *857:12 0.000111293
86 *430:155 *2766:B2 0
87 *430:155 *3048:S 0.000233593
88 *430:155 *3050:A1 7.48954e-05
89 *430:155 *3050:S 9.56017e-06
90 *430:155 *465:12 3.86582e-05
91 *430:155 *595:97 0.000205211
92 *430:184 *483:18 1.96072e-05
93 *2622:A *430:64 0.000212465
94 *2696:A2 *3015:A0 0.000177886
95 *2696:B1 *430:116 4.19988e-05
96 *2743:C1 *430:64 0.000140912
97 *2765:B1 *3015:A0 9.24825e-05
98 *2765:B1 *430:141 0.000104389
99 *2766:C1 *3055:A0 0.000228863
100 *2781:C *3068:A0 6.5536e-05
101 *2785:B *430:30 1.7824e-05
102 *2785:C *430:30 9.16333e-06
103 *2788:B *430:30 0.000562737
104 *2791:A *430:30 0.000228224
105 *2791:C *430:24 0.000253546
106 *2791:C *430:30 0.000121023
107 *2792:A2 *430:64 0
108 *2792:A2 *430:74 0.000117116
109 *2800:B1 *430:24 4.89295e-05
110 *2800:C1 *430:24 0.00109987
111 *2800:C1 *430:30 9.97536e-06
112 *2800:D1 *430:24 4.82369e-05
113 *2987:S *2987:A0 5.30673e-05
114 *3022:B *430:95 1.15688e-05
115 *3080:A *430:64 0.000160198
116 *3183:D *430:74 1.54049e-05
117 *3199:D *430:116 0.000223643
118 *3295:A *430:24 0.000109729
119 *180:10 *3015:A0 6.10014e-05
120 *180:21 *3015:A0 9.60047e-05
121 *180:32 *3015:A0 3.50033e-05
122 *181:134 *430:95 0
123 *182:10 *3015:A0 0.000302409
124 *182:31 *3015:A0 5.7344e-05
125 *183:56 *3015:A0 0
126 *187:16 *3015:A0 0.000615531
127 *191:10 *3068:A0 0.000173865
128 *191:35 *3068:A0 0
129 *202:8 *3015:A0 0.000541272
130 *211:14 *3068:A0 0.000183738
131 *215:24 *2993:A0 8.49205e-05
132 *215:24 *3015:A0 0.000160635
133 *215:38 *430:74 0.000107643
134 *218:80 *430:64 5.64057e-05
135 *285:16 *430:64 0
136 *321:28 *3015:A0 3.62583e-06
137 *340:88 *3015:A0 4.82863e-05
138 *345:30 *430:64 0
139 *376:14 *3015:A0 4.83522e-05
140 *391:16 *3015:A0 0.00015896
141 *407:20 *430:64 1.10537e-05
142 *419:14 *3068:A0 0.000172964
143 *421:32 *2993:A0 0.000249928
144 *421:32 *430:95 0.000370885
*RES
1 *2986:X *430:8 4.05 
2 *430:8 *430:24 47.645 
3 *430:24 *430:30 9.54 
4 *430:30 *3068:A0 13.805 
5 *430:30 *2987:A0 3.895 
6 *430:8 *430:64 35.62 
7 *430:64 *430:74 13.885 
8 *430:74 *2993:A0 7.305 
9 *430:74 *430:95 12.215 
10 *430:95 *3035:A0 1.6 
11 *430:95 *430:116 21.26 
12 *430:116 *3015:A0 28.87 
13 *430:116 *430:141 4.52 
14 *430:141 *430:155 11.305 
15 *430:155 *3055:A0 9.145 
16 *430:155 *3045:A0 1.6 
17 *430:141 *3050:A0 4.84 
18 *430:64 *430:184 1.125 
19 *430:184 *3078:A0 5.775 
20 *430:184 *3073:A0 8.79 
*END

*D_NET *431 0.000755473
*CONN
*I *2988:A I *D sky130_fd_sc_hd__clkbuf_1
*I *2987:X O *D sky130_fd_sc_hd__mux2_1
*CAP
1 *2988:A 0.000298755
2 *2987:X 0.000298755
3 *2988:A *3181:CLK 0
4 *3181:D *2988:A 4.05358e-05
5 *323:62 *2988:A 0.000117428
*RES
1 *2987:X *2988:A 12.105 
*END

*D_NET *432 0.0319411
*CONN
*I *3048:A0 I *D sky130_fd_sc_hd__mux2_1
*I *3033:A0 I *D sky130_fd_sc_hd__mux2_1
*I *3071:A0 I *D sky130_fd_sc_hd__mux2_1
*I *2991:A0 I *D sky130_fd_sc_hd__mux2_1
*I *3076:A0 I *D sky130_fd_sc_hd__mux2_1
*I *3053:A0 I *D sky130_fd_sc_hd__mux2_1
*I *3043:A0 I *D sky130_fd_sc_hd__mux2_1
*I *3066:A0 I *D sky130_fd_sc_hd__mux2_1
*I *3013:A0 I *D sky130_fd_sc_hd__mux2_1
*I *3096:A0 I *D sky130_fd_sc_hd__mux2_1
*I *2989:X O *D sky130_fd_sc_hd__buf_2
*CAP
1 *3048:A0 0
2 *3033:A0 3.43921e-05
3 *3071:A0 0.000240514
4 *2991:A0 0
5 *3076:A0 0.000381655
6 *3053:A0 0.000685905
7 *3043:A0 0.000252439
8 *3066:A0 0.00141302
9 *3013:A0 0
10 *3096:A0 0.000376871
11 *2989:X 0.000713736
12 *432:143 0.000739923
13 *432:139 0.000826809
14 *432:133 0.00151453
15 *432:115 0.00143931
16 *432:81 0.00126332
17 *432:73 0.0011032
18 *432:46 0.00228129
19 *432:29 0.000477757
20 *432:14 0.00129111
21 *3043:A0 *2697:B2 2.35459e-05
22 *3043:A0 *3043:S 4.82919e-05
23 *3043:A0 *3045:A1 4.82919e-05
24 *3043:A0 *595:82 0.00017664
25 *3053:A0 *2766:A1 3.21182e-05
26 *3053:A0 *3053:A1 1.87038e-05
27 *3053:A0 *3053:S 4.46433e-05
28 *3053:A0 *3056:A 5.11067e-05
29 *3053:A0 *3433:A 6.62785e-06
30 *3053:A0 *471:10 5.91372e-05
31 *3053:A0 *595:82 7.40277e-05
32 *3066:A0 *3276:CLK 1.86021e-05
33 *3066:A0 *480:14 4.66108e-05
34 *3066:A0 *590:208 0.000450004
35 *3066:A0 *594:83 0.000227668
36 *3071:A0 *3071:A1 0.000579417
37 *3071:A0 *3073:S 0.000352161
38 *3071:A0 *3324:A 0.000317194
39 *3076:A0 *2743:A1 4.66826e-05
40 *3076:A0 *2992:A 8.5841e-05
41 *3096:A0 *2771:A 4.77807e-05
42 *3096:A0 *3096:S 8.35157e-05
43 *3096:A0 *3466:A 4.77807e-05
44 *432:14 *2550:B 0.000243065
45 *432:14 *3133:A0 4.56292e-05
46 *432:14 *3133:A1 0.000158564
47 *432:14 *3133:S 3.88906e-05
48 *432:14 *3466:A 0.00021861
49 *432:14 *476:125 0.000171756
50 *432:14 *715:30 2.0187e-05
51 *432:14 *759:28 3.81493e-05
52 *432:29 *3014:A 0
53 *432:29 *3466:A 0.000175279
54 *432:29 *678:12 0.000241004
55 *432:46 *678:12 0.000284845
56 *432:46 *759:12 0.000188586
57 *432:73 *3051:A 0.000155501
58 *432:73 *468:12 0
59 *432:73 *678:12 0.000455512
60 *432:73 *737:24 0.000258631
61 *432:73 *759:12 0.000665554
62 *432:81 *2697:A1 3.06569e-06
63 *432:81 *595:82 1.34618e-05
64 *432:115 *3048:A1 2.23253e-05
65 *432:115 *3051:A 0.000153685
66 *432:133 *3033:S 8.52972e-05
67 *432:133 *3035:S 3.57349e-05
68 *432:133 *862:8 0.000158552
69 *432:139 *3034:A 2.49909e-05
70 *432:139 *445:89 0.000159667
71 *432:143 *2992:A 0
72 *432:143 *3183:CLK 7.44375e-05
73 *432:143 *445:89 0.000824756
74 *2690:B *432:73 0.00013521
75 *2696:A2 *432:73 0
76 *2696:B1 *432:133 5.83121e-06
77 *2697:C1 *432:81 0.000509775
78 *2698:C1 *432:81 0.000378952
79 *2698:C1 *432:133 0.000832151
80 *2709:A3 *432:29 9.10613e-05
81 *2743:B1 *3076:A0 0.000134938
82 *2765:B1 *432:133 0.000143425
83 *2766:B1 *432:81 8.35118e-05
84 *2766:C1 *3043:A0 5.51172e-05
85 *2772:B1 *3096:A0 4.90227e-05
86 *2928:A *432:46 0.000193546
87 *2941:B *3066:A0 0
88 *3015:A0 *432:73 0
89 *3050:A0 *432:115 4.22944e-05
90 *3070:A *3066:A0 0.00121434
91 *3132:A *432:14 0.000122817
92 *3183:D *432:143 9.54469e-05
93 *3199:D *432:133 9.81958e-05
94 *3207:D *3043:A0 7.01276e-05
95 *3207:D *3053:A0 4.89395e-05
96 *176:64 *3096:A0 6.02714e-05
97 *182:10 *432:73 1.82476e-05
98 *182:31 *432:73 4.19967e-05
99 *187:16 *432:133 8.33066e-06
100 *194:26 *3096:A0 0.000200299
101 *194:26 *432:14 2.42043e-05
102 *194:41 *3096:A0 1.70906e-05
103 *208:139 *3076:A0 0.000454461
104 *215:68 *3066:A0 0.00106758
105 *218:12 *3066:A0 6.12354e-05
106 *218:24 *3066:A0 0.000328388
107 *317:66 *432:46 9.17274e-05
108 *318:50 *3066:A0 0.000123529
109 *319:88 *3066:A0 8.22531e-05
110 *336:25 *432:46 0.000119242
111 *345:16 *3066:A0 0.000104463
112 *361:36 *3066:A0 0.000374091
113 *370:54 *432:29 0
114 *391:16 *432:46 5.92482e-05
115 *391:16 *432:73 0.00045076
116 *399:16 *3066:A0 0
117 *407:14 *3066:A0 5.33585e-05
118 *419:144 *432:46 1.66435e-05
119 *430:95 *432:133 4.17373e-05
120 *430:116 *432:133 0.000928235
121 *430:141 *432:115 4.60814e-05
122 *430:141 *432:133 2.49909e-05
*RES
1 *2989:X *432:14 12.985 
2 *432:14 *3096:A0 7.6 
3 *432:14 *432:29 6.95 
4 *432:29 *3013:A0 3.6 
5 *432:29 *432:46 10.8325 
6 *432:46 *3066:A0 20.891 
7 *432:46 *432:73 17.8725 
8 *432:73 *432:81 9.125 
9 *432:81 *3043:A0 11 
10 *432:81 *3053:A0 14.855 
11 *432:73 *432:115 5.375 
12 *432:115 *432:133 27.73 
13 *432:133 *432:139 5.72 
14 *432:139 *432:143 11.54 
15 *432:143 *3076:A0 10.285 
16 *432:143 *2991:A0 1.6 
17 *432:139 *3071:A0 11.985 
18 *432:133 *3033:A0 2.215 
19 *432:115 *3048:A0 1.6 
*END

*D_NET *433 0.00228798
*CONN
*I *2993:S I *D sky130_fd_sc_hd__mux2_1
*I *2991:S I *D sky130_fd_sc_hd__mux2_1
*I *2990:X O *D sky130_fd_sc_hd__or2_1
*CAP
1 *2993:S 0.000314103
2 *2991:S 0
3 *2990:X 0.000165535
4 *433:10 0.000479639
5 *2993:S *2993:A1 4.82919e-05
6 *2993:S *445:89 0.000119653
7 *2993:S *604:14 0.00020069
8 *433:10 *2717:B2 0.000140912
9 *433:10 *445:89 2.25079e-05
10 *2718:B1 *433:10 0.00011379
11 *3022:A *2993:S 0.000226848
12 *3022:A *433:10 5.33085e-05
13 *3032:A *433:10 2.46007e-05
14 *3075:A *433:10 8.23457e-05
15 *197:108 *2993:S 8.23457e-05
16 *208:118 *433:10 0.000201845
17 *208:139 *433:10 1.1561e-05
*RES
1 *2990:X *433:10 8.325 
2 *433:10 *2991:S 3.6 
3 *433:10 *2993:S 10.515 
*END

*D_NET *434 0.00075939
*CONN
*I *2992:A I *D sky130_fd_sc_hd__clkbuf_1
*I *2991:X O *D sky130_fd_sc_hd__mux2_1
*CAP
1 *2992:A 0.000260184
2 *2991:X 0.000260184
3 *2992:A *2743:A1 6.55328e-05
4 *3076:A0 *2992:A 8.5841e-05
5 *3182:D *2992:A 2.75145e-05
6 *197:108 *2992:A 6.01329e-05
7 *215:38 *2992:A 0
8 *432:143 *2992:A 0
*RES
1 *2991:X *2992:A 11.55 
*END

*D_NET *435 0.0011443
*CONN
*I *2994:A I *D sky130_fd_sc_hd__clkbuf_1
*I *2993:X O *D sky130_fd_sc_hd__mux2_1
*CAP
1 *2994:A 0.000205918
2 *2993:X 0.000205918
3 *2994:A *442:108 0.000271314
4 *3032:A *2994:A 0.000165068
5 *421:32 *2994:A 0.000296088
*RES
1 *2993:X *2994:A 13.14 
*END

*D_NET *436 0.00374956
*CONN
*I *2996:S I *D sky130_fd_sc_hd__mux2_1
*I *2998:S I *D sky130_fd_sc_hd__mux2_1
*I *2995:Y O *D sky130_fd_sc_hd__nor2_1
*CAP
1 *2996:S 0.000227253
2 *2998:S 6.77012e-05
3 *2995:Y 0.000963641
4 *436:14 0.0012586
5 *2996:S *3408:A 0.000302273
6 *2996:S *619:39 0.000407255
7 *2998:S *2752:A1 0
8 *2998:S *527:12 3.86607e-05
9 *436:14 *2784:A 1.56428e-05
10 *436:14 *2784:C 1.77285e-05
11 *2784:B *436:14 4.82863e-05
12 *2995:B *436:14 3.00381e-05
13 *2996:A1 *2996:S 9.36295e-05
14 *2996:A1 *436:14 0.000158484
15 *3185:D *436:14 2.0148e-05
16 *3255:D *436:14 2.78641e-05
17 *187:98 *2998:S 7.23602e-05
*RES
1 *2995:Y *436:14 13.675 
2 *436:14 *2998:S 7.085 
3 *436:14 *2996:S 7.255 
*END

*D_NET *437 0.00245295
*CONN
*I *2997:A I *D sky130_fd_sc_hd__clkbuf_1
*I *2996:X O *D sky130_fd_sc_hd__mux2_1
*CAP
1 *2997:A 0.000575828
2 *2996:X 0.000575828
3 *2997:A *759:28 5.63387e-05
4 *2761:A *2997:A 0.000297792
5 *2790:A2 *2997:A 0
6 *2996:A1 *2997:A 0.000339654
7 *3184:D *2997:A 2.86975e-05
8 *187:98 *2997:A 0.000401489
9 *316:46 *2997:A 0.000177326
*RES
1 *2996:X *2997:A 18.84 
*END

*D_NET *438 0.000433709
*CONN
*I *2999:A I *D sky130_fd_sc_hd__clkbuf_1
*I *2998:X O *D sky130_fd_sc_hd__mux2_1
*CAP
1 *2999:A 6.00991e-05
2 *2998:X 6.00991e-05
3 *2999:A *759:28 1.73877e-05
4 *2761:C *2999:A 5.10667e-05
5 *2998:A1 *2999:A 0.000121019
6 *3185:D *2999:A 9.50342e-06
7 *212:42 *2999:A 0.000114534
8 *370:54 *2999:A 0
*RES
1 *2998:X *2999:A 9.21 
*END

*D_NET *439 0.00378104
*CONN
*I *3003:S I *D sky130_fd_sc_hd__mux2_1
*I *3001:S I *D sky130_fd_sc_hd__mux2_1
*I *3000:Y O *D sky130_fd_sc_hd__nor2_1
*CAP
1 *3003:S 0.000552811
2 *3001:S 1.65033e-05
3 *3000:Y 0.000264598
4 *439:10 0.000833913
5 *3001:S *3001:A0 2.49909e-05
6 *3001:S *3360:A 4.66108e-05
7 *3003:S *3002:A 4.7182e-05
8 *3003:S *3004:A 0.00027345
9 *3003:S *3319:A 0.000385993
10 *2689:A_N *3003:S 0.00015669
11 *2689:D *3003:S 1.26626e-05
12 *2693:B *3003:S 4.59445e-05
13 *2715:B_N *3003:S 4.41506e-05
14 *3085:A *439:10 4.21973e-05
15 *179:58 *3003:S 8.34281e-06
16 *180:63 *3003:S 7.07801e-05
17 *207:12 *3003:S 0.000473262
18 *207:12 *439:10 0.000172279
19 *208:10 *3003:S 0
20 *208:10 *439:10 0
21 *365:64 *439:10 0.000178227
22 *376:14 *439:10 8.69583e-05
23 *391:37 *439:10 4.3498e-05
*RES
1 *3000:Y *439:10 8.76 
2 *439:10 *3001:S 4.05 
3 *439:10 *3003:S 16.68 
*END

*D_NET *440 0.00226364
*CONN
*I *3002:A I *D sky130_fd_sc_hd__clkbuf_1
*I *3001:X O *D sky130_fd_sc_hd__mux2_1
*CAP
1 *3002:A 0.000766261
2 *3001:X 0.000766261
3 *3002:A *2976:A0 8.30619e-05
4 *3002:A *3003:A0 0.000167976
5 *3002:A *3004:A 0
6 *3002:A *3319:A 0.000234181
7 *3002:A *3360:A 0.000124895
8 *2730:A2 *3002:A 0
9 *3003:S *3002:A 4.7182e-05
10 *3187:D *3002:A 3.18219e-05
11 *197:18 *3002:A 0
12 *374:141 *3002:A 4.19967e-05
*RES
1 *3001:X *3002:A 20.955 
*END

*D_NET *441 0.00162483
*CONN
*I *3004:A I *D sky130_fd_sc_hd__clkbuf_1
*I *3003:X O *D sky130_fd_sc_hd__mux2_1
*CAP
1 *3004:A 0.000420028
2 *3003:X 0.000420028
3 *3002:A *3004:A 0
4 *3003:S *3004:A 0.00027345
5 *3022:A *3004:A 3.59784e-05
6 *3027:A *3004:A 8.68646e-05
7 *3187:D *3004:A 0.000209486
8 *197:8 *3004:A 0.000112836
9 *197:108 *3004:A 4.77719e-05
10 *391:16 *3004:A 1.83847e-05
*RES
1 *3003:X *3004:A 15.075 
*END

*D_NET *442 0.0234324
*CONN
*I *3091:A1 I *D sky130_fd_sc_hd__mux2_1
*I *3007:A1 I *D sky130_fd_sc_hd__mux2_1
*I *3081:A1 I *D sky130_fd_sc_hd__mux2_1
*I *3038:A1 I *D sky130_fd_sc_hd__mux2_1
*I *3028:A1 I *D sky130_fd_sc_hd__mux2_1
*I *3023:A1 I *D sky130_fd_sc_hd__mux2_1
*I *3061:A1 I *D sky130_fd_sc_hd__mux2_1
*I *3086:A1 I *D sky130_fd_sc_hd__mux2_1
*I *3018:A1 I *D sky130_fd_sc_hd__mux2_1
*I *3102:A1 I *D sky130_fd_sc_hd__mux2_1
*I *3005:X O *D sky130_fd_sc_hd__clkbuf_4
*CAP
1 *3091:A1 0.000555125
2 *3007:A1 0.000155558
3 *3081:A1 0
4 *3038:A1 0.000523608
5 *3028:A1 4.16935e-05
6 *3023:A1 0
7 *3061:A1 5.74818e-05
8 *3086:A1 3.23976e-05
9 *3018:A1 0.000730552
10 *3102:A1 0.000346962
11 *3005:X 0
12 *442:154 0.000951487
13 *442:119 0.000874813
14 *442:108 0.00193662
15 *442:77 0.00199901
16 *442:64 0.000523774
17 *442:58 0.000498945
18 *442:37 0.00123316
19 *442:16 0.00126361
20 *442:4 0.00097684
21 *3007:A1 *3371:A 0.00016163
22 *3018:A1 *3019:A 9.75063e-05
23 *3018:A1 *3394:A 3.85739e-05
24 *3018:A1 *474:49 0.000173602
25 *3018:A1 *590:222 0.000418802
26 *3028:A1 *3028:S 0.000110492
27 *3028:A1 *3030:A0 0.000112001
28 *3038:A1 *3035:A1 3.68948e-05
29 *3038:A1 *3038:S 0.000305081
30 *3038:A1 *3039:A 8.46818e-05
31 *3038:A1 *3040:A1 7.88077e-05
32 *3038:A1 *3040:S 0.000191572
33 *3038:A1 *3336:A 4.80058e-05
34 *3061:A1 *3061:A0 8.65905e-05
35 *3086:A1 *3086:A0 4.66108e-05
36 *3086:A1 *3086:S 8.40213e-05
37 *3091:A1 *3091:S 4.82863e-05
38 *3091:A1 *3110:A 0.000198945
39 *3102:A1 *2776:A1 6.97168e-05
40 *3102:A1 *3060:B 7.21262e-05
41 *3102:A1 *3102:S 6.43243e-05
42 *3102:A1 *476:98 3.84795e-05
43 *442:16 *2776:A1 0
44 *442:16 *2776:B2 0.000158784
45 *442:16 *3104:A0 2.41307e-05
46 *442:16 *3389:A 0.000119412
47 *442:16 *445:124 0.000199833
48 *442:16 *500:10 0.000295166
49 *442:16 *828:16 0.000292051
50 *442:58 *3060:B 0
51 *442:58 *3081:S 7.97252e-05
52 *442:58 *3083:S 4.71151e-05
53 *442:58 *3307:A 0
54 *442:58 *602:10 0.000137893
55 *442:58 *602:86 0.000172845
56 *442:64 *3081:S 0.000123225
57 *442:64 *3082:A 4.01778e-05
58 *442:64 *3089:A 1.94636e-05
59 *442:64 *477:8 8.52172e-05
60 *442:64 *492:8 0.000159313
61 *442:64 *841:12 0.00015896
62 *442:77 *3061:S 7.26551e-05
63 *442:77 *3063:A0 0
64 *442:77 *3063:A1 0
65 *442:77 *3064:A 0
66 *442:77 *3087:A 0.000140912
67 *442:77 *3341:A 3.76596e-05
68 *442:77 *477:8 0.000230315
69 *442:108 *3023:A0 9.12494e-06
70 *442:108 *3061:A0 8.49205e-05
71 *442:108 *3078:A1 5.43256e-05
72 *442:108 *3078:S 0.000119762
73 *442:108 *3079:A 0.000100249
74 *442:108 *3420:A 6.71882e-05
75 *442:108 *3427:A 0.000124172
76 *442:108 *3443:A 4.82919e-05
77 *442:108 *445:106 5.00903e-05
78 *442:108 *852:10 3.27443e-05
79 *442:119 *3023:S 4.66108e-05
80 *442:119 *3030:A0 1.56428e-05
81 *442:119 *3031:A 0.000141885
82 *442:119 *3035:A1 5.01751e-05
83 *442:119 *445:106 0.000137045
84 *442:119 *863:10 8.23457e-05
85 *442:154 *3093:A1 0.000148756
86 *442:154 *445:124 0.000824825
87 *2692:B1 *442:108 1.4944e-05
88 *2730:D1 *3007:A1 2.4997e-05
89 *2748:A1 *3007:A1 0.00018471
90 *2768:B *3091:A1 5.83121e-06
91 *2994:A *442:108 0.000271314
92 *3078:A0 *442:108 0.000235568
93 *3101:A *3102:A1 9.32375e-05
94 *3215:D *442:108 1.08321e-05
95 *3218:D *442:64 0.000112123
96 *3218:D *442:77 0.000151432
97 *3295:A *442:154 0.000110525
98 *181:134 *442:108 0
99 *197:128 *442:77 0
100 *202:115 *442:16 0.000184772
101 *207:86 *3007:A1 5.13581e-05
102 *207:86 *3091:A1 4.92096e-05
103 *207:90 *3007:A1 2.54606e-05
104 *358:64 *442:16 3.00381e-05
105 *358:79 *442:16 4.66742e-05
106 *395:57 *3007:A1 5.22266e-05
107 *395:57 *3091:A1 4.83241e-05
108 *430:24 *442:16 4.82863e-05
109 *430:24 *442:154 0.00128953
110 *430:95 *442:108 0.000389631
*RES
1 *3005:X *442:4 1.6 
2 *442:4 *442:16 18.47 
3 *442:16 *3102:A1 12.745 
4 *442:16 *442:37 2.91 
5 *442:37 *3018:A1 15.57 
6 *442:37 *442:58 8.735 
7 *442:58 *442:64 7.445 
8 *442:64 *3086:A1 4.395 
9 *442:64 *442:77 10.01 
10 *442:77 *3061:A1 2.395 
11 *442:77 *442:108 33.37 
12 *442:108 *3023:A1 1.6 
13 *442:108 *442:119 5.91 
14 *442:119 *3028:A1 6.98 
15 *442:119 *3038:A1 11.605 
16 *442:58 *3081:A1 1.6 
17 *442:4 *442:154 13.835 
18 *442:154 *3007:A1 8.04 
19 *442:154 *3091:A1 13.05 
*END

*D_NET *443 0.00101301
*CONN
*I *3010:S I *D sky130_fd_sc_hd__mux2_1
*I *3007:S I *D sky130_fd_sc_hd__mux2_1
*I *3006:Y O *D sky130_fd_sc_hd__nor2_1
*CAP
1 *3010:S 0.000300596
2 *3007:S 3.38884e-05
3 *3006:Y 0
4 *443:4 0.000334484
5 *3007:S *3371:A 0.000117825
6 *3010:S *3010:A0 5.05521e-05
7 *2730:D1 *3010:S 8.73389e-06
8 *2748:A1 *3010:S 3.7445e-05
9 *3006:B *3010:S 1.16578e-05
10 *207:90 *3007:S 0.000117825
*RES
1 *3006:Y *443:4 1.6 
2 *443:4 *3007:S 6.98 
3 *443:4 *3010:S 5.875 
*END

*D_NET *444 0.00129353
*CONN
*I *3008:A I *D sky130_fd_sc_hd__clkbuf_1
*I *3007:X O *D sky130_fd_sc_hd__mux2_1
*CAP
1 *3008:A 0.000394654
2 *3007:X 0.000394654
3 *3008:A *2721:B2 4.00541e-06
4 *3008:A *2802:A2 0
5 *3008:A *3189:CLK 9.91257e-05
6 *3008:A *874:8 4.82863e-05
7 *3188:D *3008:A 0.00016063
8 *3189:D *3008:A 1.54049e-05
9 *212:91 *3008:A 0.000176766
*RES
1 *3007:X *3008:A 10.925 
*END

*D_NET *445 0.0252438
*CONN
*I *3093:A1 I *D sky130_fd_sc_hd__mux2_1
*I *3010:A1 I *D sky130_fd_sc_hd__mux2_1
*I *3040:A1 I *D sky130_fd_sc_hd__mux2_1
*I *3030:A1 I *D sky130_fd_sc_hd__mux2_1
*I *3025:A1 I *D sky130_fd_sc_hd__mux2_1
*I *3020:A1 I *D sky130_fd_sc_hd__mux2_1
*I *3083:A1 I *D sky130_fd_sc_hd__mux2_1
*I *3063:A1 I *D sky130_fd_sc_hd__mux2_1
*I *3088:A1 I *D sky130_fd_sc_hd__mux2_1
*I *3104:A1 I *D sky130_fd_sc_hd__mux2_1
*I *3009:X O *D sky130_fd_sc_hd__clkbuf_4
*CAP
1 *3093:A1 0.000621951
2 *3010:A1 6.17465e-05
3 *3040:A1 0.000411063
4 *3030:A1 0
5 *3025:A1 2.75305e-05
6 *3020:A1 8.58169e-05
7 *3083:A1 0
8 *3063:A1 0.000589661
9 *3088:A1 0.000193602
10 *3104:A1 0.000135688
11 *3009:X 0
12 *445:124 0.000934896
13 *445:106 0.00099907
14 *445:89 0.00179111
15 *445:70 0.00203263
16 *445:42 0.000908721
17 *445:23 0.000790716
18 *445:21 0.00140173
19 *445:8 0.000902108
20 *445:4 0.000665183
21 *3010:A1 *2804:A2 0
22 *3020:A1 *3020:A0 0.000122325
23 *3025:A1 *867:10 3.26889e-05
24 *3040:A1 *3035:A1 0.000158997
25 *3040:A1 *3040:S 2.88357e-05
26 *3040:A1 *3336:A 4.6075e-05
27 *3063:A1 *3063:A0 6.61959e-05
28 *3063:A1 *3064:A 7.4027e-05
29 *3063:A1 *3083:A0 0.000605057
30 *3063:A1 *3084:A 0
31 *3063:A1 *602:25 0.000133085
32 *3063:A1 *602:53 0.000223257
33 *3063:A1 *843:18 0.000145575
34 *3063:A1 *853:10 0.000236648
35 *3088:A1 *3060:B 7.13883e-05
36 *3088:A1 *3083:S 7.00054e-05
37 *3088:A1 *3088:A0 0.000123225
38 *3088:A1 *477:8 2.66935e-05
39 *3093:A1 *3093:A0 4.66108e-05
40 *3093:A1 *3094:A 0.000158072
41 *3104:A1 *2714:A1 0.000194921
42 *445:8 *2714:B2 0.000181759
43 *445:8 *3115:A 9.07847e-05
44 *445:8 *3229:CLK 0.000200412
45 *445:8 *3389:A 1.38207e-05
46 *445:8 *726:28 5.43416e-05
47 *445:8 *726:38 0.000119388
48 *445:21 *3307:A 0.000137687
49 *445:21 *3389:A 2.92907e-05
50 *445:21 *726:26 9.46613e-05
51 *445:23 *3083:S 4.47209e-05
52 *445:23 *3192:CLK 8.73389e-06
53 *445:23 *3307:A 0.000106368
54 *445:42 *3083:A0 1.7386e-05
55 *445:42 *3083:S 0.000499914
56 *445:70 *3020:S 0.000150844
57 *445:70 *3192:CLK 7.646e-05
58 *445:89 *2717:B2 1.34361e-05
59 *445:89 *3020:S 6.06745e-05
60 *445:89 *3026:A 3.59538e-06
61 *445:89 *453:12 0
62 *445:89 *459:10 0
63 *445:89 *867:10 0.000212223
64 *445:106 *2692:A1 0.000141621
65 *445:106 *2692:B2 4.29365e-05
66 *445:106 *3023:A0 1.79165e-05
67 *445:106 *3031:A 8.9257e-05
68 *445:106 *3035:A1 0.000158548
69 *445:106 *3427:A 2.85623e-05
70 *445:106 *863:10 4.66108e-05
71 *445:106 *867:10 1.56428e-05
72 *2692:B1 *445:106 2.65814e-06
73 *2718:B1 *445:70 7.49919e-05
74 *2718:B1 *445:89 0.000189214
75 *2799:A2 *3093:A1 0.000786632
76 *2799:A2 *445:124 0.000179579
77 *2800:A1 *3093:A1 0.000215585
78 *2800:A2 *3093:A1 4.66108e-05
79 *2800:C1 *3093:A1 0.000753427
80 *2800:D1 *3093:A1 0.000122801
81 *2993:S *445:89 0.000119653
82 *3005:A *445:124 4.82863e-05
83 *3022:A *445:89 0.000269597
84 *3038:A1 *3040:A1 7.88077e-05
85 *3080:A *445:70 0.000306484
86 *3101:A *445:21 1.88656e-05
87 *3192:D *445:70 4.82319e-06
88 *3209:D *3063:A1 0
89 *3229:D *445:8 1.15688e-05
90 *3295:A *445:124 0.000119831
91 *197:128 *3063:A1 0
92 *197:128 *3088:A1 0
93 *202:77 *445:8 5.00903e-05
94 *202:77 *445:21 0.000111073
95 *202:87 *445:8 1.26548e-05
96 *202:115 *445:8 0.000270104
97 *208:139 *445:89 0.000141599
98 *235:18 *3010:A1 4.79946e-05
99 *235:18 *445:89 0
100 *285:16 *445:89 0
101 *291:24 *3093:A1 4.66108e-05
102 *350:93 *445:124 0.000722655
103 *358:79 *445:8 0.000183043
104 *430:24 *3093:A1 0.000160188
105 *430:64 *445:21 0
106 *430:64 *445:70 6.42094e-06
107 *432:139 *445:89 0.000159667
108 *432:143 *445:89 0.000824756
109 *433:10 *445:89 2.25079e-05
110 *442:16 *445:124 0.000199833
111 *442:77 *3063:A1 0
112 *442:108 *445:106 5.00903e-05
113 *442:119 *445:106 0.000137045
114 *442:154 *3093:A1 0.000148756
115 *442:154 *445:124 0.000824825
*RES
1 *3009:X *445:4 1.6 
2 *445:4 *445:8 12.815 
3 *445:8 *3104:A1 5.43 
4 *445:8 *445:21 8.99 
5 *445:21 *445:23 3.555 
6 *445:23 *3088:A1 8.885 
7 *445:23 *445:42 6 
8 *445:42 *3063:A1 20.12 
9 *445:42 *3083:A1 1.6 
10 *445:21 *445:70 13.43 
11 *445:70 *3020:A1 4.74 
12 *445:70 *445:89 27.62 
13 *445:89 *3025:A1 2.215 
14 *445:89 *445:106 12.565 
15 *445:106 *3030:A1 1.6 
16 *445:106 *3040:A1 6.88 
17 *445:4 *445:124 10.83 
18 *445:124 *3010:A1 6.725 
19 *445:124 *3093:A1 19.675 
*END

*D_NET *446 0.000130807
*CONN
*I *3011:A I *D sky130_fd_sc_hd__clkbuf_1
*I *3010:X O *D sky130_fd_sc_hd__mux2_1
*CAP
1 *3011:A 6.54036e-05
2 *3010:X 6.54036e-05
*RES
1 *3010:X *3011:A 4.265 
*END

*D_NET *447 0.00301261
*CONN
*I *3013:S I *D sky130_fd_sc_hd__mux2_1
*I *3015:S I *D sky130_fd_sc_hd__mux2_1
*I *3012:X O *D sky130_fd_sc_hd__or3_1
*CAP
1 *3013:S 0
2 *3015:S 0.000221889
3 *3012:X 0.000311887
4 *447:12 0.000533776
5 *3015:S *2771:A 0.000334717
6 *447:12 *2708:A 0.000229867
7 *447:12 *2708:C 0.000253871
8 *447:12 *3013:A1 0.000232434
9 *447:12 *873:14 8.35068e-05
10 *2905:A *3015:S 8.35118e-05
11 *2905:C *3015:S 0.000227078
12 *2905:C *447:12 5.94099e-05
13 *2905:D_N *447:12 3.5678e-06
14 *3058:A *447:12 0
15 *202:8 *3015:S 0.0001735
16 *317:66 *3015:S 5.94035e-05
17 *317:66 *447:12 1.08758e-05
18 *317:72 *3015:S 2.21074e-05
19 *352:34 *447:12 0.000171205
*RES
1 *3012:X *447:12 9.685 
2 *447:12 *3015:S 11.96 
3 *447:12 *3013:S 1.6 
*END

*D_NET *448 0.000451488
*CONN
*I *3014:A I *D sky130_fd_sc_hd__clkbuf_1
*I *3013:X O *D sky130_fd_sc_hd__mux2_1
*CAP
1 *3014:A 0.000154292
2 *3013:X 0.000154292
3 *3190:D *3014:A 2.68526e-05
4 *370:54 *3014:A 8.7152e-06
5 *370:64 *3014:A 4.60061e-05
6 *370:82 *3014:A 6.13304e-05
7 *432:29 *3014:A 0
*RES
1 *3013:X *3014:A 9.825 
*END

*D_NET *449 0.000712919
*CONN
*I *3016:A I *D sky130_fd_sc_hd__clkbuf_1
*I *3015:X O *D sky130_fd_sc_hd__mux2_1
*CAP
1 *3016:A 0.000154296
2 *3015:X 0.000154296
3 *3015:A0 *3016:A 0.00015631
4 *3191:D *3016:A 4.05358e-05
5 *183:56 *3016:A 0
6 *321:28 *3016:A 0.000159189
7 *376:14 *3016:A 4.82919e-05
*RES
1 *3015:X *3016:A 11.07 
*END

*D_NET *450 0.00148197
*CONN
*I *3018:S I *D sky130_fd_sc_hd__mux2_1
*I *3020:S I *D sky130_fd_sc_hd__mux2_1
*I *3017:Y O *D sky130_fd_sc_hd__nor2_1
*CAP
1 *3018:S 0
2 *3020:S 0.000230577
3 *3017:Y 0.000206832
4 *450:6 0.000437409
5 *3020:S *869:8 0
6 *450:6 *3394:A 0.000303285
7 *450:6 *474:49 4.17267e-05
8 *2718:B1 *3020:S 5.06196e-05
9 *285:16 *3020:S 0
10 *445:70 *3020:S 0.000150844
11 *445:89 *3020:S 6.06745e-05
*RES
1 *3017:Y *450:6 5.5 
2 *450:6 *3020:S 9.785 
3 *450:6 *3018:S 1.6 
*END

*D_NET *451 0.000400908
*CONN
*I *3019:A I *D sky130_fd_sc_hd__clkbuf_1
*I *3018:X O *D sky130_fd_sc_hd__mux2_1
*CAP
1 *3019:A 7.58982e-05
2 *3018:X 7.58982e-05
3 *3019:A *3394:A 1.22325e-05
4 *3019:A *474:49 0.000139373
5 *3018:A1 *3019:A 9.75063e-05
*RES
1 *3018:X *3019:A 5.99 
*END

*D_NET *452 0.000688949
*CONN
*I *3021:A I *D sky130_fd_sc_hd__clkbuf_1
*I *3020:X O *D sky130_fd_sc_hd__mux2_1
*CAP
1 *3021:A 0.000189807
2 *3020:X 0.000189807
3 *3085:A *3021:A 0.000309336
*RES
1 *3020:X *3021:A 6.785 
*END

*D_NET *453 0.00152553
*CONN
*I *3023:S I *D sky130_fd_sc_hd__mux2_1
*I *3025:S I *D sky130_fd_sc_hd__mux2_1
*I *3022:Y O *D sky130_fd_sc_hd__nor2_1
*CAP
1 *3023:S 4.5486e-05
2 *3025:S 6.40233e-05
3 *3022:Y 0.000299299
4 *453:12 0.000408808
5 *3023:S *3031:A 4.77769e-05
6 *3023:S *604:53 8.35783e-05
7 *3023:S *863:10 8.06779e-05
8 *3025:S *3023:A0 5.72287e-05
9 *3025:S *3024:A 0.000135884
10 *453:12 *3033:A1 0.000113891
11 *453:12 *459:10 0
12 *453:12 *604:53 9.13235e-05
13 *453:12 *863:10 5.09431e-05
14 *442:119 *3023:S 4.66108e-05
15 *445:89 *453:12 0
*RES
1 *3022:Y *453:12 11.27 
2 *453:12 *3025:S 7.49 
3 *453:12 *3023:S 3.43 
*END

*D_NET *454 0.00146801
*CONN
*I *3024:A I *D sky130_fd_sc_hd__clkbuf_1
*I *3023:X O *D sky130_fd_sc_hd__mux2_1
*CAP
1 *3024:A 0.000600283
2 *3023:X 0.000600283
3 *3024:A *3023:A0 0
4 *3024:A *3026:A 0
5 *3024:A *3434:A 0.000116158
6 *3025:S *3024:A 0.000135884
7 *3195:D *3024:A 1.54049e-05
*RES
1 *3023:X *3024:A 15.915 
*END

*D_NET *455 0.000633178
*CONN
*I *3026:A I *D sky130_fd_sc_hd__clkbuf_1
*I *3025:X O *D sky130_fd_sc_hd__mux2_1
*CAP
1 *3026:A 0.00026661
2 *3025:X 0.00026661
3 *3026:A *3025:A0 0
4 *3026:A *3195:CLK 0
5 *3026:A *3434:A 0
6 *3026:A *867:10 1.7386e-05
7 *3024:A *3026:A 0
8 *3195:D *3026:A 7.89767e-05
9 *445:89 *3026:A 3.59538e-06
*RES
1 *3025:X *3026:A 11.67 
*END

*D_NET *456 0.00150247
*CONN
*I *3028:S I *D sky130_fd_sc_hd__mux2_1
*I *3030:S I *D sky130_fd_sc_hd__mux2_1
*I *3027:Y O *D sky130_fd_sc_hd__nor2_1
*CAP
1 *3028:S 0.000128997
2 *3030:S 0
3 *3027:Y 0.000362651
4 *456:10 0.000491649
5 *3028:S *3030:A0 2.43441e-05
6 *456:10 *2764:A1 0.000184265
7 *456:10 *3030:A0 2.98644e-05
8 *456:10 *604:40 0
9 *2730:A2 *456:10 7.23533e-05
10 *3028:A1 *3028:S 0.000110492
11 *421:20 *456:10 4.89295e-05
12 *421:22 *456:10 4.89295e-05
*RES
1 *3027:Y *456:10 10.11 
2 *456:10 *3030:S 3.6 
3 *456:10 *3028:S 6.045 
*END

*D_NET *457 0.00114401
*CONN
*I *3029:A I *D sky130_fd_sc_hd__clkbuf_1
*I *3028:X O *D sky130_fd_sc_hd__mux2_1
*CAP
1 *3029:A 0.000305023
2 *3028:X 0.000305023
3 *3029:A *2764:A1 0
4 *3029:A *2764:B2 7.23533e-05
5 *3029:A *3196:CLK 8.23457e-05
6 *3029:A *3320:A 0
7 *3029:A *3458:A 0.000252977
8 *3029:A *604:98 2.49909e-05
9 *3029:A *604:126 4.8854e-05
10 *3196:D *3029:A 4.66108e-05
11 *3197:D *3029:A 5.83121e-06
*RES
1 *3028:X *3029:A 13.155 
*END

*D_NET *458 0.00220722
*CONN
*I *3031:A I *D sky130_fd_sc_hd__clkbuf_1
*I *3030:X O *D sky130_fd_sc_hd__mux2_1
*CAP
1 *3031:A 0.000428544
2 *3030:X 0.000428544
3 *3031:A *2692:A1 3.94233e-05
4 *3031:A *3023:A0 0.000533595
5 *3031:A *3025:A0 8.08153e-06
6 *3031:A *3197:CLK 3.59272e-05
7 *3031:A *604:53 0.000264598
8 *3031:A *604:98 0
9 *2692:B1 *3031:A 2.03321e-05
10 *3023:S *3031:A 4.77769e-05
11 *3197:D *3031:A 0.00016925
12 *442:119 *3031:A 0.000141885
13 *445:106 *3031:A 8.9257e-05
*RES
1 *3030:X *3031:A 18.9 
*END

*D_NET *459 0.000879874
*CONN
*I *3035:S I *D sky130_fd_sc_hd__mux2_1
*I *3033:S I *D sky130_fd_sc_hd__mux2_1
*I *3032:X O *D sky130_fd_sc_hd__or2_1
*CAP
1 *3035:S 2.15726e-05
2 *3033:S 3.40889e-05
3 *3032:X 0.000115464
4 *459:10 0.000171125
5 *3022:B *459:10 0.00011852
6 *430:95 *3035:S 5.83121e-06
7 *430:95 *459:10 0.000292241
8 *432:133 *3033:S 8.52972e-05
9 *432:133 *3035:S 3.57349e-05
10 *445:89 *459:10 0
11 *453:12 *459:10 0
*RES
1 *3032:X *459:10 9.02 
2 *459:10 *3033:S 2.395 
3 *459:10 *3035:S 2.05 
*END

*D_NET *460 0.000195152
*CONN
*I *3034:A I *D sky130_fd_sc_hd__clkbuf_1
*I *3033:X O *D sky130_fd_sc_hd__mux2_1
*CAP
1 *3034:A 8.50805e-05
2 *3033:X 8.50805e-05
3 *432:139 *3034:A 2.49909e-05
*RES
1 *3033:X *3034:A 4.61 
*END

*D_NET *461 0.000588038
*CONN
*I *3036:A I *D sky130_fd_sc_hd__clkbuf_1
*I *3035:X O *D sky130_fd_sc_hd__mux2_1
*CAP
1 *3036:A 9.35576e-05
2 *3035:X 9.35576e-05
3 *3036:A *2764:B2 0.000136572
4 *3036:A *3427:A 1.16578e-05
5 *2692:B1 *3036:A 0.000105209
6 *3199:D *3036:A 7.1624e-05
7 *181:134 *3036:A 7.58604e-05
*RES
1 *3035:X *3036:A 9.975 
*END

*D_NET *462 0.00162044
*CONN
*I *3038:S I *D sky130_fd_sc_hd__mux2_1
*I *3040:S I *D sky130_fd_sc_hd__mux2_1
*I *3037:Y O *D sky130_fd_sc_hd__nor2_1
*CAP
1 *3038:S 0.000141665
2 *3040:S 8.77535e-05
3 *3037:Y 0.000212236
4 *462:10 0.000441655
5 *3038:S *3041:A 9.22206e-05
6 *3040:S *3336:A 9.12671e-06
7 *462:10 *3040:A0 2.41307e-05
8 *462:10 *861:14 8.61593e-05
9 *3038:A1 *3038:S 0.000305081
10 *3038:A1 *3040:S 0.000191572
11 *3040:A1 *3040:S 2.88357e-05
*RES
1 *3037:Y *462:10 9.02 
2 *462:10 *3040:S 3.79 
3 *462:10 *3038:S 5.17 
*END

*D_NET *463 0.00108405
*CONN
*I *3039:A I *D sky130_fd_sc_hd__clkbuf_1
*I *3038:X O *D sky130_fd_sc_hd__mux2_1
*CAP
1 *3039:A 0.000327384
2 *3038:X 0.000327384
3 *3039:A *3041:A 0
4 *3039:A *861:14 0.000265629
5 *3038:A1 *3039:A 8.46818e-05
6 *3200:D *3039:A 7.89767e-05
*RES
1 *3038:X *3039:A 13.965 
*END

*D_NET *464 0.00110224
*CONN
*I *3041:A I *D sky130_fd_sc_hd__clkbuf_1
*I *3040:X O *D sky130_fd_sc_hd__mux2_1
*CAP
1 *3041:A 0.000281646
2 *3040:X 0.000281646
3 *3041:A *3205:CLK 3.50033e-05
4 *3041:A *3461:A 0.00026906
5 *3041:A *861:14 7.97834e-05
6 *3038:S *3041:A 9.22206e-05
7 *3039:A *3041:A 0
8 *3201:D *3041:A 6.28843e-05
9 *3205:D *3041:A 0
*RES
1 *3040:X *3041:A 13.485 
*END

*D_NET *465 0.0022831
*CONN
*I *3043:S I *D sky130_fd_sc_hd__mux2_1
*I *3045:S I *D sky130_fd_sc_hd__mux2_1
*I *3042:X O *D sky130_fd_sc_hd__or2_1
*CAP
1 *3043:S 6.91373e-05
2 *3045:S 0
3 *3042:X 0.000294081
4 *465:12 0.000363218
5 *3043:S *3045:A1 0.000149604
6 *465:12 *2697:B2 7.3366e-05
7 *465:12 *2766:B2 0.000174631
8 *2697:B1 *465:12 4.04632e-05
9 *2766:B1 *465:12 0.000217486
10 *3043:A0 *3043:S 4.82919e-05
11 *3055:A0 *3043:S 0.000308719
12 *172:14 *465:12 0.000142686
13 *185:27 *465:12 0.000266177
14 *421:16 *465:12 4.82919e-05
15 *421:18 *465:12 4.82863e-05
16 *430:155 *465:12 3.86582e-05
*RES
1 *3042:X *465:12 13.895 
2 *465:12 *3045:S 1.6 
3 *465:12 *3043:S 4.465 
*END

*D_NET *466 0.00095664
*CONN
*I *3044:A I *D sky130_fd_sc_hd__clkbuf_1
*I *3043:X O *D sky130_fd_sc_hd__mux2_1
*CAP
1 *3044:A 0.000329096
2 *3043:X 0.000329096
3 *3044:A *2697:B2 0.000171316
4 *3044:A *3043:A1 0
5 *3044:A *3045:A1 8.65961e-05
6 *3202:D *3044:A 4.05358e-05
*RES
1 *3043:X *3044:A 13.455 
*END

*D_NET *467 0.000844345
*CONN
*I *3046:A I *D sky130_fd_sc_hd__clkbuf_1
*I *3045:X O *D sky130_fd_sc_hd__mux2_1
*CAP
1 *3046:A 0.000264007
2 *3045:X 0.000264007
3 *3046:A *2697:B2 0
4 *3046:A *2766:B2 0
5 *3046:A *3050:A1 9.54399e-05
6 *3046:A *3202:CLK 0.000149609
7 *3046:A *595:97 6.55328e-05
8 *2766:C1 *3046:A 5.74817e-06
*RES
1 *3045:X *3046:A 12.465 
*END

*D_NET *468 0.00225369
*CONN
*I *3050:S I *D sky130_fd_sc_hd__mux2_1
*I *3048:S I *D sky130_fd_sc_hd__mux2_1
*I *3047:X O *D sky130_fd_sc_hd__or2_1
*CAP
1 *3050:S 4.85838e-05
2 *3048:S 4.55423e-05
3 *3047:X 0.000466043
4 *468:12 0.000560169
5 *3050:S *3050:A1 2.88357e-05
6 *3050:S *595:97 4.70891e-05
7 *468:12 *595:97 8.33066e-06
8 *468:12 *678:12 2.87867e-05
9 *2765:A2 *468:12 0.000365284
10 *3050:A0 *3048:S 0.000160992
11 *3050:A0 *3050:S 9.39901e-06
12 *172:14 *468:12 0
13 *421:18 *468:12 0.000241483
14 *430:155 *3048:S 0.000233593
15 *430:155 *3050:S 9.56017e-06
16 *432:73 *468:12 0
*RES
1 *3047:X *468:12 13.49 
2 *468:12 *3048:S 3.775 
3 *468:12 *3050:S 3.115 
*END

*D_NET *469 0.000172321
*CONN
*I *3049:A I *D sky130_fd_sc_hd__clkbuf_1
*I *3048:X O *D sky130_fd_sc_hd__mux2_1
*CAP
1 *3049:A 8.61606e-05
2 *3048:X 8.61606e-05
*RES
1 *3048:X *3049:A 4.61 
*END

*D_NET *470 0.00160877
*CONN
*I *3051:A I *D sky130_fd_sc_hd__clkbuf_1
*I *3050:X O *D sky130_fd_sc_hd__mux2_1
*CAP
1 *3051:A 0.000210324
2 *3050:X 0.000210324
3 *2696:A2 *3051:A 0.000198945
4 *2765:A2 *3051:A 0.000108565
5 *2767:C1 *3051:A 0.000421056
6 *182:31 *3051:A 0.000150368
7 *432:73 *3051:A 0.000155501
8 *432:115 *3051:A 0.000153685
*RES
1 *3050:X *3051:A 14.775 
*END

*D_NET *471 0.00169586
*CONN
*I *3055:S I *D sky130_fd_sc_hd__mux2_1
*I *3053:S I *D sky130_fd_sc_hd__mux2_1
*I *3052:X O *D sky130_fd_sc_hd__or2_1
*CAP
1 *3055:S 0.000128814
2 *3053:S 3.93764e-05
3 *3052:X 0.000415749
4 *471:10 0.00058394
5 *3053:S *2766:A1 1.08758e-05
6 *3053:S *3433:A 6.22905e-05
7 *3055:S *3055:A1 1.77595e-05
8 *3055:S *3446:A 0.000149842
9 *471:10 *3446:A 0.000133085
10 *3042:A *471:10 5.03424e-05
11 *3053:A0 *3053:S 4.46433e-05
12 *3053:A0 *471:10 5.91372e-05
*RES
1 *3052:X *471:10 10.455 
2 *471:10 *3053:S 4.74 
3 *471:10 *3055:S 5.94 
*END

*D_NET *472 0.000319177
*CONN
*I *3054:A I *D sky130_fd_sc_hd__clkbuf_1
*I *3053:X O *D sky130_fd_sc_hd__mux2_1
*CAP
1 *3054:A 0.00010144
2 *3053:X 0.00010144
3 *3054:A *607:12 7.736e-05
4 *3206:D *3054:A 3.89366e-05
*RES
1 *3053:X *3054:A 9.285 
*END

*D_NET *473 0.000663753
*CONN
*I *3056:A I *D sky130_fd_sc_hd__clkbuf_1
*I *3055:X O *D sky130_fd_sc_hd__mux2_1
*CAP
1 *3056:A 0.000244914
2 *3055:X 0.000244914
3 *3056:A *595:82 0.000122817
4 *3053:A0 *3056:A 5.11067e-05
*RES
1 *3055:X *3056:A 11.76 
*END

*D_NET *474 0.014439
*CONN
*I *3065:B I *D sky130_fd_sc_hd__or2_1
*I *3058:B I *D sky130_fd_sc_hd__or2_1
*I *3095:C I *D sky130_fd_sc_hd__or3_1
*I *3075:B I *D sky130_fd_sc_hd__or2_1
*I *3085:B I *D sky130_fd_sc_hd__nor2_1
*I *3080:B I *D sky130_fd_sc_hd__nor2_1
*I *3070:B I *D sky130_fd_sc_hd__or2_1
*I *3090:B I *D sky130_fd_sc_hd__nor2_1
*I *3057:Y O *D sky130_fd_sc_hd__nand3b_4
*CAP
1 *3065:B 0.000120943
2 *3058:B 6.13792e-05
3 *3095:C 0
4 *3075:B 8.49113e-05
5 *3085:B 0.000199809
6 *3080:B 0
7 *3070:B 3.33308e-05
8 *3090:B 0.000211345
9 *3057:Y 0.00012784
10 *474:69 0.000362276
11 *474:53 4.61492e-05
12 *474:49 0.00198501
13 *474:33 0.00196207
14 *474:18 0.00105185
15 *474:12 0.00143434
16 *474:6 0.000848678
17 *3065:B *3067:A 0.000130664
18 *3070:B *489:8 0.000122155
19 *3085:B *3081:S 4.00541e-06
20 *3085:B *486:10 6.27347e-05
21 *3085:B *492:8 2.75145e-05
22 *3090:B *3096:A1 0.000235644
23 *3090:B *3400:A 0.000276686
24 *474:6 *3067:A 1.19928e-05
25 *474:6 *3210:CLK 6.07575e-06
26 *474:6 *775:57 1.32102e-05
27 *474:12 *2547:A 7.3775e-05
28 *474:12 *3067:A 4.82299e-05
29 *474:12 *3210:CLK 1.98144e-05
30 *474:12 *594:14 0.000188258
31 *474:18 *590:161 0.000487031
32 *474:18 *737:24 0
33 *474:49 *3018:A0 0.000199021
34 *474:49 *3394:A 0.000139137
35 *474:49 *498:10 2.01565e-05
36 *474:49 *590:222 3.01288e-05
37 *474:53 *489:8 2.05056e-05
38 *474:69 *483:18 6.71803e-06
39 *2777:A2 *474:49 0.000271099
40 *3018:A1 *474:49 0.000173602
41 *3019:A *474:49 0.000139373
42 *3058:A *3058:B 8.41384e-05
43 *3075:A *3075:B 4.92062e-05
44 *3080:A *474:49 0.000129772
45 *3080:A *474:69 7.9642e-06
46 *3085:A *3070:B 0.000122155
47 *3085:A *474:53 2.75145e-05
48 *3095:A *474:49 4.52301e-05
49 *3095:B *474:33 3.51395e-05
50 *3192:D *474:49 7.65181e-05
51 *202:52 *474:18 2.95959e-05
52 *218:42 *474:69 3.82728e-05
53 *218:80 *474:69 0.000116853
54 *317:72 *474:49 0.000126193
55 *345:16 *474:18 0.000232501
56 *352:34 *3058:B 4.71087e-05
57 *361:36 *3065:B 1.9291e-05
58 *361:36 *474:6 2.49909e-05
59 *370:64 *3058:B 7.07824e-05
60 *370:64 *474:12 1.7635e-05
61 *380:10 *3090:B 0.000168677
62 *380:10 *474:33 4.92205e-05
63 *380:22 *3090:B 4.55864e-06
64 *384:43 *3090:B 0.000276592
65 *384:43 *474:33 5.36921e-05
66 *395:26 *474:49 0.000512318
67 *403:49 *474:18 0.000219275
68 *411:10 *3058:B 3.79584e-05
69 *411:10 *474:12 9.68119e-05
70 *419:144 *474:18 0.000243341
71 *430:64 *474:49 0.000107314
72 *430:64 *474:69 8.91544e-05
73 *450:6 *474:49 4.17267e-05
*RES
1 *3057:Y *474:6 3.085 
2 *474:6 *474:12 10.5875 
3 *474:12 *474:18 3.1356 
4 *474:18 *3090:B 10.7175 
5 *474:18 *474:33 3.7025 
6 *474:33 *474:49 33.41 
7 *474:49 *474:53 2.45 
8 *474:53 *3070:B 3.43 
9 *474:53 *3080:B 1.6 
10 *474:49 *474:69 4.145 
11 *474:69 *3085:B 4.825 
12 *474:69 *3075:B 3.1 
13 *474:33 *3095:C 1.6 
14 *474:12 *3058:B 5.3925 
15 *474:6 *3065:B 8 
*END

*D_NET *475 0.000327412
*CONN
*I *3059:A I *D sky130_fd_sc_hd__buf_2
*I *3058:X O *D sky130_fd_sc_hd__or2_1
*CAP
1 *3059:A 6.31314e-05
2 *3058:X 6.31314e-05
3 *3059:A *3299:A 1.88602e-05
4 *3059:A *677:20 0.000112153
5 *3059:A *715:20 7.01359e-05
6 *355:10 *3059:A 0
*RES
1 *3058:X *3059:A 8.58 
*END

*D_NET *476 0.0180493
*CONN
*I *3132:B I *D sky130_fd_sc_hd__or2_1
*I *2550:B I *D sky130_fd_sc_hd__or2_1
*I *3111:B I *D sky130_fd_sc_hd__nor2_1
*I *3101:B I *D sky130_fd_sc_hd__nor2_1
*I *3060:B I *D sky130_fd_sc_hd__nor2_1
*I *3117:B I *D sky130_fd_sc_hd__or2_1
*I *3127:B I *D sky130_fd_sc_hd__or2_1
*I *3106:B I *D sky130_fd_sc_hd__nor2_1
*I *3122:B I *D sky130_fd_sc_hd__nor2_1
*I *3059:X O *D sky130_fd_sc_hd__buf_2
*CAP
1 *3132:B 0
2 *2550:B 0.00013478
3 *3111:B 0
4 *3101:B 0
5 *3060:B 0.000386698
6 *3117:B 0.00045349
7 *3127:B 3.08203e-05
8 *3106:B 0
9 *3122:B 0.000218434
10 *3059:X 0.000367669
11 *476:125 0.000195428
12 *476:98 0.00112481
13 *476:75 0.00119161
14 *476:66 0.000434398
15 *476:56 0.00143111
16 *476:31 0.00193935
17 *476:14 0.00124518
18 *476:12 0.000543246
19 *2550:B *3133:A0 0.000108458
20 *3060:B *3083:S 4.82863e-05
21 *3060:B *3102:S 2.98587e-05
22 *3117:B *2711:A 0.000107912
23 *3117:B *2773:A 0.000105339
24 *3117:B *3413:A 3.98213e-05
25 *3122:B *2548:S 8.53113e-06
26 *3122:B *619:14 0.000108031
27 *476:12 *3133:A1 0.000241701
28 *476:12 *715:20 0.000145127
29 *476:14 *2548:S 0.000308125
30 *476:14 *521:10 4.17653e-05
31 *476:31 *2553:A0 4.66108e-05
32 *476:31 *500:139 9.77147e-05
33 *476:31 *505:6 1.08758e-05
34 *476:31 *832:10 9.03508e-06
35 *476:56 *3384:A 2.56752e-06
36 *476:56 *3428:A 9.17261e-05
37 *476:56 *505:6 7.67415e-06
38 *476:56 *508:6 4.82863e-05
39 *476:56 *832:10 0.000200946
40 *476:66 *3113:A 0.00015921
41 *476:66 *3114:A0 0.00015639
42 *476:66 *508:6 8.65961e-05
43 *476:98 *2711:A 2.0851e-06
44 *476:98 *2711:B 0
45 *476:98 *2773:A 0.000126524
46 *476:98 *3102:S 2.69153e-05
47 *476:98 *3389:A 4.77807e-05
48 *476:125 *3133:A0 9.68963e-05
49 *476:125 *521:10 8.41384e-05
50 *2709:B1 *476:12 8.87378e-05
51 *2711:C *476:66 7.49429e-05
52 *2711:C *476:98 0
53 *2713:D *476:56 0.00045009
54 *2753:C *3122:B 0.000157363
55 *2761:A *476:31 6.71882e-05
56 *2769:B *476:31 3.83194e-05
57 *2769:C *476:56 1.70906e-05
58 *2770:C1 *476:56 8.52883e-05
59 *2777:B1 *3127:B 8.41307e-05
60 *2777:B1 *476:56 1.74678e-05
61 *2777:B1 *476:66 0.000244594
62 *2800:B1 *476:56 0
63 *2989:A *2550:B 2.20728e-05
64 *3060:A *3060:B 2.99518e-06
65 *3065:A *2550:B 8.35157e-05
66 *3088:A1 *3060:B 7.13883e-05
67 *3101:A *476:98 0.000155981
68 *3102:A1 *3060:B 7.21262e-05
69 *3102:A1 *476:98 3.84795e-05
70 *3106:A *476:31 0.000192125
71 *3117:A *3117:B 0.000339749
72 *3125:A1 *3122:B 8.23457e-05
73 *3132:A *2550:B 6.06053e-05
74 *3132:A *476:125 8.64599e-05
75 *3226:D *476:56 9.87571e-05
76 *3228:D *3127:B 4.77757e-05
77 *192:22 *3122:B 0.000232116
78 *192:22 *476:31 0.000365272
79 *192:26 *476:31 0.00105536
80 *197:128 *3060:B 0
81 *202:77 *476:98 0.000116522
82 *212:20 *476:12 1.30872e-05
83 *212:20 *476:14 7.27704e-06
84 *218:108 *3122:B 0.000181383
85 *218:108 *476:12 3.73007e-05
86 *218:108 *476:14 0.000356043
87 *285:16 *476:98 0
88 *345:30 *476:98 1.88656e-05
89 *355:38 *2550:B 0.000233565
90 *358:96 *476:66 1.91597e-05
91 *358:114 *476:56 2.70236e-05
92 *430:64 *3117:B 0
93 *430:64 *476:98 0
94 *432:14 *2550:B 0.000243065
95 *432:14 *476:125 0.000171756
96 *442:58 *3060:B 0
*RES
1 *3059:X *476:12 10.935 
2 *476:12 *476:14 4.44 
3 *476:14 *3122:B 9.3 
4 *476:14 *476:31 20.405 
5 *476:31 *3106:B 1.6 
6 *476:31 *476:56 18.52 
7 *476:56 *476:66 7.5 
8 *476:66 *3127:B 2.395 
9 *476:66 *476:75 2 
10 *476:75 *3117:B 11.61 
11 *476:75 *476:98 14.165 
12 *476:98 *3060:B 12.53 
13 *476:98 *3101:B 1.6 
14 *476:56 *3111:B 1.6 
15 *476:12 *476:125 4.52 
16 *476:125 *2550:B 6.58 
17 *476:125 *3132:B 1.6 
*END

*D_NET *477 0.00268036
*CONN
*I *3061:S I *D sky130_fd_sc_hd__mux2_1
*I *3063:S I *D sky130_fd_sc_hd__mux2_1
*I *3060:Y O *D sky130_fd_sc_hd__nor2_1
*CAP
1 *3061:S 0.000116491
2 *3063:S 6.69324e-05
3 *3060:Y 0.000517051
4 *477:8 0.000700474
5 *3061:S *2794:A1 0
6 *3061:S *3061:A0 5.05437e-05
7 *3061:S *3420:A 6.35448e-05
8 *3061:S *852:10 8.65905e-05
9 *3063:S *853:10 0.000160635
10 *477:8 *2742:B2 5.42473e-05
11 *477:8 *2794:A1 0
12 *477:8 *3081:S 0
13 *477:8 *3086:S 0.000127373
14 *477:8 *3087:A 0.000139245
15 *477:8 *3088:S 0.000182349
16 *477:8 *3089:A 0
17 *477:8 *602:86 0
18 *3088:A1 *477:8 2.66935e-05
19 *197:128 *477:8 0
20 *442:64 *477:8 8.52172e-05
21 *442:77 *3061:S 7.26551e-05
22 *442:77 *477:8 0.000230315
*RES
1 *3060:Y *477:8 15.18 
2 *477:8 *3063:S 5.085 
3 *477:8 *3061:S 6.795 
*END

*D_NET *478 0.00079913
*CONN
*I *3062:A I *D sky130_fd_sc_hd__clkbuf_1
*I *3061:X O *D sky130_fd_sc_hd__mux2_1
*CAP
1 *3062:A 0.000364794
2 *3061:X 0.000364794
3 *3062:A *3063:A0 6.95421e-05
*RES
1 *3061:X *3062:A 12.735 
*END

*D_NET *479 0.000748116
*CONN
*I *3064:A I *D sky130_fd_sc_hd__clkbuf_1
*I *3063:X O *D sky130_fd_sc_hd__mux2_1
*CAP
1 *3064:A 0.000337044
2 *3063:X 0.000337044
3 *3063:A1 *3064:A 7.4027e-05
4 *442:77 *3064:A 0
*RES
1 *3063:X *3064:A 12.495 
*END

*D_NET *480 0.000993595
*CONN
*I *3068:S I *D sky130_fd_sc_hd__mux2_1
*I *3066:S I *D sky130_fd_sc_hd__mux2_1
*I *3065:X O *D sky130_fd_sc_hd__or2_1
*CAP
1 *3068:S 6.01523e-05
2 *3066:S 0
3 *3065:X 0.000230561
4 *480:14 0.000290714
5 *3068:S *3066:A1 0.000153217
6 *480:14 *3066:A1 4.82919e-05
7 *480:14 *3067:A 1.83847e-05
8 *480:14 *3314:A 7.28318e-05
9 *3066:A0 *480:14 4.66108e-05
10 *407:14 *480:14 7.28318e-05
*RES
1 *3065:X *480:14 9.605 
2 *480:14 *3066:S 1.6 
3 *480:14 *3068:S 3.085 
*END

*D_NET *481 0.00162069
*CONN
*I *3067:A I *D sky130_fd_sc_hd__clkbuf_1
*I *3066:X O *D sky130_fd_sc_hd__mux2_1
*CAP
1 *3067:A 0.000340807
2 *3066:X 0.000340807
3 *3067:A *3133:A0 0.000180048
4 *3067:A *3210:CLK 0.000158532
5 *3067:A *775:61 0.000391228
6 *2989:A *3067:A 0
7 *3065:B *3067:A 0.000130664
8 *474:6 *3067:A 1.19928e-05
9 *474:12 *3067:A 4.82299e-05
10 *480:14 *3067:A 1.83847e-05
*RES
1 *3066:X *3067:A 14.865 
*END

*D_NET *482 0.000720276
*CONN
*I *3069:A I *D sky130_fd_sc_hd__clkbuf_1
*I *3068:X O *D sky130_fd_sc_hd__mux2_1
*CAP
1 *3069:A 0.000236525
2 *3068:X 0.000236525
3 *3069:A *3068:A1 4.99619e-05
4 *3069:A *3376:A 0.000197264
*RES
1 *3068:X *3069:A 7.13 
*END

*D_NET *483 0.00404609
*CONN
*I *3073:S I *D sky130_fd_sc_hd__mux2_1
*I *3071:S I *D sky130_fd_sc_hd__mux2_1
*I *3070:X O *D sky130_fd_sc_hd__or2_1
*CAP
1 *3073:S 5.1356e-05
2 *3071:S 0
3 *3070:X 0.000901131
4 *483:18 0.000952487
5 *3073:S *3324:A 0.000352161
6 *483:18 *2792:B2 0.00047741
7 *483:18 *2793:A1 0
8 *483:18 *3073:A1 0
9 *483:18 *3077:A 0.000307354
10 *483:18 *3078:S 1.94351e-05
11 *483:18 *486:10 0.0001077
12 *3071:A0 *3073:S 0.000352161
13 *3073:A0 *483:18 0
14 *3085:A *483:18 0
15 *218:42 *483:18 4.17687e-05
16 *218:80 *483:18 0.000258775
17 *430:64 *483:18 0.000198031
18 *430:184 *483:18 1.96072e-05
19 *474:69 *483:18 6.71803e-06
*RES
1 *3070:X *483:18 24.17 
2 *483:18 *3071:S 1.6 
3 *483:18 *3073:S 4.81 
*END

*D_NET *484 0.00124492
*CONN
*I *3072:A I *D sky130_fd_sc_hd__clkbuf_1
*I *3071:X O *D sky130_fd_sc_hd__mux2_1
*CAP
1 *3072:A 0.000446765
2 *3071:X 0.000446765
3 *3072:A *2741:A1 0.000163204
4 *3072:A *3212:CLK 9.92913e-05
5 *3072:A *3324:A 4.99619e-05
6 *3212:D *3072:A 3.89366e-05
*RES
1 *3071:X *3072:A 13.425 
*END

*D_NET *485 0.00176842
*CONN
*I *3074:A I *D sky130_fd_sc_hd__clkbuf_1
*I *3073:X O *D sky130_fd_sc_hd__mux2_1
*CAP
1 *3074:A 0.000704226
2 *3073:X 0.000704226
3 *3074:A *2792:B2 2.23253e-05
4 *3074:A *3213:CLK 1.79098e-05
5 *3074:A *3324:A 0.000277223
6 *3213:D *3074:A 4.25081e-05
*RES
1 *3073:X *3074:A 16.395 
*END

*D_NET *486 0.00216935
*CONN
*I *3078:S I *D sky130_fd_sc_hd__mux2_1
*I *3076:S I *D sky130_fd_sc_hd__mux2_1
*I *3075:X O *D sky130_fd_sc_hd__or2_1
*CAP
1 *3078:S 0.000347987
2 *3076:S 0
3 *3075:X 0.000284975
4 *486:10 0.000632962
5 *3078:S *2792:A1 7.81876e-05
6 *3078:S *2792:B2 0.000162318
7 *3078:S *3077:A 0
8 *3078:S *3078:A1 2.7919e-05
9 *3078:S *602:86 0
10 *3078:S *602:101 0
11 *486:10 *2793:A1 5.13155e-05
12 *2743:B1 *3078:S 0.000245199
13 *2793:A2 *486:10 2.88519e-05
14 *2794:C1 *3078:S 0
15 *2794:C1 *486:10 0
16 *3085:B *486:10 6.27347e-05
17 *442:108 *3078:S 0.000119762
18 *483:18 *3078:S 1.94351e-05
19 *483:18 *486:10 0.0001077
*RES
1 *3075:X *486:10 8.505 
2 *486:10 *3076:S 3.6 
3 *486:10 *3078:S 11.325 
*END

*D_NET *487 0.00110099
*CONN
*I *3077:A I *D sky130_fd_sc_hd__clkbuf_1
*I *3076:X O *D sky130_fd_sc_hd__mux2_1
*CAP
1 *3077:A 0.000210618
2 *3076:X 0.000210618
3 *3077:A *2792:B2 4.18603e-06
4 *3077:A *3076:A1 0.000245886
5 *2743:B1 *3077:A 0.000122331
6 *3078:S *3077:A 0
7 *483:18 *3077:A 0.000307354
*RES
1 *3076:X *3077:A 12.015 
*END

*D_NET *488 0.000172388
*CONN
*I *3079:A I *D sky130_fd_sc_hd__clkbuf_1
*I *3078:X O *D sky130_fd_sc_hd__mux2_1
*CAP
1 *3079:A 3.60696e-05
2 *3078:X 3.60696e-05
3 *442:108 *3079:A 0.000100249
*RES
1 *3078:X *3079:A 4.265 
*END

*D_NET *489 0.00311061
*CONN
*I *3081:S I *D sky130_fd_sc_hd__mux2_1
*I *3083:S I *D sky130_fd_sc_hd__mux2_1
*I *3080:Y O *D sky130_fd_sc_hd__nor2_1
*CAP
1 *3081:S 0.000228568
2 *3083:S 0.000264677
3 *3080:Y 0.000402759
4 *489:8 0.000896005
5 *3081:S *3088:S 0
6 *3081:S *492:8 1.19928e-05
7 *3081:S *841:12 8.53113e-06
8 *3083:S *3307:A 8.49205e-05
9 *489:8 *2793:A1 3.23663e-05
10 *489:8 *602:14 9.02174e-05
11 *489:8 *840:16 3.09179e-05
12 *3060:B *3083:S 4.82863e-05
13 *3070:B *489:8 0.000122155
14 *3085:B *3081:S 4.00541e-06
15 *3088:A1 *3083:S 7.00054e-05
16 *442:58 *3081:S 7.97252e-05
17 *442:58 *3083:S 4.71151e-05
18 *442:64 *3081:S 0.000123225
19 *445:23 *3083:S 4.47209e-05
20 *445:42 *3083:S 0.000499914
21 *474:53 *489:8 2.05056e-05
22 *477:8 *3081:S 0
*RES
1 *3080:Y *489:8 8.88 
2 *489:8 *3083:S 10.515 
3 *489:8 *3081:S 7.845 
*END

*D_NET *490 0.00238548
*CONN
*I *3082:A I *D sky130_fd_sc_hd__clkbuf_1
*I *3081:X O *D sky130_fd_sc_hd__mux2_1
*CAP
1 *3082:A 0.000838648
2 *3081:X 0.000838648
3 *3082:A *3083:A0 0.000103192
4 *3082:A *3219:CLK 0.000128189
5 *3082:A *492:8 8.65961e-05
6 *3082:A *602:14 5.69873e-05
7 *3218:D *3082:A 0.000231423
8 *197:128 *3082:A 6.16235e-05
9 *442:64 *3082:A 4.01778e-05
*RES
1 *3081:X *3082:A 19.26 
*END

*D_NET *491 0.00189265
*CONN
*I *3084:A I *D sky130_fd_sc_hd__clkbuf_1
*I *3083:X O *D sky130_fd_sc_hd__mux2_1
*CAP
1 *3084:A 0.000747979
2 *3083:X 0.000747979
3 *3084:A *602:53 6.6925e-05
4 *3084:A *602:59 1.83847e-05
5 *3063:A1 *3084:A 0
6 *3216:D *3084:A 5.72004e-05
7 *3217:D *3084:A 1.33293e-05
8 *3219:D *3084:A 0.000240852
*RES
1 *3083:X *3084:A 18.645 
*END

*D_NET *492 0.00218095
*CONN
*I *3086:S I *D sky130_fd_sc_hd__mux2_1
*I *3088:S I *D sky130_fd_sc_hd__mux2_1
*I *3085:Y O *D sky130_fd_sc_hd__nor2_1
*CAP
1 *3086:S 0.000153162
2 *3088:S 0.000101208
3 *3085:Y 0.000196593
4 *492:8 0.000450963
5 *3086:S *2793:B2 0.000193801
6 *3086:S *3086:A0 6.1357e-05
7 *3086:S *602:86 0
8 *3086:S *841:12 3.18219e-05
9 *3086:S *842:8 3.00483e-05
10 *3088:S *602:14 4.99619e-05
11 *3088:S *840:16 8.12945e-05
12 *3088:S *841:12 2.75707e-05
13 *492:8 *3081:A0 0.000124007
14 *3081:S *3088:S 0
15 *3081:S *492:8 1.19928e-05
16 *3082:A *492:8 8.65961e-05
17 *3085:B *492:8 2.75145e-05
18 *3086:A1 *3086:S 8.40213e-05
19 *442:64 *492:8 0.000159313
20 *477:8 *3086:S 0.000127373
21 *477:8 *3088:S 0.000182349
*RES
1 *3085:Y *492:8 7.845 
2 *492:8 *3088:S 6.555 
3 *492:8 *3086:S 7.77 
*END

*D_NET *493 0.000529867
*CONN
*I *3087:A I *D sky130_fd_sc_hd__clkbuf_1
*I *3086:X O *D sky130_fd_sc_hd__mux2_1
*CAP
1 *3087:A 0.000100252
2 *3086:X 0.000100252
3 *3087:A *2793:B2 4.92062e-05
4 *442:77 *3087:A 0.000140912
5 *477:8 *3087:A 0.000139245
*RES
1 *3086:X *3087:A 9.63 
*END

*D_NET *494 0.00195746
*CONN
*I *3089:A I *D sky130_fd_sc_hd__clkbuf_1
*I *3088:X O *D sky130_fd_sc_hd__mux2_1
*CAP
1 *3089:A 0.000400102
2 *3088:X 0.000400102
3 *3089:A *3341:A 0.000184717
4 *3089:A *843:18 0.00026893
5 *3218:D *3089:A 8.15676e-05
6 *197:128 *3089:A 0.00060258
7 *442:64 *3089:A 1.94636e-05
8 *477:8 *3089:A 0
*RES
1 *3088:X *3089:A 17.505 
*END

*D_NET *495 0.00315212
*CONN
*I *3091:S I *D sky130_fd_sc_hd__mux2_1
*I *3093:S I *D sky130_fd_sc_hd__mux2_1
*I *3090:Y O *D sky130_fd_sc_hd__nor2_1
*CAP
1 *3091:S 0.000690236
2 *3093:S 6.92068e-05
3 *3090:Y 0.000150935
4 *495:8 0.000910378
5 *3091:S *3091:A0 0.000114886
6 *3091:S *3221:CLK 0.000120923
7 *3091:S *3382:A 0
8 *3091:S *838:6 1.08758e-05
9 *3093:S *3093:A0 0.000115464
10 *3093:S *3325:A 0.000182349
11 *495:8 *3325:A 0.000154488
12 *3091:A1 *3091:S 4.82863e-05
13 *3221:D *3091:S 4.82319e-06
14 *380:22 *495:8 0.000290183
15 *384:43 *3093:S 3.50033e-05
16 *384:43 *495:8 0.000254085
*RES
1 *3090:Y *495:8 9.06 
2 *495:8 *3093:S 5.745 
3 *495:8 *3091:S 13.095 
*END

*D_NET *496 0.000420246
*CONN
*I *3092:A I *D sky130_fd_sc_hd__clkbuf_1
*I *3091:X O *D sky130_fd_sc_hd__mux2_1
*CAP
1 *3092:A 6.98119e-05
2 *3091:X 6.98119e-05
3 *3092:A *3091:A0 4.82919e-05
4 *376:84 *3092:A 0.000116165
5 *391:43 *3092:A 0.000116165
*RES
1 *3091:X *3092:A 9.03 
*END

*D_NET *497 0.000406845
*CONN
*I *3094:A I *D sky130_fd_sc_hd__clkbuf_1
*I *3093:X O *D sky130_fd_sc_hd__mux2_1
*CAP
1 *3094:A 0.000101081
2 *3093:X 0.000101081
3 *2800:A1 *3094:A 4.66108e-05
4 *3093:A1 *3094:A 0.000158072
*RES
1 *3093:X *3094:A 5.3 
*END

*D_NET *498 0.00161583
*CONN
*I *3099:S I *D sky130_fd_sc_hd__mux2_1
*I *3096:S I *D sky130_fd_sc_hd__mux2_1
*I *3095:X O *D sky130_fd_sc_hd__or3_1
*CAP
1 *3099:S 0
2 *3096:S 0.00024379
3 *3095:X 0.000108879
4 *498:10 0.000352669
5 *3096:S *3400:A 2.99101e-05
6 *3096:A0 *3096:S 8.35157e-05
7 *176:64 *3096:S 5.83121e-06
8 *183:56 *3096:S 0.000179623
9 *183:56 *498:10 6.80167e-05
10 *317:72 *498:10 4.77719e-05
11 *380:10 *3096:S 0.00034092
12 *380:10 *498:10 0.00013475
13 *474:49 *498:10 2.01565e-05
*RES
1 *3095:X *498:10 6.03 
2 *498:10 *3096:S 9.615 
3 *498:10 *3099:S 3.6 
*END

*D_NET *499 0.0013296
*CONN
*I *3097:A I *D sky130_fd_sc_hd__clkbuf_1
*I *3096:X O *D sky130_fd_sc_hd__mux2_1
*CAP
1 *3097:A 0.000192294
2 *3096:X 0.000192294
3 *3097:A *2703:A 0.000118081
4 *2703:C *3097:A 1.70906e-05
5 *2713:C *3097:A 0.000444055
6 *176:64 *3097:A 0.000122699
7 *176:70 *3097:A 0.000104149
8 *183:56 *3097:A 8.33066e-06
9 *208:18 *3097:A 6.09693e-05
10 *380:10 *3097:A 6.60474e-05
11 *380:22 *3097:A 3.59531e-06
*RES
1 *3096:X *3097:A 13.08 
*END

*D_NET *500 0.0261655
*CONN
*I *3099:A0 I *D sky130_fd_sc_hd__mux2_1
*I *2548:A0 I *D sky130_fd_sc_hd__mux2_1
*I *2553:A0 I *D sky130_fd_sc_hd__mux2_1
*I *3130:A0 I *D sky130_fd_sc_hd__mux2_1
*I *2585:A0 I *D sky130_fd_sc_hd__mux2_1
*I *2565:A0 I *D sky130_fd_sc_hd__mux2_1
*I *2560:A0 I *D sky130_fd_sc_hd__mux2_1
*I *2575:A0 I *D sky130_fd_sc_hd__mux2_1
*I *2570:A0 I *D sky130_fd_sc_hd__mux2_1
*I *3120:A0 I *D sky130_fd_sc_hd__mux2_1
*I *3098:X O *D sky130_fd_sc_hd__buf_2
*CAP
1 *3099:A0 0.000400007
2 *2548:A0 0
3 *2553:A0 0.000250372
4 *3130:A0 0.000266028
5 *2585:A0 2.67293e-05
6 *2565:A0 3.12395e-05
7 *2560:A0 2.32994e-05
8 *2575:A0 0.000501616
9 *2570:A0 6.3076e-05
10 *3120:A0 3.69588e-05
11 *3098:X 0.000220621
12 *500:139 0.00113345
13 *500:131 0.00369129
14 *500:54 0.000751436
15 *500:41 0.000560002
16 *500:37 0.000544087
17 *500:31 0.0010805
18 *500:21 0.00107736
19 *500:12 0.000308382
20 *500:10 0.00290025
21 *2553:A0 *2548:A1 3.83194e-05
22 *2553:A0 *2553:S 8.65961e-05
23 *2553:A0 *2753:A 0.000272389
24 *2560:A0 *2560:A1 8.52845e-05
25 *2560:A0 *2724:A1 0.000122797
26 *2560:A0 *511:55 1.88802e-05
27 *2565:A0 *2565:A1 5.83121e-06
28 *2570:A0 *2570:A1 4.82863e-05
29 *2570:A0 *812:8 1.03423e-05
30 *2575:A0 *2573:A0 0.000179662
31 *2575:A0 *2806:B2 1.67205e-05
32 *2575:A0 *511:55 7.63761e-05
33 *2575:A0 *816:8 1.42229e-05
34 *2585:A0 *2585:A1 5.83121e-06
35 *2585:A0 *806:10 2.49909e-05
36 *3099:A0 *2772:A1 3.62299e-05
37 *3099:A0 *726:26 0.000132453
38 *3120:A0 *601:42 4.66108e-05
39 *3130:A0 *2776:A1 2.97004e-06
40 *3130:A0 *3130:S 8.8266e-05
41 *3130:A0 *3224:CLK 2.50059e-05
42 *3130:A0 *518:10 0.000647222
43 *500:10 *3118:A1 3.86607e-05
44 *500:10 *3120:S 0
45 *500:10 *3128:A0 5.64213e-05
46 *500:10 *511:100 9.19415e-05
47 *500:12 *601:42 0.000418782
48 *500:31 *2585:S 4.66108e-05
49 *500:31 *2589:A 0
50 *500:31 *2591:A 1.94892e-05
51 *500:31 *2722:A1 0.000121643
52 *500:31 *3120:S 8.89751e-05
53 *500:31 *511:79 0.000291688
54 *500:31 *511:96 3.63206e-05
55 *500:31 *544:22 0.000259832
56 *500:31 *807:6 0.000307867
57 *500:37 *2563:A1 0.000158839
58 *500:37 *2565:S 0.000179077
59 *500:37 *2722:B2 0
60 *500:37 *511:66 8.52233e-05
61 *500:37 *511:79 0.000173207
62 *500:37 *532:18 1.10803e-05
63 *500:41 *2565:S 2.98587e-05
64 *500:41 *2568:S 7.47215e-05
65 *500:41 *2807:A1 0
66 *500:41 *3347:A 0
67 *500:41 *511:66 0.000340788
68 *500:41 *535:14 4.38051e-05
69 *500:54 *2570:A1 0.000121023
70 *500:54 *2806:B2 4.46271e-05
71 *500:54 *812:8 3.31348e-05
72 *500:131 *3227:CLK 0.000554604
73 *500:131 *601:42 0.000257869
74 *500:131 *601:55 8.23457e-05
75 *500:131 *748:14 0.000793403
76 *500:131 *831:6 0.000393202
77 *500:131 *832:10 5.49879e-05
78 *500:139 *2549:A 0.000305556
79 *2622:A *500:31 0
80 *2703:C *3099:A0 6.19092e-05
81 *2753:B *2553:A0 0.000148348
82 *2753:C *2553:A0 0.00025374
83 *2761:A *2553:A0 9.23485e-05
84 *2772:A2 *3099:A0 2.59627e-05
85 *3111:A *500:131 0.000233786
86 *3224:D *3130:A0 1.54049e-05
87 *3227:D *500:131 0.000123503
88 *3295:A *500:131 0
89 *177:10 *3099:A0 0.000162714
90 *177:10 *500:131 8.03844e-05
91 *177:100 *3099:A0 0.000134291
92 *181:34 *500:131 0.000106285
93 *192:22 *500:139 0.000359572
94 *192:26 *500:139 0.000529434
95 *197:128 *3130:A0 3.7729e-05
96 *197:134 *3130:A0 1.03592e-05
97 *197:134 *500:31 0.0011577
98 *365:22 *3099:A0 0.00064224
99 *365:22 *500:131 7.87176e-05
100 *395:57 *500:131 0.000103983
101 *442:16 *500:10 0.000295166
102 *476:31 *2553:A0 4.66108e-05
103 *476:31 *500:139 9.77147e-05
*RES
1 *3098:X *500:10 11.825 
2 *500:10 *500:12 3.9 
3 *500:12 *3120:A0 2.05 
4 *500:12 *500:21 2 
5 *500:21 *500:31 24.88 
6 *500:31 *500:37 6.525 
7 *500:37 *500:41 8.99 
8 *500:41 *2570:A0 2.395 
9 *500:41 *500:54 5.3 
10 *500:54 *2575:A0 12.165 
11 *500:54 *2560:A0 4.74 
12 *500:37 *2565:A0 4.05 
13 *500:31 *2585:A0 4.05 
14 *500:21 *3130:A0 10.695 
15 *500:10 *500:131 23.8283 
16 *500:131 *500:139 16.025 
17 *500:139 *2553:A0 8.62 
18 *500:139 *2548:A0 1.6 
19 *500:131 *3099:A0 13.095 
*END

*D_NET *501 0.000974847
*CONN
*I *3100:A I *D sky130_fd_sc_hd__clkbuf_1
*I *3099:X O *D sky130_fd_sc_hd__mux2_1
*CAP
1 *3100:A 0.000329928
2 *3099:X 0.000329928
3 *2778:B *3100:A 1.77665e-05
4 *177:100 *3100:A 0.000176608
5 *374:141 *3100:A 9.1224e-05
6 *391:37 *3100:A 2.9393e-05
*RES
1 *3099:X *3100:A 12.255 
*END

*D_NET *502 0.00105345
*CONN
*I *3102:S I *D sky130_fd_sc_hd__mux2_1
*I *3104:S I *D sky130_fd_sc_hd__mux2_1
*I *3101:Y O *D sky130_fd_sc_hd__nor2_1
*CAP
1 *3102:S 0.000117602
2 *3104:S 0.000141853
3 *3101:Y 0
4 *502:6 0.000259456
5 *3102:S *3104:A0 5.31158e-06
6 *3104:S *2714:A1 0.000135538
7 *3104:S *3104:A0 3.72081e-05
8 *3104:S *834:8 0.000235378
9 *3060:B *3102:S 2.98587e-05
10 *3102:A1 *3102:S 6.43243e-05
11 *476:98 *3102:S 2.69153e-05
*RES
1 *3101:Y *502:6 3.6 
2 *502:6 *3104:S 7.41 
3 *502:6 *3102:S 5.61 
*END

*D_NET *503 0.000330298
*CONN
*I *3103:A I *D sky130_fd_sc_hd__clkbuf_1
*I *3102:X O *D sky130_fd_sc_hd__mux2_1
*CAP
1 *3103:A 9.88529e-05
2 *3102:X 9.88529e-05
3 *3103:A *2776:A1 8.36629e-05
4 *3103:A *3105:A 4.89295e-05
*RES
1 *3102:X *3103:A 5.405 
*END

*D_NET *504 0.00119272
*CONN
*I *3105:A I *D sky130_fd_sc_hd__clkbuf_1
*I *3104:X O *D sky130_fd_sc_hd__mux2_1
*CAP
1 *3105:A 0.000266505
2 *3104:X 0.000266505
3 *3105:A *2714:A1 0.00019608
4 *3105:A *2776:A1 0.000343076
5 *3105:A *3102:A0 7.1624e-05
6 *3103:A *3105:A 4.89295e-05
*RES
1 *3104:X *3105:A 12.585 
*END

*D_NET *505 0.00168421
*CONN
*I *3107:S I *D sky130_fd_sc_hd__mux2_1
*I *3109:S I *D sky130_fd_sc_hd__mux2_1
*I *3106:Y O *D sky130_fd_sc_hd__nor2_1
*CAP
1 *3107:S 0.000225841
2 *3109:S 5.26588e-05
3 *3106:Y 0.000110683
4 *505:6 0.000389183
5 *3107:S *3107:A0 8.40269e-05
6 *3107:S *3112:A0 0
7 *3107:S *3428:A 0.000134098
8 *3109:S *832:10 2.49909e-05
9 *505:6 *832:10 0.000131079
10 *2769:B *505:6 0.000120655
11 *2800:B1 *3107:S 0
12 *3125:A1 *3107:S 0.0001914
13 *192:36 *3107:S 2.54522e-05
14 *350:83 *3107:S 0.000175593
15 *476:31 *505:6 1.08758e-05
16 *476:56 *505:6 7.67415e-06
*RES
1 *3106:Y *505:6 4.12 
2 *505:6 *3109:S 2.41 
3 *505:6 *3107:S 11.51 
*END

*D_NET *506 0.00120906
*CONN
*I *3108:A I *D sky130_fd_sc_hd__clkbuf_1
*I *3107:X O *D sky130_fd_sc_hd__mux2_1
*CAP
1 *3108:A 0.000277976
2 *3107:X 0.000277976
3 *3108:A *3112:A0 3.0807e-05
4 *3108:A *830:8 0.000124007
5 *3111:A *3108:A 0.00013265
6 *235:18 *3108:A 0.000282989
7 *399:34 *3108:A 8.26592e-05
*RES
1 *3107:X *3108:A 12.795 
*END

*D_NET *507 0.00198358
*CONN
*I *3110:A I *D sky130_fd_sc_hd__clkbuf_1
*I *3109:X O *D sky130_fd_sc_hd__mux2_1
*CAP
1 *3110:A 0.000487374
2 *3109:X 0.000487374
3 *3110:A *2768:A 9.14035e-05
4 *2730:D1 *3110:A 0
5 *2768:B *3110:A 7.25532e-05
6 *2768:C *3110:A 3.40432e-05
7 *2770:B1 *3110:A 0.000371231
8 *2770:C1 *3110:A 9.50342e-06
9 *3091:A1 *3110:A 0.000198945
10 *3125:A1 *3110:A 0.000184519
11 *358:114 *3110:A 4.66376e-05
*RES
1 *3109:X *3110:A 18.18 
*END

*D_NET *508 0.00106433
*CONN
*I *3114:S I *D sky130_fd_sc_hd__mux2_1
*I *3112:S I *D sky130_fd_sc_hd__mux2_1
*I *3111:Y O *D sky130_fd_sc_hd__nor2_1
*CAP
1 *3114:S 0
2 *3112:S 0.000159254
3 *3111:Y 2.32275e-05
4 *508:6 0.000182482
5 *3112:S *2804:A2 7.77918e-05
6 *3112:S *3114:A0 0.000264564
7 *3112:S *748:39 3.03154e-05
8 *2777:B1 *508:6 0.000123225
9 *3227:D *3112:S 2.42236e-05
10 *358:114 *3112:S 3.2703e-05
11 *399:34 *3112:S 1.16597e-05
12 *476:56 *508:6 4.82863e-05
13 *476:66 *508:6 8.65961e-05
*RES
1 *3111:Y *508:6 2.74 
2 *508:6 *3112:S 9.785 
3 *508:6 *3114:S 1.6 
*END

*D_NET *509 0.00128627
*CONN
*I *3113:A I *D sky130_fd_sc_hd__clkbuf_1
*I *3112:X O *D sky130_fd_sc_hd__mux2_1
*CAP
1 *3113:A 0.000221038
2 *3112:X 0.000221038
3 *3113:A *2711:A 0
4 *2711:C *3113:A 8.55941e-05
5 *2777:B1 *3113:A 0.000313337
6 *285:16 *3113:A 0.000286048
7 *476:66 *3113:A 0.00015921
*RES
1 *3112:X *3113:A 13.485 
*END

*D_NET *510 0.00187943
*CONN
*I *3115:A I *D sky130_fd_sc_hd__clkbuf_1
*I *3114:X O *D sky130_fd_sc_hd__mux2_1
*CAP
1 *3115:A 0.000376257
2 *3114:X 0.000376257
3 *3115:A *2711:B 4.99619e-05
4 *3115:A *2773:A 8.40269e-05
5 *3115:A *2776:A2 4.66108e-05
6 *3115:A *3229:CLK 2.92496e-05
7 *3115:A *601:42 4.66108e-05
8 *3115:A *601:55 3.57349e-05
9 *3115:A *726:28 2.07184e-05
10 *3115:A *726:38 0.000176647
11 *2712:B1 *3115:A 8.65961e-05
12 *2777:B1 *3115:A 0.000459976
13 *445:8 *3115:A 9.07847e-05
*RES
1 *3114:X *3115:A 16.02 
*END

*D_NET *511 0.0374487
*CONN
*I *3133:A0 I *D sky130_fd_sc_hd__mux2_1
*I *2551:A0 I *D sky130_fd_sc_hd__mux2_1
*I *2558:A0 I *D sky130_fd_sc_hd__mux2_1
*I *2588:A0 I *D sky130_fd_sc_hd__mux2_1
*I *3128:A0 I *D sky130_fd_sc_hd__mux2_1
*I *3118:A0 I *D sky130_fd_sc_hd__mux2_1
*I *2583:A0 I *D sky130_fd_sc_hd__mux2_1
*I *2563:A0 I *D sky130_fd_sc_hd__mux2_1
*I *2568:A0 I *D sky130_fd_sc_hd__mux2_1
*I *2573:A0 I *D sky130_fd_sc_hd__mux2_1
*I *3116:X O *D sky130_fd_sc_hd__clkbuf_4
*CAP
1 *3133:A0 0.000738774
2 *2551:A0 0
3 *2558:A0 0
4 *2588:A0 2.34662e-05
5 *3128:A0 0.000747045
6 *3118:A0 0
7 *2583:A0 0
8 *2563:A0 0
9 *2568:A0 4.776e-05
10 *2573:A0 0.000291767
11 *3116:X 0.000670619
12 *511:150 0.00335401
13 *511:100 0.000998592
14 *511:96 0.000662446
15 *511:79 0.000733106
16 *511:66 0.000745113
17 *511:55 0.000772938
18 *511:34 0.000738518
19 *511:30 0.00139654
20 *511:24 0.00384607
21 *511:10 0.0058564
22 *2568:A0 *2561:A 4.16445e-05
23 *2568:A0 *2568:S 0.00012657
24 *2568:A0 *2724:A1 2.05056e-05
25 *2568:A0 *813:10 0.000200615
26 *2573:A0 *2573:S 0
27 *2573:A0 *2575:A1 0
28 *2573:A0 *2576:A 7.4027e-05
29 *2573:A0 *529:8 0
30 *2588:A0 *931:8 2.49909e-05
31 *3128:A0 *3119:A 0.000115522
32 *3128:A0 *3120:A1 0.000161837
33 *3128:A0 *3120:S 0
34 *3128:A0 *3128:A1 3.07153e-05
35 *3128:A0 *3128:S 1.85674e-05
36 *3128:A0 *3131:A 8.93071e-06
37 *3128:A0 *601:42 6.34285e-05
38 *3133:A0 *2547:A 8.35118e-05
39 *3133:A0 *2551:S 0.000151346
40 *3133:A0 *3133:S 0.000118217
41 *3133:A0 *3383:A 0
42 *3133:A0 *521:10 8.41384e-05
43 *3133:A0 *524:10 0.000344668
44 *3133:A0 *775:61 0.00014365
45 *511:10 *608:37 0.000159957
46 *511:10 *796:30 3.4124e-05
47 *511:24 *2636:A 8.35068e-05
48 *511:24 *2805:B2 0.000245893
49 *511:24 *2930:A0 2.7289e-05
50 *511:30 *2558:A1 0.000159741
51 *511:30 *3262:CLK 8.79923e-05
52 *511:30 *591:14 0.00023635
53 *511:34 *591:14 0.000236648
54 *511:55 *2560:A1 2.80247e-05
55 *511:55 *2560:S 9.69257e-05
56 *511:55 *2568:S 0.000113237
57 *511:55 *2724:A1 0.000107384
58 *511:55 *529:8 0
59 *511:55 *816:8 9.30717e-05
60 *511:66 *2568:S 3.90266e-05
61 *511:66 *3345:A 0.000296088
62 *511:66 *591:92 0
63 *511:79 *2563:A1 0.000158839
64 *511:79 *2585:S 0
65 *511:79 *3459:A 0
66 *511:79 *598:72 0.000274434
67 *511:96 *2585:S 4.66108e-05
68 *511:96 *3459:A 0
69 *511:96 *544:22 0.000198344
70 *511:96 *598:66 0.000174881
71 *511:96 *598:72 1.14169e-05
72 *511:96 *931:8 9.2741e-05
73 *511:100 *3118:A1 7.23602e-05
74 *511:150 *3383:A 0
75 *511:150 *590:108 7.65551e-05
76 *511:150 *608:37 0.000119167
77 *2550:B *3133:A0 0.000108458
78 *2557:A *511:24 0.00106176
79 *2560:A0 *511:55 1.88802e-05
80 *2575:A0 *2573:A0 0.000179662
81 *2575:A0 *511:55 7.63761e-05
82 *2577:A *511:30 0.000787875
83 *2602:A *511:24 0.000110654
84 *2622:A *3128:A0 6.07277e-05
85 *2622:A *511:100 0.000402379
86 *2791:B *511:150 3.85753e-05
87 *2812:B1 *511:24 7.24033e-05
88 *2812:C1 *511:24 9.43448e-05
89 *2817:A1 *511:10 0.000195223
90 *2838:A *511:24 8.49205e-05
91 *2930:S *511:24 5.05437e-05
92 *2953:B *511:150 0.00240361
93 *2989:A *3133:A0 8.46768e-05
94 *2989:A *511:150 0
95 *3065:A *3133:A0 1.98931e-05
96 *3067:A *3133:A0 0.000180048
97 *3230:D *3128:A0 4.66108e-05
98 *3238:D *511:150 0
99 *3243:D *511:66 0
100 *3251:D *511:79 0
101 *3252:D *511:96 4.1652e-06
102 *3262:D *511:30 0.000123017
103 *197:134 *511:96 0.000139238
104 *202:115 *511:100 0
105 *231:116 *511:24 0.00026784
106 *316:78 *511:24 0.000136313
107 *325:49 *511:24 0.000216801
108 *325:57 *511:24 4.41506e-05
109 *328:149 *511:10 7.21296e-06
110 *328:149 *511:150 0.000169738
111 *351:95 *511:10 0.000137571
112 *351:95 *511:24 0.000912822
113 *351:114 *511:24 0.000422847
114 *355:38 *3133:A0 0.000107176
115 *358:36 *2573:A0 0
116 *358:57 *511:100 0.000319174
117 *361:36 *3133:A0 5.12462e-05
118 *361:36 *511:150 0.000272016
119 *415:52 *3133:A0 0.000114934
120 *432:14 *3133:A0 4.56292e-05
121 *476:125 *3133:A0 9.68963e-05
122 *500:10 *3128:A0 5.64213e-05
123 *500:10 *511:100 9.19415e-05
124 *500:31 *511:79 0.000291688
125 *500:31 *511:96 3.63206e-05
126 *500:37 *511:66 8.52233e-05
127 *500:37 *511:79 0.000173207
128 *500:41 *511:66 0.000340788
*RES
1 *3116:X *511:10 12.84 
2 *511:10 *511:24 46.395 
3 *511:24 *511:30 17.475 
4 *511:30 *511:34 4.175 
5 *511:34 *2573:A0 9.255 
6 *511:34 *511:55 8.42 
7 *511:55 *2568:A0 3.775 
8 *511:55 *511:66 12.05 
9 *511:66 *2563:A0 3.6 
10 *511:66 *511:79 11 
11 *511:79 *2583:A0 1.6 
12 *511:79 *511:96 12.415 
13 *511:96 *511:100 10.265 
14 *511:100 *3118:A0 3.6 
15 *511:100 *3128:A0 16.215 
16 *511:96 *2588:A0 2.05 
17 *511:30 *2558:A0 1.6 
18 *511:10 *511:150 11.7704 
19 *511:150 *2551:A0 3.6 
20 *511:150 *3133:A0 20.085 
*END

*D_NET *512 0.00103551
*CONN
*I *3118:S I *D sky130_fd_sc_hd__mux2_1
*I *3120:S I *D sky130_fd_sc_hd__mux2_1
*I *3117:X O *D sky130_fd_sc_hd__or2_1
*CAP
1 *3118:S 0
2 *3120:S 0.000220452
3 *3117:X 5.21233e-05
4 *512:6 0.000272576
5 *3120:S *3119:A 2.0514e-05
6 *3120:S *829:14 0.000274659
7 *512:6 *829:14 0.000106208
8 *2622:A *3120:S 0
9 *3128:A0 *3120:S 0
10 *500:10 *3120:S 0
11 *500:31 *3120:S 8.89751e-05
*RES
1 *3117:X *512:6 2.74 
2 *512:6 *3120:S 10.355 
3 *512:6 *3118:S 1.6 
*END

*D_NET *513 0.00114349
*CONN
*I *3119:A I *D sky130_fd_sc_hd__clkbuf_1
*I *3118:X O *D sky130_fd_sc_hd__mux2_1
*CAP
1 *3119:A 0.000298401
2 *3118:X 0.000298401
3 *3119:A *3121:A 2.47705e-05
4 *3119:A *601:42 0.000198339
5 *3119:A *829:14 4.99619e-05
6 *3120:S *3119:A 2.0514e-05
7 *3128:A0 *3119:A 0.000115522
8 *197:134 *3119:A 0.000137578
*RES
1 *3118:X *3119:A 12.84 
*END

*D_NET *514 0.000769903
*CONN
*I *3121:A I *D sky130_fd_sc_hd__clkbuf_1
*I *3120:X O *D sky130_fd_sc_hd__mux2_1
*CAP
1 *3121:A 0.000295169
2 *3120:X 0.000295169
3 *3121:A *601:22 4.82369e-05
4 *3119:A *3121:A 2.47705e-05
5 *3230:D *3121:A 0.000106557
*RES
1 *3120:X *3121:A 12.39 
*END

*D_NET *515 0.00107626
*CONN
*I *3125:S I *D sky130_fd_sc_hd__mux2_1
*I *3123:S I *D sky130_fd_sc_hd__mux2_1
*I *3122:Y O *D sky130_fd_sc_hd__nor2_1
*CAP
1 *3125:S 0.000104544
2 *3123:S 5.257e-05
3 *3122:Y 3.48204e-05
4 *515:10 0.000191934
5 *3123:S *3123:A0 4.41506e-05
6 *3123:S *3126:A 4.60123e-05
7 *3125:S *2786:A 6.61542e-05
8 *3125:S *3123:A0 0.000115955
9 *3125:S *3125:A0 4.77719e-05
10 *3125:S *3126:A 2.01504e-05
11 *515:10 *594:26 0.000116165
12 *3125:A1 *3125:S 0.000119866
13 *370:54 *515:10 0.000116165
*RES
1 *3122:Y *515:10 6.98 
2 *515:10 *3123:S 2.755 
3 *515:10 *3125:S 4.48 
*END

*D_NET *516 0.0002005
*CONN
*I *3124:A I *D sky130_fd_sc_hd__clkbuf_1
*I *3123:X O *D sky130_fd_sc_hd__mux2_1
*CAP
1 *3124:A 5.78365e-05
2 *3123:X 5.78365e-05
3 *3124:A *3126:A 4.61744e-05
4 *3124:A *737:36 0
5 *3233:D *3124:A 3.86529e-05
*RES
1 *3123:X *3124:A 8.58 
*END

*D_NET *517 0.00136358
*CONN
*I *3126:A I *D sky130_fd_sc_hd__clkbuf_1
*I *3125:X O *D sky130_fd_sc_hd__mux2_1
*CAP
1 *3126:A 0.000269012
2 *3125:X 0.000269012
3 *3126:A *2786:A 0.000501276
4 *3126:A *3123:A0 1.48096e-05
5 *3126:A *3382:A 3.26889e-05
6 *3123:A1 *3126:A 4.66108e-05
7 *3123:S *3126:A 4.60123e-05
8 *3124:A *3126:A 4.61744e-05
9 *3125:S *3126:A 2.01504e-05
10 *202:14 *3126:A 0.000117832
*RES
1 *3125:X *3126:A 14.295 
*END

*D_NET *518 0.00388774
*CONN
*I *3130:S I *D sky130_fd_sc_hd__mux2_1
*I *3128:S I *D sky130_fd_sc_hd__mux2_1
*I *3127:X O *D sky130_fd_sc_hd__or2_1
*CAP
1 *3130:S 7.4059e-05
2 *3128:S 0.000118497
3 *3127:X 0.000960384
4 *518:10 0.00115294
5 *3128:S *3128:A1 7.06865e-05
6 *3128:S *3131:A 4.59513e-05
7 *3128:S *601:14 0
8 *3128:S *601:22 0
9 *3128:S *823:14 3.1562e-06
10 *3130:S *3130:A1 4.99619e-05
11 *3130:S *3224:CLK 0
12 *3130:S *823:14 2.96426e-05
13 *518:10 *2776:A1 0.000504484
14 *518:10 *2776:A2 6.71882e-05
15 *518:10 *3102:A0 1.0124e-05
16 *2777:B1 *518:10 4.66108e-05
17 *3128:A0 *3128:S 1.85674e-05
18 *3130:A0 *3130:S 8.8266e-05
19 *3130:A0 *518:10 0.000647222
*RES
1 *3127:X *518:10 15.28 
2 *518:10 *3128:S 7.79 
3 *518:10 *3130:S 3.715 
*END

*D_NET *519 0.00116946
*CONN
*I *3129:A I *D sky130_fd_sc_hd__clkbuf_1
*I *3128:X O *D sky130_fd_sc_hd__mux2_1
*CAP
1 *3129:A 0.00049235
2 *3128:X 0.00049235
3 *3129:A *3131:A 0.000134797
4 *3129:A *3234:CLK 0
5 *3235:D *3129:A 4.99619e-05
*RES
1 *3128:X *3129:A 14.925 
*END

*D_NET *520 0.00062706
*CONN
*I *3131:A I *D sky130_fd_sc_hd__clkbuf_1
*I *3130:X O *D sky130_fd_sc_hd__mux2_1
*CAP
1 *3131:A 0.00021869
2 *3130:X 0.00021869
3 *3128:A0 *3131:A 8.93071e-06
4 *3128:S *3131:A 4.59513e-05
5 *3129:A *3131:A 0.000134797
6 *3235:D *3131:A 0
*RES
1 *3130:X *3131:A 11.415 
*END

*D_NET *521 0.00153326
*CONN
*I *3133:S I *D sky130_fd_sc_hd__mux2_1
*I *2548:S I *D sky130_fd_sc_hd__mux2_1
*I *3132:X O *D sky130_fd_sc_hd__or2_1
*CAP
1 *3133:S 0.000151943
2 *2548:S 0.000107068
3 *3132:X 3.8078e-05
4 *521:10 0.000297088
5 *3133:S *759:28 3.88334e-05
6 *2753:C *2548:S 5.33085e-05
7 *3122:B *2548:S 8.53113e-06
8 *3133:A0 *3133:S 0.000118217
9 *3133:A0 *521:10 8.41384e-05
10 *212:20 *2548:S 0.000138059
11 *212:20 *521:10 2.50751e-05
12 *432:14 *3133:S 3.88906e-05
13 *476:14 *2548:S 0.000308125
14 *476:14 *521:10 4.17653e-05
15 *476:125 *521:10 8.41384e-05
*RES
1 *3132:X *521:10 5.01 
2 *521:10 *2548:S 7.275 
3 *521:10 *3133:S 6.15 
*END

*D_NET *522 0.00113162
*CONN
*I *2547:A I *D sky130_fd_sc_hd__clkbuf_1
*I *3133:X O *D sky130_fd_sc_hd__mux2_1
*CAP
1 *2547:A 0.000299243
2 *3133:X 0.000299243
3 *3133:A0 *2547:A 8.35118e-05
4 *212:20 *2547:A 0.00037585
5 *474:12 *2547:A 7.3775e-05
*RES
1 *3133:X *2547:A 12.945 
*END

*D_NET *523 0.00103893
*CONN
*I *2549:A I *D sky130_fd_sc_hd__clkbuf_1
*I *2548:X O *D sky130_fd_sc_hd__mux2_1
*CAP
1 *2549:A 0.000250601
2 *2548:X 0.000250601
3 *2709:A3 *2549:A 0.000116921
4 *370:54 *2549:A 0.000115254
5 *500:139 *2549:A 0.000305556
*RES
1 *2548:X *2549:A 11.445 
*END

*D_NET *524 0.00202147
*CONN
*I *2553:S I *D sky130_fd_sc_hd__mux2_1
*I *2551:S I *D sky130_fd_sc_hd__mux2_1
*I *2550:X O *D sky130_fd_sc_hd__or2_1
*CAP
1 *2553:S 4.76418e-05
2 *2551:S 0.000139404
3 *2550:X 0.000203014
4 *524:10 0.000390059
5 *2551:S *3383:A 4.01749e-05
6 *2551:S *3465:A 0.000119866
7 *2553:S *2554:A 4.77719e-05
8 *2553:S *2753:A 8.16671e-05
9 *524:10 *2553:A1 0
10 *524:10 *2554:A 4.93699e-05
11 *2553:A0 *2553:S 8.65961e-05
12 *2753:B *2553:S 0.000273277
13 *2989:A *2551:S 0
14 *2989:A *524:10 0
15 *3133:A0 *2551:S 0.000151346
16 *3133:A0 *524:10 0.000344668
17 *361:36 *2551:S 4.66108e-05
*RES
1 *2550:X *524:10 7.725 
2 *524:10 *2551:S 6.63 
3 *524:10 *2553:S 6.12 
*END

*D_NET *525 0.000509216
*CONN
*I *2552:A I *D sky130_fd_sc_hd__clkbuf_1
*I *2551:X O *D sky130_fd_sc_hd__mux2_1
*CAP
1 *2552:A 0.000127771
2 *2551:X 0.000127771
3 *2552:A *3383:A 0.000116624
4 *2552:A *3465:A 8.5214e-05
5 *2749:C *2552:A 2.68464e-05
6 *3238:D *2552:A 2.49909e-05
*RES
1 *2551:X *2552:A 5.99 
*END

*D_NET *526 0.00155624
*CONN
*I *2554:A I *D sky130_fd_sc_hd__clkbuf_1
*I *2553:X O *D sky130_fd_sc_hd__mux2_1
*CAP
1 *2554:A 0.000254937
2 *2553:X 0.000254937
3 *2554:A *2553:A1 0
4 *2554:A *2753:A 0.000448311
5 *2554:A *3239:CLK 8.96362e-05
6 *2553:S *2554:A 4.77719e-05
7 *2753:B *2554:A 0.000183898
8 *3239:D *2554:A 8.66171e-05
9 *211:14 *2554:A 0.000140761
10 *524:10 *2554:A 4.93699e-05
*RES
1 *2553:X *2554:A 15.3 
*END

*D_NET *527 0.0187972
*CONN
*I *2562:B I *D sky130_fd_sc_hd__or2_1
*I *2556:B I *D sky130_fd_sc_hd__or2_2
*I *2592:C I *D sky130_fd_sc_hd__or3_1
*I *2587:B I *D sky130_fd_sc_hd__or2_1
*I *2582:B I *D sky130_fd_sc_hd__or2_1
*I *2572:B I *D sky130_fd_sc_hd__or2_1
*I *2567:B I *D sky130_fd_sc_hd__or2_1
*I *2577:B I *D sky130_fd_sc_hd__nor2_1
*I *2555:X O *D sky130_fd_sc_hd__or3b_4
*CAP
1 *2562:B 0
2 *2556:B 0.00024869
3 *2592:C 8.01515e-06
4 *2587:B 0
5 *2582:B 6.52583e-05
6 *2572:B 1.41866e-05
7 *2567:B 7.32934e-05
8 *2577:B 0.000166091
9 *2555:X 0.000582438
10 *527:118 0.000669055
11 *527:89 0.000319369
12 *527:50 0.000665401
13 *527:40 0.000859111
14 *527:26 0.00221266
15 *527:14 0.00171343
16 *527:12 0.00116858
17 *2556:B *528:135 8.80056e-05
18 *2556:B *606:81 2.07679e-05
19 *2572:B *2626:A 8.65905e-05
20 *2577:B *2614:A 3.96737e-05
21 *2577:B *2724:A1 0
22 *2582:B *547:14 0.000163204
23 *527:12 *2751:A 0.000120655
24 *527:12 *3314:A 5.98151e-05
25 *527:12 *619:39 0.000165996
26 *527:12 *652:6 4.66826e-05
27 *527:12 *652:23 5.13692e-05
28 *527:14 *532:18 0.000425933
29 *527:26 *2805:B2 0.00027174
30 *527:26 *532:18 0.00229464
31 *527:26 *600:81 1.79536e-05
32 *527:40 *2612:B 4.43053e-05
33 *527:40 *2622:B 8.35683e-05
34 *527:40 *2804:A2 0.000186335
35 *527:40 *2805:B2 0
36 *527:50 *2612:B 3.35503e-05
37 *527:50 *538:22 8.49205e-05
38 *527:89 *2804:A2 0.000122758
39 *527:118 *532:18 0.000318605
40 *2572:A *527:40 0.000382726
41 *2572:A *527:50 2.0851e-06
42 *2577:A *2577:B 8.40213e-05
43 *2587:A *2582:B 8.49205e-05
44 *2587:A *527:89 0.000123225
45 *2727:B1 *527:50 3.31204e-05
46 *2730:D1 *2582:B 0.000307482
47 *2730:D1 *527:89 0.000110783
48 *2752:C1 *527:12 4.39079e-05
49 *2762:B *527:12 0.000101804
50 *2762:B *527:89 0
51 *2782:C *527:12 1.77285e-05
52 *2790:A2 *527:12 6.64112e-05
53 *2791:D *527:118 9.8109e-05
54 *2807:B1 *2572:B 8.65905e-05
55 *2807:B1 *527:50 0.000124433
56 *2808:A1 *527:50 0
57 *2808:A3 *2567:B 4.66742e-05
58 *2808:A3 *527:50 0.000133984
59 *2897:A *2556:B 1.14169e-05
60 *2914:A *527:26 0.000309614
61 *2998:S *527:12 3.86607e-05
62 *3184:D *2592:C 6.63219e-06
63 *3267:D *527:40 3.39151e-05
64 *174:104 *527:26 2.47229e-05
65 *177:28 *527:12 6.94525e-05
66 *181:56 *527:89 0
67 *187:98 *527:12 0.000188212
68 *211:71 *527:118 7.91555e-05
69 *211:85 *527:14 0.000142532
70 *211:85 *527:26 0.000611284
71 *211:85 *527:118 8.1311e-05
72 *215:86 *2556:B 4.82098e-05
73 *215:108 *527:40 0.000212923
74 *218:108 *527:12 0.000114681
75 *231:14 *527:12 0.000714542
76 *323:26 *2556:B 4.20701e-06
77 *328:71 *2577:B 0.00011852
78 *328:71 *527:50 7.47284e-05
79 *350:48 *2556:B 0.000111116
80 *350:48 *527:118 6.80651e-05
81 *350:120 *2577:B 0.00011852
82 *350:120 *527:50 0.000130721
83 *355:42 *2556:B 4.55864e-06
84 *355:42 *527:118 1.49441e-05
85 *370:8 *2556:B 0.000104623
86 *370:33 *2592:C 1.92979e-05
*RES
1 *2555:X *527:12 19.4075 
2 *527:12 *527:14 0.678933 
3 *527:14 *527:26 13.663 
4 *527:26 *527:40 13.93 
5 *527:40 *527:50 10.75 
6 *527:50 *2577:B 7.185 
7 *527:50 *2567:B 4.74 
8 *527:40 *2572:B 4.395 
9 *527:26 *527:89 7.325 
10 *527:89 *2582:B 4.465 
11 *527:89 *2587:B 1.6 
12 *527:14 *2592:C 4.3325 
13 *527:12 *527:118 3.05797 
14 *527:118 *2556:B 8.595 
15 *527:118 *2562:B 3.6 
*END

*D_NET *528 0.024735
*CONN
*I *2632:B I *D sky130_fd_sc_hd__or2_1
*I *2627:B I *D sky130_fd_sc_hd__or2_1
*I *2607:B I *D sky130_fd_sc_hd__or2_1
*I *2602:B I *D sky130_fd_sc_hd__or2_1
*I *2617:B I *D sky130_fd_sc_hd__or2_1
*I *2597:B I *D sky130_fd_sc_hd__nor2_1
*I *2557:B I *D sky130_fd_sc_hd__or2_1
*I *2622:B I *D sky130_fd_sc_hd__or2_1
*I *2612:B I *D sky130_fd_sc_hd__or2_1
*I *2556:X O *D sky130_fd_sc_hd__or2_2
*CAP
1 *2632:B 0.000599764
2 *2627:B 0
3 *2607:B 3.42142e-05
4 *2602:B 0.000163072
5 *2617:B 0
6 *2597:B 2.12047e-05
7 *2557:B 0.000777286
8 *2622:B 0.000873541
9 *2612:B 0.000202775
10 *2556:X 0
11 *528:135 0.000702523
12 *528:82 0.00116986
13 *528:72 0.000820364
14 *528:66 0.000894891
15 *528:62 0.000553806
16 *528:28 0.0020249
17 *528:18 0.00328222
18 *528:4 0.00219963
19 *2557:B *2615:A1 2.16389e-05
20 *2557:B *538:22 7.44375e-05
21 *2557:B *817:10 0.000119631
22 *2557:B *892:8 0.000232791
23 *2597:B *553:10 5.83121e-06
24 *2602:B *556:8 4.66108e-05
25 *2607:B *600:37 0.000118081
26 *2622:B *2580:A0 4.15546e-05
27 *2622:B *2625:A1 0.000155608
28 *2622:B *2802:A2 2.72203e-05
29 *2632:B *2629:A 0.000127537
30 *2632:B *3271:CLK 6.69608e-06
31 *2632:B *574:8 1.79882e-05
32 *2632:B *608:37 0.000335791
33 *528:18 *600:12 0.000271873
34 *528:18 *737:36 7.23602e-05
35 *528:28 *3305:A 4.66108e-05
36 *528:28 *3330:A 1.83847e-05
37 *528:62 *590:24 1.79483e-05
38 *528:62 *590:35 0.000200994
39 *528:62 *590:52 1.7635e-05
40 *528:62 *600:12 2.92496e-05
41 *528:66 *2746:A1 1.32017e-05
42 *528:66 *2746:B2 0.000321916
43 *528:66 *2797:A1 0.000159964
44 *528:66 *925:10 7.30547e-05
45 *528:72 *2797:B2 0
46 *528:72 *599:59 0.000285675
47 *528:72 *925:10 7.06865e-05
48 *528:82 *2618:S 4.41506e-05
49 *528:82 *565:6 2.75229e-05
50 *2556:B *528:135 8.80056e-05
51 *2557:A *2602:B 1.87977e-05
52 *2567:A *528:18 8.53113e-06
53 *2602:A *2602:B 5.06989e-05
54 *2607:A *2607:B 4.66108e-05
55 *2613:A0 *2612:B 0
56 *2618:A0 *528:72 0.000238919
57 *2618:A0 *528:82 0.000385333
58 *2627:A *2632:B 7.51699e-05
59 *2627:A *528:135 0.000378109
60 *2632:A *2632:B 9.41239e-05
61 *2683:B *2632:B 0.00015663
62 *2722:B1 *2622:B 0.000301507
63 *2727:A2 *528:82 0.000316415
64 *2727:B1 *2557:B 0.000323539
65 *2727:B1 *528:82 0.000107513
66 *2728:C *2557:B 0
67 *2747:B1 *528:62 0
68 *2747:B1 *528:66 0
69 *2798:B1 *528:66 0
70 *2804:B1 *2557:B 0
71 *2805:B1 *2612:B 7.32096e-05
72 *2807:B1 *2612:B 3.58958e-05
73 *2807:B1 *2622:B 8.1908e-05
74 *2807:B1 *528:28 3.1835e-05
75 *2808:A1 *2612:B 0
76 *2808:B1 *2612:B 0
77 *2840:A *528:72 9.28053e-05
78 *2888:S *528:18 0.000158579
79 *2897:A *528:135 8.35068e-05
80 *2923:B *528:82 0.000114492
81 *2935:B *2607:B 8.40269e-05
82 *3157:D *528:28 4.66108e-05
83 *3157:D *528:62 8.53113e-06
84 *3258:D *2557:B 0
85 *3263:D *2557:B 0.000131284
86 *3267:D *2622:B 0
87 *3271:D *2632:B 0.000266618
88 *174:18 *2632:B 0.000136023
89 *181:56 *528:66 5.92191e-05
90 *187:112 *528:72 0.000213276
91 *187:112 *528:82 0.000102718
92 *197:134 *2622:B 2.33584e-05
93 *208:58 *2597:B 4.82863e-05
94 *215:86 *2632:B 9.47267e-06
95 *215:108 *2622:B 0.00048422
96 *316:70 *528:28 6.88676e-05
97 *322:31 *528:18 0.000607455
98 *323:26 *2632:B 0.00013526
99 *323:26 *528:135 2.91443e-05
100 *328:30 *528:66 0.000130007
101 *328:30 *528:72 0.00023512
102 *328:149 *2632:B 0.000113079
103 *345:61 *2557:B 6.51714e-05
104 *358:28 *528:82 1.95352e-05
105 *358:57 *2622:B 6.72593e-05
106 *361:54 *528:18 6.21553e-05
107 *370:8 *528:135 2.14725e-05
108 *370:16 *528:18 0.000571637
109 *370:16 *528:135 8.41307e-05
110 *395:57 *528:62 8.05212e-05
111 *395:57 *528:66 2.92496e-05
112 *415:52 *2632:B 5.50279e-05
113 *527:40 *2612:B 4.43053e-05
114 *527:40 *2622:B 8.35683e-05
115 *527:50 *2612:B 3.35503e-05
*RES
1 *2556:X *528:4 1.6 
2 *528:4 *528:18 31.075 
3 *528:18 *528:28 13.28 
4 *528:28 *2612:B 7.215 
5 *528:28 *2622:B 23.98 
6 *528:18 *528:62 6.695 
7 *528:62 *528:66 7.44 
8 *528:66 *528:72 12.83 
9 *528:72 *528:82 11.195 
10 *528:82 *2557:B 17.4 
11 *528:82 *2597:B 4.05 
12 *528:72 *2617:B 1.6 
13 *528:66 *2602:B 5.79 
14 *528:62 *2607:B 4.74 
15 *528:4 *528:135 3.9 
16 *528:135 *2627:B 1.6 
17 *528:135 *2632:B 20.255 
*END

*D_NET *529 0.00133404
*CONN
*I *2560:S I *D sky130_fd_sc_hd__mux2_1
*I *2558:S I *D sky130_fd_sc_hd__mux2_1
*I *2557:X O *D sky130_fd_sc_hd__or2_1
*CAP
1 *2560:S 0.000257174
2 *2558:S 0
3 *2557:X 7.9988e-05
4 *529:8 0.000337162
5 *2560:S *2560:A1 5.05521e-05
6 *2560:S *2724:A1 1.69467e-05
7 *2560:S *3439:A 0.000199136
8 *2573:A0 *529:8 0
9 *2724:B1 *2560:S 1.83756e-05
10 *358:36 *2560:S 0.000141599
11 *358:36 *529:8 0.000136182
12 *511:55 *2560:S 9.69257e-05
13 *511:55 *529:8 0
*RES
1 *2557:X *529:8 5.235 
2 *529:8 *2558:S 3.6 
3 *529:8 *2560:S 9.15 
*END

*D_NET *530 0.00139643
*CONN
*I *2559:A I *D sky130_fd_sc_hd__clkbuf_1
*I *2558:X O *D sky130_fd_sc_hd__mux2_1
*CAP
1 *2559:A 0.000512415
2 *2558:X 0.000512415
3 *2559:A *2561:A 6.75014e-05
4 *2559:A *591:14 0.000246466
5 *3241:D *2559:A 5.76361e-05
*RES
1 *2558:X *2559:A 10.49 
*END

*D_NET *531 0.00107938
*CONN
*I *2561:A I *D sky130_fd_sc_hd__clkbuf_1
*I *2560:X O *D sky130_fd_sc_hd__mux2_1
*CAP
1 *2561:A 0.000366665
2 *2560:X 0.000366665
3 *2561:A *2568:S 9.91257e-05
4 *2561:A *2569:A 3.00381e-05
5 *2561:A *591:92 3.86529e-05
6 *2559:A *2561:A 6.75014e-05
7 *2568:A0 *2561:A 4.16445e-05
8 *3241:D *2561:A 6.90876e-05
*RES
1 *2560:X *2561:A 13.395 
*END

*D_NET *532 0.0131907
*CONN
*I *2563:S I *D sky130_fd_sc_hd__mux2_1
*I *2565:S I *D sky130_fd_sc_hd__mux2_1
*I *2562:X O *D sky130_fd_sc_hd__or2_1
*CAP
1 *2563:S 0
2 *2565:S 0.000104081
3 *2562:X 0.00408249
4 *532:18 0.00418657
5 *532:18 *2790:A1 4.77719e-05
6 *532:18 *606:81 9.23027e-06
7 *532:18 *606:102 1.61489e-05
8 *2762:B *532:18 0.000963395
9 *2762:C *532:18 1.7635e-05
10 *2791:D *532:18 2.49909e-05
11 *211:85 *532:18 6.18663e-05
12 *218:42 *532:18 5.77391e-05
13 *218:126 *532:18 0.000109743
14 *316:60 *532:18 6.72055e-05
15 *361:54 *532:18 0
16 *411:14 *532:18 0.000182622
17 *500:37 *2565:S 0.000179077
18 *500:37 *532:18 1.10803e-05
19 *500:41 *2565:S 2.98587e-05
20 *527:14 *532:18 0.000425933
21 *527:26 *532:18 0.00229464
22 *527:118 *532:18 0.000318605
*RES
1 *2562:X *532:18 16.4495 
2 *532:18 *2565:S 6 
3 *532:18 *2563:S 3.6 
*END

*D_NET *533 0.000486839
*CONN
*I *2564:A I *D sky130_fd_sc_hd__clkbuf_1
*I *2563:X O *D sky130_fd_sc_hd__mux2_1
*CAP
1 *2564:A 0.00024342
2 *2563:X 0.00024342
*RES
1 *2563:X *2564:A 7.025 
*END

*D_NET *534 0.000269028
*CONN
*I *2566:A I *D sky130_fd_sc_hd__clkbuf_1
*I *2565:X O *D sky130_fd_sc_hd__mux2_1
*CAP
1 *2566:A 0.000134514
2 *2565:X 0.000134514
*RES
1 *2565:X *2566:A 5.3 
*END

*D_NET *535 0.00297154
*CONN
*I *2570:S I *D sky130_fd_sc_hd__mux2_1
*I *2568:S I *D sky130_fd_sc_hd__mux2_1
*I *2567:X O *D sky130_fd_sc_hd__or2_1
*CAP
1 *2570:S 0
2 *2568:S 0.000193169
3 *2567:X 0.000497645
4 *535:14 0.000690814
5 *2568:S *591:92 0
6 *535:14 *2806:A1 0.000178082
7 *535:14 *812:8 0.000321088
8 *2561:A *2568:S 9.91257e-05
9 *2568:A0 *2568:S 0.00012657
10 *2806:A2 *535:14 0.000270598
11 *2806:B1 *535:14 9.80032e-06
12 *2807:C1 *535:14 0.000313857
13 *500:41 *2568:S 7.47215e-05
14 *500:41 *535:14 4.38051e-05
15 *511:55 *2568:S 0.000113237
16 *511:66 *2568:S 3.90266e-05
*RES
1 *2567:X *535:14 13.755 
2 *535:14 *2568:S 8.175 
3 *535:14 *2570:S 3.6 
*END

*D_NET *536 0.00066944
*CONN
*I *2569:A I *D sky130_fd_sc_hd__clkbuf_1
*I *2568:X O *D sky130_fd_sc_hd__mux2_1
*CAP
1 *2569:A 0.000319701
2 *2568:X 0.000319701
3 *2561:A *2569:A 3.00381e-05
4 *3244:D *2569:A 0
*RES
1 *2568:X *2569:A 11.67 
*END

*D_NET *537 0.000741511
*CONN
*I *2571:A I *D sky130_fd_sc_hd__clkbuf_1
*I *2570:X O *D sky130_fd_sc_hd__mux2_1
*CAP
1 *2571:A 0.000281299
2 *2570:X 0.000281299
3 *2571:A *2568:A1 2.67022e-05
4 *2571:A *3345:A 0
5 *2571:A *591:92 2.34083e-05
6 *2571:A *812:8 8.8266e-05
7 *3245:D *2571:A 4.05358e-05
*RES
1 *2570:X *2571:A 11.355 
*END

*D_NET *538 0.00387825
*CONN
*I *2575:S I *D sky130_fd_sc_hd__mux2_1
*I *2573:S I *D sky130_fd_sc_hd__mux2_1
*I *2572:X O *D sky130_fd_sc_hd__or2_1
*CAP
1 *2575:S 0
2 *2573:S 0.000151685
3 *2572:X 0.000916727
4 *538:22 0.00106841
5 *2573:S *2573:A1 7.11549e-05
6 *2573:S *2575:A1 9.30717e-05
7 *2573:S *2576:A 0
8 *538:22 *2615:A1 2.16833e-05
9 *538:22 *562:14 0
10 *2557:A *538:22 0.000316663
11 *2557:B *538:22 7.44375e-05
12 *2573:A0 *2573:S 0
13 *2577:A *538:22 0.000137571
14 *2613:A0 *538:22 4.62396e-05
15 *2615:A0 *538:22 4.66108e-05
16 *2727:B1 *538:22 0.000465461
17 *2807:B1 *538:22 2.05056e-05
18 *2808:A2 *538:22 0
19 *2808:A3 *538:22 4.82919e-05
20 *2808:B1 *538:22 7.29995e-05
21 *3263:D *538:22 2.96383e-05
22 *328:48 *538:22 8.40269e-05
23 *328:71 *538:22 9.044e-05
24 *358:36 *2573:S 3.77112e-05
25 *527:50 *538:22 8.49205e-05
*RES
1 *2572:X *538:22 25.505 
2 *538:22 *2573:S 8.9 
3 *538:22 *2575:S 1.6 
*END

*D_NET *539 0.000970575
*CONN
*I *2574:A I *D sky130_fd_sc_hd__clkbuf_1
*I *2573:X O *D sky130_fd_sc_hd__mux2_1
*CAP
1 *2574:A 0.000326544
2 *2573:X 0.000326544
3 *2574:A *2576:A 2.86975e-05
4 *2574:A *3247:CLK 0.0001249
5 *2574:A *591:20 0
6 *2574:A *591:22 0
7 *3247:D *2574:A 0.00016389
*RES
1 *2573:X *2574:A 13.095 
*END

*D_NET *540 0.000393907
*CONN
*I *2576:A I *D sky130_fd_sc_hd__clkbuf_1
*I *2575:X O *D sky130_fd_sc_hd__mux2_1
*CAP
1 *2576:A 0.000145591
2 *2575:X 0.000145591
3 *2573:A0 *2576:A 7.4027e-05
4 *2573:S *2576:A 0
5 *2574:A *2576:A 2.86975e-05
*RES
1 *2575:X *2576:A 9.825 
*END

*D_NET *541 0.00450199
*CONN
*I *2580:S I *D sky130_fd_sc_hd__mux2_1
*I *2578:S I *D sky130_fd_sc_hd__mux2_1
*I *2577:Y O *D sky130_fd_sc_hd__nor2_1
*CAP
1 *2580:S 0.000378351
2 *2578:S 0.000467732
3 *2577:Y 0
4 *541:6 0.000846083
5 *2578:S *2598:A0 0.000117825
6 *2578:S *2598:S 7.79794e-05
7 *2578:S *2600:A0 7.23602e-05
8 *2578:S *2803:A1 0
9 *2578:S *553:10 7.1635e-05
10 *2580:S *2807:A1 0.000452737
11 *2567:A *2580:S 0.000143266
12 *2728:A *2578:S 1.07797e-05
13 *2729:A2 *2578:S 0.000597286
14 *2729:A2 *2580:S 0.000364639
15 *202:115 *2578:S 0.000618705
16 *202:115 *2580:S 0.000135401
17 *350:120 *2578:S 0.000147214
*RES
1 *2577:Y *541:6 3.6 
2 *541:6 *2578:S 17.22 
3 *541:6 *2580:S 12.75 
*END

*D_NET *542 0.000555377
*CONN
*I *2579:A I *D sky130_fd_sc_hd__clkbuf_1
*I *2578:X O *D sky130_fd_sc_hd__mux2_1
*CAP
1 *2579:A 0.000231176
2 *2578:X 0.000231176
3 *2579:A *2727:B2 4.23417e-05
4 *2598:A1 *2579:A 5.06832e-05
*RES
1 *2578:X *2579:A 11.43 
*END

*D_NET *543 0.000365459
*CONN
*I *2581:A I *D sky130_fd_sc_hd__clkbuf_1
*I *2580:X O *D sky130_fd_sc_hd__mux2_1
*CAP
1 *2581:A 0.000114827
2 *2580:X 0.000114827
3 *2581:A *2807:A1 2.937e-05
4 *2581:A *3243:CLK 9.37731e-05
5 *2581:A *3347:A 0
6 *197:134 *2581:A 1.26626e-05
*RES
1 *2580:X *2581:A 9.03 
*END

*D_NET *544 0.0038213
*CONN
*I *2583:S I *D sky130_fd_sc_hd__mux2_1
*I *2585:S I *D sky130_fd_sc_hd__mux2_1
*I *2582:X O *D sky130_fd_sc_hd__or2_1
*CAP
1 *2583:S 0
2 *2585:S 0.00022643
3 *2582:X 0.000914537
4 *544:22 0.00114097
5 *2585:S *2722:A1 0
6 *2585:S *3459:A 4.9968e-05
7 *2585:S *806:10 0.00023701
8 *544:22 *2801:A1 4.5309e-05
9 *544:22 *547:14 4.31969e-05
10 *544:22 *598:66 5.69836e-05
11 *544:22 *598:122 1.89867e-06
12 *2729:A1 *544:22 0.00030358
13 *2729:A2 *544:22 1.17409e-05
14 *2801:A2 *544:22 0.000104619
15 *3253:D *544:22 9.12019e-05
16 *358:57 *544:22 4.24632e-05
17 *500:31 *2585:S 4.66108e-05
18 *500:31 *544:22 0.000259832
19 *511:79 *2585:S 0
20 *511:96 *2585:S 4.66108e-05
21 *511:96 *544:22 0.000198344
*RES
1 *2582:X *544:22 20.105 
2 *544:22 *2585:S 10.22 
3 *544:22 *2583:S 1.6 
*END

*D_NET *545 0.000616057
*CONN
*I *2584:A I *D sky130_fd_sc_hd__clkbuf_1
*I *2583:X O *D sky130_fd_sc_hd__mux2_1
*CAP
1 *2584:A 0.000308028
2 *2583:X 0.000308028
*RES
1 *2583:X *2584:A 11.79 
*END

*D_NET *546 0.000306132
*CONN
*I *2586:A I *D sky130_fd_sc_hd__clkbuf_1
*I *2585:X O *D sky130_fd_sc_hd__mux2_1
*CAP
1 *2586:A 9.33637e-05
2 *2585:X 9.33637e-05
3 *2586:A *815:8 4.77807e-05
4 *3251:D *2586:A 7.1624e-05
*RES
1 *2585:X *2586:A 9.03 
*END

*D_NET *547 0.00272019
*CONN
*I *2588:S I *D sky130_fd_sc_hd__mux2_1
*I *2590:S I *D sky130_fd_sc_hd__mux2_1
*I *2587:X O *D sky130_fd_sc_hd__or2_1
*CAP
1 *2588:S 0.000170084
2 *2590:S 0
3 *2587:X 0.000389454
4 *547:14 0.000559539
5 *2588:S *2588:A1 3.09088e-05
6 *2588:S *2590:A1 0.000136182
7 *2588:S *931:8 0.000275542
8 *547:14 *2590:A1 9.50342e-06
9 *2582:A *547:14 4.66108e-05
10 *2582:B *547:14 0.000163204
11 *2729:A2 *547:14 0.000134776
12 *2730:D1 *547:14 7.84545e-05
13 *2801:A2 *2588:S 0.000113247
14 *202:115 *2588:S 0.000344017
15 *202:115 *547:14 7.33809e-05
16 *350:120 *2588:S 0.000119219
17 *350:120 *547:14 3.2867e-05
18 *544:22 *547:14 4.31969e-05
*RES
1 *2587:X *547:14 10.815 
2 *547:14 *2590:S 3.6 
3 *547:14 *2588:S 10.305 
*END

*D_NET *548 0.000643879
*CONN
*I *2589:A I *D sky130_fd_sc_hd__clkbuf_1
*I *2588:X O *D sky130_fd_sc_hd__mux2_1
*CAP
1 *2589:A 0.00025114
2 *2588:X 0.00025114
3 *2622:A *2589:A 0.000141599
4 *500:31 *2589:A 0
*RES
1 *2588:X *2589:A 11.355 
*END

*D_NET *549 0.00101874
*CONN
*I *2591:A I *D sky130_fd_sc_hd__clkbuf_1
*I *2590:X O *D sky130_fd_sc_hd__mux2_1
*CAP
1 *2591:A 0.000329503
2 *2590:X 0.000329503
3 *2591:A *2722:A1 0.000206373
4 *2622:A *2591:A 5.42473e-05
5 *2722:A2 *2591:A 2.21886e-05
6 *2722:B1 *2591:A 9.14342e-06
7 *2729:A1 *2591:A 4.82919e-05
8 *197:134 *2591:A 0
9 *500:31 *2591:A 1.94892e-05
*RES
1 *2590:X *2591:A 12.045 
*END

*D_NET *550 0.00129486
*CONN
*I *2595:S I *D sky130_fd_sc_hd__mux2_1
*I *2593:S I *D sky130_fd_sc_hd__mux2_1
*I *2592:X O *D sky130_fd_sc_hd__or3_1
*CAP
1 *2595:S 6.71809e-05
2 *2593:S 8.80043e-05
3 *2592:X 1.28183e-05
4 *550:6 0.000168004
5 *2593:S *3373:A 8.41384e-05
6 *2593:S *929:12 0.000194921
7 *2595:S *715:47 8.99419e-05
8 *2595:S *737:36 8.99419e-05
9 *2592:B *2593:S 0.000341432
10 *2592:B *550:6 4.66108e-05
11 *2595:A0 *2595:S 1.94213e-05
12 *2784:B *2593:S 7.22613e-05
13 *2784:B *550:6 2.0187e-05
*RES
1 *2592:X *550:6 2.05 
2 *550:6 *2593:S 5.17 
3 *550:6 *2595:S 7.34 
*END

*D_NET *551 0.000149168
*CONN
*I *2594:A I *D sky130_fd_sc_hd__clkbuf_1
*I *2593:X O *D sky130_fd_sc_hd__mux2_1
*CAP
1 *2594:A 6.11261e-05
2 *2593:X 6.11261e-05
3 *174:83 *2594:A 2.69153e-05
*RES
1 *2593:X *2594:A 4.265 
*END

*D_NET *552 0.00172515
*CONN
*I *2596:A I *D sky130_fd_sc_hd__clkbuf_1
*I *2595:X O *D sky130_fd_sc_hd__mux2_1
*CAP
1 *2596:A 0.000459932
2 *2595:X 0.000459932
3 *2596:A *3255:CLK 0.000230037
4 *291:24 *2596:A 0.000114356
5 *322:61 *2596:A 2.63208e-06
6 *365:22 *2596:A 0.000115652
7 *419:61 *2596:A 0.000342609
*RES
1 *2595:X *2596:A 14.205 
*END

*D_NET *553 0.00208864
*CONN
*I *2600:S I *D sky130_fd_sc_hd__mux2_1
*I *2598:S I *D sky130_fd_sc_hd__mux2_1
*I *2597:Y O *D sky130_fd_sc_hd__nor2_1
*CAP
1 *2600:S 4.71951e-05
2 *2598:S 0.00031813
3 *2597:Y 0.000320831
4 *553:10 0.000686155
5 *2598:S *2598:A0 2.88357e-05
6 *2598:S *2599:A 0
7 *2598:S *926:8 0
8 *2600:S *2600:A0 2.75229e-05
9 *553:10 *2725:A1 0.000217569
10 *553:10 *2725:B2 9.27255e-06
11 *553:10 *2803:A1 3.09233e-05
12 *553:10 *811:10 0
13 *553:10 *926:8 0
14 *2578:S *2598:S 7.79794e-05
15 *2578:S *553:10 7.1635e-05
16 *2597:B *553:10 5.83121e-06
17 *2598:A1 *2598:S 3.79624e-05
18 *2728:B *553:10 0.000122331
19 *208:58 *553:10 4.43682e-05
20 *358:28 *2600:S 2.16917e-05
21 *358:30 *2600:S 9.53428e-06
22 *358:36 *2600:S 1.08758e-05
*RES
1 *2597:Y *553:10 9.99 
2 *553:10 *2598:S 8.955 
3 *553:10 *2600:S 4.77 
*END

*D_NET *554 0.000837922
*CONN
*I *2599:A I *D sky130_fd_sc_hd__clkbuf_1
*I *2598:X O *D sky130_fd_sc_hd__mux2_1
*CAP
1 *2599:A 0.000205767
2 *2598:X 0.000205767
3 *2599:A *811:10 9.2741e-05
4 *2599:A *926:8 0.000173011
5 *2598:S *2599:A 0
6 *358:36 *2599:A 0.000160635
*RES
1 *2598:X *2599:A 12.36 
*END

*D_NET *555 0.00101772
*CONN
*I *2601:A I *D sky130_fd_sc_hd__clkbuf_1
*I *2600:X O *D sky130_fd_sc_hd__mux2_1
*CAP
1 *2601:A 0.000375238
2 *2600:X 0.000375238
3 *2601:A *3256:CLK 2.86975e-05
4 *2601:A *926:8 7.85839e-05
5 *3256:D *2601:A 6.9735e-05
6 *358:36 *2601:A 9.02259e-05
*RES
1 *2600:X *2601:A 13.56 
*END

*D_NET *556 0.00136001
*CONN
*I *2603:S I *D sky130_fd_sc_hd__mux2_1
*I *2605:S I *D sky130_fd_sc_hd__mux2_1
*I *2602:X O *D sky130_fd_sc_hd__or2_1
*CAP
1 *2603:S 0
2 *2605:S 7.0402e-05
3 *2602:X 0.000199297
4 *556:8 0.000269699
5 *2605:S *2603:A1 9.80943e-06
6 *2605:S *2604:A 8.65905e-05
7 *2605:S *2605:A1 3.23663e-05
8 *556:8 *2603:A1 8.8266e-05
9 *556:8 *3354:A 2.49909e-05
10 *2557:A *2605:S 0.000253602
11 *2557:A *556:8 0.000135084
12 *2602:B *556:8 4.66108e-05
13 *316:78 *2605:S 9.27495e-05
14 *316:89 *2605:S 5.05437e-05
*RES
1 *2602:X *556:8 5.77 
2 *556:8 *2605:S 4.81 
3 *556:8 *2603:S 1.6 
*END

*D_NET *557 0.0011816
*CONN
*I *2604:A I *D sky130_fd_sc_hd__clkbuf_1
*I *2603:X O *D sky130_fd_sc_hd__mux2_1
*CAP
1 *2604:A 0.000171567
2 *2603:X 0.000171567
3 *2604:A *2605:A1 2.66586e-05
4 *2557:A *2604:A 0.000574284
5 *2605:S *2604:A 8.65905e-05
6 *3263:D *2604:A 0
7 *328:46 *2604:A 2.76356e-05
8 *328:48 *2604:A 0.000123295
*RES
1 *2603:X *2604:A 9.095 
*END

*D_NET *558 0.000324991
*CONN
*I *2606:A I *D sky130_fd_sc_hd__clkbuf_1
*I *2605:X O *D sky130_fd_sc_hd__mux2_1
*CAP
1 *2606:A 8.02329e-05
2 *2605:X 8.02329e-05
3 *2606:A *599:53 0
4 *2620:A0 *2606:A 4.05358e-05
5 *2805:B1 *2606:A 7.4027e-05
6 *3258:D *2606:A 4.99619e-05
*RES
1 *2605:X *2606:A 9.135 
*END

*D_NET *559 0.00220202
*CONN
*I *2608:S I *D sky130_fd_sc_hd__mux2_1
*I *2610:S I *D sky130_fd_sc_hd__mux2_1
*I *2607:X O *D sky130_fd_sc_hd__or2_1
*CAP
1 *2608:S 0.00014489
2 *2610:S 0.000283725
3 *2607:X 0
4 *559:6 0.000428615
5 *2608:S *2608:A1 2.0514e-05
6 *2608:S *2805:B2 0
7 *2608:S *600:26 0.00015829
8 *2610:S *2610:A1 7.23602e-05
9 *2610:S *2805:B2 0
10 *2798:B1 *2608:S 0.000135532
11 *2798:B1 *2610:S 0.000170543
12 *181:56 *2608:S 0.000237238
13 *299:32 *2608:S 0.000273872
14 *328:30 *2610:S 0.000276441
*RES
1 *2607:X *559:6 3.6 
2 *559:6 *2610:S 9.795 
3 *559:6 *2608:S 9.03 
*END

*D_NET *560 0.00115076
*CONN
*I *2609:A I *D sky130_fd_sc_hd__clkbuf_1
*I *2608:X O *D sky130_fd_sc_hd__mux2_1
*CAP
1 *2609:A 0.000269752
2 *2608:X 0.000269752
3 *2609:A *2611:A 9.428e-05
4 *2609:A *3261:CLK 1.16578e-05
5 *2609:A *599:10 0.000352298
6 *2577:A *2609:A 6.27029e-05
7 *2805:B1 *2609:A 4.11198e-05
8 *3260:D *2609:A 3.00381e-05
9 *299:32 *2609:A 1.91597e-05
*RES
1 *2608:X *2609:A 13.365 
*END

*D_NET *561 0.00108907
*CONN
*I *2611:A I *D sky130_fd_sc_hd__clkbuf_1
*I *2610:X O *D sky130_fd_sc_hd__mux2_1
*CAP
1 *2611:A 0.000244453
2 *2610:X 0.000244453
3 *2611:A *2804:A1 8.8266e-05
4 *2611:A *2804:A2 2.49909e-05
5 *2611:A *3263:CLK 7.67415e-06
6 *2611:A *599:10 1.32017e-05
7 *2611:A *599:12 4.11281e-05
8 *2609:A *2611:A 9.428e-05
9 *2805:B1 *2611:A 0.000314445
10 *328:44 *2611:A 1.61831e-05
*RES
1 *2610:X *2611:A 12.705 
*END

*D_NET *562 0.00236792
*CONN
*I *2613:S I *D sky130_fd_sc_hd__mux2_1
*I *2615:S I *D sky130_fd_sc_hd__mux2_1
*I *2612:X O *D sky130_fd_sc_hd__or2_1
*CAP
1 *2613:S 0
2 *2615:S 0.000410074
3 *2612:X 0.000132083
4 *562:14 0.000542157
5 *2615:S *2613:A1 4.99619e-05
6 *2615:S *2614:A 4.80285e-05
7 *562:14 *2613:A1 8.58007e-05
8 *2577:A *2615:S 3.59784e-05
9 *2613:A0 *2615:S 1.34594e-05
10 *2613:A0 *562:14 0.000139646
11 *2729:A2 *2615:S 0.000468238
12 *2808:A2 *562:14 0.000137571
13 *299:32 *562:14 4.82919e-05
14 *350:120 *2615:S 0.000256626
15 *538:22 *562:14 0
*RES
1 *2612:X *562:14 8.99 
2 *562:14 *2615:S 14.645 
3 *562:14 *2613:S 1.6 
*END

*D_NET *563 0.00110526
*CONN
*I *2614:A I *D sky130_fd_sc_hd__clkbuf_1
*I *2613:X O *D sky130_fd_sc_hd__mux2_1
*CAP
1 *2614:A 0.000285155
2 *2613:X 0.000285155
3 *2614:A *2724:A1 1.61831e-05
4 *2614:A *2724:B2 4.82863e-05
5 *2577:A *2614:A 8.65905e-05
6 *2577:B *2614:A 3.96737e-05
7 *2615:S *2614:A 4.80285e-05
8 *2724:A2 *2614:A 4.99619e-05
9 *2724:B1 *2614:A 0.000109947
10 *3262:D *2614:A 0.000136276
*RES
1 *2613:X *2614:A 9.545 
*END

*D_NET *564 0.000341148
*CONN
*I *2616:A I *D sky130_fd_sc_hd__clkbuf_1
*I *2615:X O *D sky130_fd_sc_hd__mux2_1
*CAP
1 *2616:A 5.3193e-05
2 *2615:X 5.3193e-05
3 *2557:A *2616:A 3.02906e-05
4 *3263:D *2616:A 8.09809e-05
5 *328:48 *2616:A 0.00012349
*RES
1 *2615:X *2616:A 4.955 
*END

*D_NET *565 0.000633676
*CONN
*I *2620:S I *D sky130_fd_sc_hd__mux2_1
*I *2618:S I *D sky130_fd_sc_hd__mux2_1
*I *2617:X O *D sky130_fd_sc_hd__or2_1
*CAP
1 *2620:S 0.000103022
2 *2618:S 2.91559e-05
3 *2617:X 1.01446e-05
4 *565:6 0.000142323
5 *2620:S *2805:B2 0
6 *2620:S *3265:CLK 0.000157595
7 *2620:S *870:10 0
8 *187:112 *2618:S 8.23457e-05
9 *187:112 *565:6 3.74161e-05
10 *528:82 *2618:S 4.41506e-05
11 *528:82 *565:6 2.75229e-05
*RES
1 *2617:X *565:6 2.05 
2 *565:6 *2618:S 2.395 
3 *565:6 *2620:S 7.49 
*END

*D_NET *566 0.000860862
*CONN
*I *2619:A I *D sky130_fd_sc_hd__clkbuf_1
*I *2618:X O *D sky130_fd_sc_hd__mux2_1
*CAP
1 *2619:A 0.000211899
2 *2618:X 0.000211899
3 *2619:A *2618:A1 0
4 *2619:A *2727:A1 0
5 *2620:A0 *2619:A 0
6 *2896:A *2619:A 0.00019982
7 *2923:B *2619:A 0.000237243
*RES
1 *2618:X *2619:A 12.15 
*END

*D_NET *567 0.00092691
*CONN
*I *2621:A I *D sky130_fd_sc_hd__clkbuf_1
*I *2620:X O *D sky130_fd_sc_hd__mux2_1
*CAP
1 *2621:A 0.000327551
2 *2620:X 0.000327551
3 *2621:A *3265:CLK 0.000248774
4 *2621:A *3473:A 7.5687e-06
5 *3265:D *2621:A 1.54665e-05
*RES
1 *2620:X *2621:A 11.895 
*END

*D_NET *568 0.00180025
*CONN
*I *2623:S I *D sky130_fd_sc_hd__mux2_1
*I *2625:S I *D sky130_fd_sc_hd__mux2_1
*I *2622:X O *D sky130_fd_sc_hd__or2_1
*CAP
1 *2623:S 2.50078e-05
2 *2625:S 0.0001267
3 *2622:X 0.000163562
4 *568:6 0.00031527
5 *2623:S *2623:A1 4.66108e-05
6 *568:6 *2624:A 8.01216e-05
7 *568:6 *2805:A1 0.000142992
8 *2590:A0 *2625:S 0.000210837
9 *2623:A0 *2623:S 8.34281e-06
10 *2623:A0 *568:6 3.64998e-06
11 *2801:A2 *568:6 8.35118e-05
12 *2802:B1 *2623:S 8.23457e-05
13 *2802:B1 *568:6 0.000193136
14 *202:115 *2625:S 0.000239713
15 *350:120 *2625:S 7.84464e-05
*RES
1 *2622:X *568:6 5.845 
2 *568:6 *2625:S 9.785 
3 *568:6 *2623:S 2.395 
*END

*D_NET *569 0.00136766
*CONN
*I *2624:A I *D sky130_fd_sc_hd__clkbuf_1
*I *2623:X O *D sky130_fd_sc_hd__mux2_1
*CAP
1 *2624:A 0.000479928
2 *2623:X 0.000479928
3 *2624:A *2805:A1 0.000142421
4 *2622:A *2624:A 0.000137252
5 *2801:A2 *2624:A 4.80058e-05
6 *197:134 *2624:A 0
7 *568:6 *2624:A 8.01216e-05
*RES
1 *2623:X *2624:A 14.565 
*END

*D_NET *570 0.000839858
*CONN
*I *2626:A I *D sky130_fd_sc_hd__clkbuf_1
*I *2625:X O *D sky130_fd_sc_hd__mux2_1
*CAP
1 *2626:A 0.000183126
2 *2625:X 0.000183126
3 *2572:A *2626:A 4.77719e-05
4 *2572:B *2626:A 8.65905e-05
5 *2807:B1 *2626:A 0.000100324
6 *2808:A1 *2626:A 9.44791e-05
7 *2808:B1 *2626:A 9.44791e-05
8 *3267:D *2626:A 4.99619e-05
*RES
1 *2625:X *2626:A 11.205 
*END

*D_NET *571 0.00349665
*CONN
*I *2630:S I *D sky130_fd_sc_hd__mux2_1
*I *2628:S I *D sky130_fd_sc_hd__mux2_1
*I *2627:X O *D sky130_fd_sc_hd__or2_1
*CAP
1 *2630:S 0.000398184
2 *2628:S 0.000104814
3 *2627:X 0.000226892
4 *571:18 0.00072989
5 *2628:S *2628:A1 0.000121019
6 *2630:S *2628:A1 0.000121023
7 *2630:S *2790:A1 8.35118e-05
8 *2630:S *3268:CLK 0.000177352
9 *2630:S *3337:A 0.000119873
10 *571:18 *2790:A1 8.23457e-05
11 *571:18 *827:10 2.97593e-05
12 *2595:A0 *2630:S 0.000167527
13 *2628:A0 *2628:S 2.20014e-05
14 *2628:A0 *571:18 0
15 *2755:A2 *2630:S 9.47267e-06
16 *2877:B *571:18 3.79532e-05
17 *174:18 *571:18 0.000293739
18 *322:10 *571:18 0.00042523
19 *328:149 *2630:S 4.72867e-05
20 *415:52 *2630:S 0.00029877
*RES
1 *2627:X *571:18 15.705 
2 *571:18 *2628:S 3.445 
3 *571:18 *2630:S 14.435 
*END

*D_NET *572 0.00142756
*CONN
*I *2629:A I *D sky130_fd_sc_hd__clkbuf_1
*I *2628:X O *D sky130_fd_sc_hd__mux2_1
*CAP
1 *2629:A 0.000238458
2 *2628:X 0.000238458
3 *2629:A *827:10 0.000105887
4 *2632:B *2629:A 0.000127537
5 *3268:D *2629:A 0.000134181
6 *3269:D *2629:A 6.16289e-05
7 *174:18 *2629:A 0.000441758
8 *215:86 *2629:A 6.75416e-05
9 *415:52 *2629:A 1.21166e-05
*RES
1 *2628:X *2629:A 14.505 
*END

*D_NET *573 0.00119264
*CONN
*I *2631:A I *D sky130_fd_sc_hd__clkbuf_1
*I *2630:X O *D sky130_fd_sc_hd__mux2_1
*CAP
1 *2631:A 0.000342599
2 *2630:X 0.000342599
3 *2631:A *2790:A1 0.000274689
4 *2631:A *3268:CLK 4.66108e-05
5 *2631:A *3269:CLK 4.77719e-05
6 *2595:A0 *2631:A 1.41095e-05
7 *2628:A0 *2631:A 1.3758e-05
8 *3269:D *2631:A 5.83121e-06
9 *322:10 *2631:A 0.000104672
*RES
1 *2630:X *2631:A 12.24 
*END

*D_NET *574 0.00214057
*CONN
*I *2633:S I *D sky130_fd_sc_hd__mux2_1
*I *2635:S I *D sky130_fd_sc_hd__mux2_1
*I *2632:X O *D sky130_fd_sc_hd__or2_1
*CAP
1 *2633:S 0.000199949
2 *2635:S 0.000129146
3 *2632:X 0.000229452
4 *574:8 0.000558546
5 *2633:S *3351:A 4.58101e-05
6 *2635:S *2634:A 0
7 *2635:S *3351:A 6.67193e-05
8 *574:8 *3271:CLK 0.000108974
9 *2632:B *574:8 1.79882e-05
10 *3271:D *574:8 7.32433e-05
11 *3281:D *2633:S 0.000175653
12 *316:22 *2633:S 7.23533e-05
13 *356:14 *2633:S 0.000175207
14 *356:14 *2635:S 0.000287528
*RES
1 *2632:X *574:8 6.465 
2 *574:8 *2635:S 7.02 
3 *574:8 *2633:S 7.845 
*END

*D_NET *575 0.0018717
*CONN
*I *2634:A I *D sky130_fd_sc_hd__clkbuf_1
*I *2633:X O *D sky130_fd_sc_hd__mux2_1
*CAP
1 *2634:A 0.000425694
2 *2633:X 0.000425694
3 *2634:A *2635:A1 4.9253e-06
4 *2634:A *2818:A1 6.19801e-05
5 *2634:A *3351:A 0.000355115
6 *2634:A *3361:A 8.65905e-05
7 *2635:S *2634:A 0
8 *3281:D *2634:A 4.66108e-05
9 *211:47 *2634:A 0.000465096
*RES
1 *2633:X *2634:A 17.025 
*END

*D_NET *576 0.0018892
*CONN
*I *2636:A I *D sky130_fd_sc_hd__clkbuf_1
*I *2635:X O *D sky130_fd_sc_hd__mux2_1
*CAP
1 *2636:A 0.000317315
2 *2635:X 0.000317315
3 *2636:A *608:37 0.000619191
4 *2819:A3 *2636:A 0.000426608
5 *2837:A *2636:A 0.000106107
6 *350:48 *2636:A 0
7 *351:95 *2636:A 1.91597e-05
8 *511:24 *2636:A 8.35068e-05
*RES
1 *2635:X *2636:A 15.84 
*END

*D_NET *577 0.000167149
*CONN
*I *2638:A I *D sky130_fd_sc_hd__clkbuf_1
*I *2637:X O *D sky130_fd_sc_hd__clkbuf_1
*CAP
1 *2638:A 5.01476e-05
2 *2637:X 5.01476e-05
3 *2638:A *2637:A 1.85674e-05
4 *2638:A *3293:SET_B 4.82863e-05
*RES
1 *2637:X *2638:A 4.265 
*END

*D_NET *578 0.000973655
*CONN
*I *2641:A I *D sky130_fd_sc_hd__clkbuf_1
*I *2640:X O *D sky130_fd_sc_hd__mux2_1
*CAP
1 *2641:A 0.000345267
2 *2640:X 0.000345267
3 *2641:A *2810:B2 0
4 *2641:A *592:87 9.05377e-05
5 *2641:A *592:102 0.000101179
6 *2641:A *630:16 0
7 *2639:B *2641:A 9.14049e-05
*RES
1 *2640:X *2641:A 13.665 
*END

*D_NET *579 0.00264497
*CONN
*I *2643:B1 I *D sky130_fd_sc_hd__a22o_1
*I *2642:Y O *D sky130_fd_sc_hd__o21ai_1
*CAP
1 *2643:B1 0.0009628
2 *2642:Y 0.0009628
3 *2643:B1 *3277:D 8.65961e-05
4 *2643:B1 *596:44 6.08733e-05
5 *2642:B1 *2643:B1 8.3762e-05
6 *2643:A2 *2643:B1 4.66108e-05
7 *2643:B2 *2643:B1 4.82919e-05
8 *2824:A3 *2643:B1 5.03367e-05
9 *159:20 *2643:B1 0
10 *310:12 *2643:B1 7.36815e-05
11 *310:14 *2643:B1 0.000269218
*RES
1 *2642:Y *2643:B1 16.4291 
*END

*D_NET *580 0.00161934
*CONN
*I *2646:A2 I *D sky130_fd_sc_hd__a221o_1
*I *2644:Y O *D sky130_fd_sc_hd__inv_2
*CAP
1 *2646:A2 0.00061626
2 *2644:Y 0.00061626
3 *2646:A2 *2646:C1 0
4 *2646:A2 *2647:A 1.2818e-05
5 *2646:A2 *3287:CLK 8.8266e-05
6 *2646:A2 *3287:D 0.000120582
7 *2646:A2 *3287:RESET_B 9.31061e-05
8 *2646:A2 *3340:A 8.53113e-06
9 *2646:A2 *630:83 0
10 *2646:A2 *781:16 2.2984e-05
11 *2646:A2 *787:16 0
12 *3451:A *2646:A2 4.05358e-05
*RES
1 *2644:Y *2646:A2 17.9587 
*END

*D_NET *581 0.00122395
*CONN
*I *2646:B2 I *D sky130_fd_sc_hd__a221o_1
*I *2645:Y O *D sky130_fd_sc_hd__inv_2
*CAP
1 *2646:B2 0.000476474
2 *2645:Y 0.000476474
3 *2646:B2 *2646:C1 4.43871e-06
4 *2646:B2 *3340:A 4.40812e-05
5 *2646:B2 *787:16 1.20741e-05
6 *2645:A *2646:B2 0.000210411
*RES
1 *2645:Y *2646:B2 13.6237 
*END

*D_NET *582 0.00272199
*CONN
*I *2648:A1 I *D sky130_fd_sc_hd__mux2_1
*I *2647:Y O *D sky130_fd_sc_hd__inv_2
*CAP
1 *2648:A1 0.000734544
2 *2647:Y 0.000734544
3 *2648:A1 *2648:A0 0.000114649
4 *2648:A1 *2670:B 0
5 *2648:A1 *2674:A2 0.000284281
6 *2648:A1 *3340:A 0
7 *2648:A1 *795:12 0.000164987
8 *2645:A *2648:A1 0.000181456
9 *2674:B1 *2648:A1 0.000507533
10 *2676:A *2648:A1 0
11 *11:29 *2648:A1 0
*RES
1 *2647:Y *2648:A1 23.67 
*END

*D_NET *583 0.000369145
*CONN
*I *2649:A I *D sky130_fd_sc_hd__clkbuf_1
*I *2648:X O *D sky130_fd_sc_hd__mux2_1
*CAP
1 *2649:A 7.86641e-05
2 *2648:X 7.86641e-05
3 *2649:A *641:22 7.51327e-05
4 *11:29 *2649:A 0.000136685
*RES
1 *2648:X *2649:A 9.285 
*END

*D_NET *584 0.000860881
*CONN
*I *2653:A1 I *D sky130_fd_sc_hd__a21oi_1
*I *2652:A1 I *D sky130_fd_sc_hd__o21ai_1
*I *2650:Y O *D sky130_fd_sc_hd__inv_2
*CAP
1 *2653:A1 0
2 *2652:A1 0.000112099
3 *2650:Y 0.000124158
4 *584:12 0.000236257
5 *2652:A1 *2651:B 0
6 *2652:A1 *2652:B1 0.00012657
7 *2652:A1 *2653:B1 4.99619e-05
8 *2652:A1 *2654:A1 6.90876e-05
9 *584:12 *2651:B 4.05358e-05
10 *584:12 *2652:B1 2.54522e-05
11 *584:12 *630:12 7.23602e-05
12 *584:12 *796:16 4.39911e-06
*RES
1 *2650:Y *584:12 7.61 
2 *584:12 *2652:A1 4.39 
3 *584:12 *2653:A1 1.6 
*END

*D_NET *585 0.000421401
*CONN
*I *2652:B1 I *D sky130_fd_sc_hd__o21ai_1
*I *2651:Y O *D sky130_fd_sc_hd__xnor2_1
*CAP
1 *2652:B1 6.48397e-05
2 *2651:Y 6.48397e-05
3 *2652:B1 *2651:A 0
4 *2652:B1 *2651:B 4.00541e-06
5 *2652:B1 *2654:A1 4.99619e-05
6 *2652:B1 *796:16 8.57321e-05
7 *2652:A1 *2652:B1 0.00012657
8 *584:12 *2652:B1 2.54522e-05
*RES
1 *2651:Y *2652:B1 5.39 
*END

*D_NET *586 9.40065e-05
*CONN
*I *2653:B1 I *D sky130_fd_sc_hd__a21oi_1
*I *2652:Y O *D sky130_fd_sc_hd__o21ai_1
*CAP
1 *2653:B1 2.20223e-05
2 *2652:Y 2.20223e-05
3 *2652:A1 *2653:B1 4.99619e-05
*RES
1 *2652:Y *2653:B1 3.65 
*END

*D_NET *587 0.00139504
*CONN
*I *2654:A1 I *D sky130_fd_sc_hd__mux2_1
*I *2653:Y O *D sky130_fd_sc_hd__a21oi_1
*CAP
1 *2654:A1 0.000288972
2 *2653:Y 0.000288972
3 *2654:A1 *2654:S 3.7837e-05
4 *2654:A1 *796:16 4.82863e-05
5 *2652:A1 *2654:A1 6.90876e-05
6 *2652:B1 *2654:A1 4.99619e-05
7 *315:12 *2654:A1 0.000611924
*RES
1 *2653:Y *2654:A1 10.565 
*END

*D_NET *588 0.00107809
*CONN
*I *2655:A I *D sky130_fd_sc_hd__clkbuf_1
*I *2654:X O *D sky130_fd_sc_hd__mux2_1
*CAP
1 *2655:A 0.000315464
2 *2654:X 0.000315464
3 *2655:A *2654:A0 2.93447e-05
4 *2655:A *3272:CLK 4.82919e-05
5 *2655:A *3272:RESET_B 0
6 *2655:A *3287:CLK 2.49909e-05
7 *2655:A *592:115 0.000141599
8 *2655:A *592:139 0.000116853
9 *2655:A *630:83 0
10 *2655:A *783:12 7.23533e-05
11 *3272:D *2655:A 1.37328e-05
*RES
1 *2654:X *2655:A 13.11 
*END

*D_NET *589 0.000774529
*CONN
*I *3144:D I *D sky130_fd_sc_hd__dfrtp_1
*I *2824:X O *D sky130_fd_sc_hd__a32o_1
*CAP
1 *3144:D 0.0001509
2 *2824:X 0.0001509
3 *3144:D *2824:A2 0.000136909
4 *3144:D *3301:A 0.000139862
5 *3144:D *3313:A 0.0001249
6 *3144:D *596:61 7.10578e-05
*RES
1 *2824:X *3144:D 12.27 
*END

*D_NET *590 0.0523463
*CONN
*I *3309:A I *D sky130_fd_sc_hd__clkbuf_8
*I *3308:A I *D sky130_fd_sc_hd__clkbuf_8
*I *3306:A I *D sky130_fd_sc_hd__clkbuf_8
*I *3307:A I *D sky130_fd_sc_hd__clkbuf_8
*I *3302:A I *D sky130_fd_sc_hd__clkbuf_8
*I *3300:A I *D sky130_fd_sc_hd__clkbuf_8
*I *3299:A I *D sky130_fd_sc_hd__clkbuf_8
*I *3311:A I *D sky130_fd_sc_hd__clkbuf_8
*I *3310:A I *D sky130_fd_sc_hd__clkbuf_8
*I *3301:A I *D sky130_fd_sc_hd__clkbuf_8
*I *3298:A I *D sky130_fd_sc_hd__clkbuf_8
*I *3297:A I *D sky130_fd_sc_hd__clkbuf_8
*I *3303:A I *D sky130_fd_sc_hd__clkbuf_8
*I *3296:A I *D sky130_fd_sc_hd__clkbuf_8
*I *3305:A I *D sky130_fd_sc_hd__clkbuf_8
*I *3304:A I *D sky130_fd_sc_hd__clkbuf_8
*I *3295:X O *D sky130_fd_sc_hd__clkbuf_16
*CAP
1 *3309:A 0.000258961
2 *3308:A 1.40171e-05
3 *3306:A 0
4 *3307:A 0.000250992
5 *3302:A 0.0010521
6 *3300:A 0.00027167
7 *3299:A 4.42331e-05
8 *3311:A 0
9 *3310:A 0
10 *3301:A 0.00166221
11 *3298:A 0
12 *3297:A 0
13 *3303:A 4.26508e-05
14 *3296:A 9.83644e-05
15 *3305:A 2.51931e-05
16 *3304:A 2.42333e-05
17 *3295:X 4.17751e-05
18 *590:246 0.000400598
19 *590:222 0.00168581
20 *590:208 0.0029735
21 *590:176 0.00204028
22 *590:161 0.00136408
23 *590:157 0.00337598
24 *590:121 0.00191056
25 *590:108 0.00219554
26 *590:92 0.00219674
27 *590:86 0.00082149
28 *590:52 0.00118835
29 *590:35 0.00113057
30 *590:24 0.00201154
31 *590:18 0.00425442
32 *590:14 0.00315657
33 *3299:A *715:20 5.83121e-06
34 *3300:A *3141:CLK 8.49205e-05
35 *3301:A *2664:C1 0
36 *3301:A *2824:A2 0
37 *3301:A *2870:B1_N 0
38 *3301:A *3277:D 0
39 *3301:A *3278:D 5.63701e-05
40 *3301:A *3279:D 0
41 *3301:A *3280:RESET_B 0
42 *3301:A *593:34 0.000173547
43 *3301:A *596:12 0.000204907
44 *3301:A *652:63 0
45 *3301:A *674:20 0
46 *3307:A *3192:CLK 3.66286e-05
47 *3307:A *602:10 8.8266e-05
48 *3308:A *3360:A 1.4389e-05
49 *3308:A *603:8 4.82863e-05
50 *3309:A *2976:A0 0.000125362
51 *3309:A *3360:A 2.01259e-05
52 *3309:A *603:8 7.24717e-05
53 *590:14 *3125:A0 1.88656e-05
54 *590:86 *3447:A 0.000194251
55 *590:92 *2812:A1 9.47454e-05
56 *590:92 *3447:A 3.25831e-05
57 *590:92 *737:46 0.00048947
58 *590:92 *899:10 2.01259e-05
59 *590:108 *630:12 1.92979e-05
60 *590:121 *2660:A_N 0
61 *590:121 *593:14 0.000187766
62 *590:121 *593:34 9.50342e-06
63 *590:121 *630:12 0
64 *590:121 *682:14 0
65 *590:208 *737:24 0
66 *590:246 *2775:A1 0
67 *2567:A *590:24 0.000539792
68 *2567:A *590:52 0.00181855
69 *2590:A0 *3296:A 1.37328e-05
70 *2666:B *3301:A 0
71 *2666:B *590:121 0
72 *2673:B1 *3301:A 0
73 *2677:B *3301:A 8.08439e-05
74 *2729:A2 *3296:A 0.00010415
75 *2730:A2 *3309:A 0.00010231
76 *2730:A2 *590:246 0.00029239
77 *2762:A *590:86 0.000321101
78 *2762:A *590:92 0.000116158
79 *2763:B1 *590:18 0.00160631
80 *2763:B1 *590:24 1.97172e-05
81 *2763:B1 *590:86 8.78547e-05
82 *2763:B1 *590:157 0.000741211
83 *2807:C1 *3303:A 7.86245e-05
84 *2824:A1 *3301:A 0
85 *2824:B1 *3301:A 0.000185398
86 *2848:B1_N *3301:A 8.08153e-06
87 *2851:B_N *3300:A 0.000172401
88 *2863:B2 *3300:A 0.000159964
89 *2941:B *590:18 0
90 *2941:B *590:157 0
91 *2941:B *590:208 0
92 *2944:A0 *590:86 3.1388e-05
93 *3018:A1 *590:222 0.000418802
94 *3059:A *3299:A 1.88602e-05
95 *3066:A0 *590:208 0.000450004
96 *3070:A *590:208 0.00198426
97 *3070:A *590:222 0.00160166
98 *3080:A *590:222 9.34773e-06
99 *3083:S *3307:A 8.49205e-05
100 *3136:D *3301:A 7.21296e-06
101 *3144:D *3301:A 0.000139862
102 *3176:D *590:246 0.000188395
103 *3192:D *590:222 0.000154509
104 *3193:D *590:222 4.69214e-05
105 *187:64 *590:14 2.05641e-05
106 *187:98 *590:86 0
107 *202:115 *3296:A 6.01508e-05
108 *211:14 *3300:A 0
109 *211:85 *590:52 0.000156133
110 *215:68 *3300:A 0.000112916
111 *215:108 *3296:A 8.65961e-05
112 *215:108 *590:52 8.35368e-05
113 *218:24 *590:208 0.000586337
114 *218:24 *590:222 0.00021407
115 *285:16 *590:222 0
116 *299:32 *3304:A 4.66108e-05
117 *313:10 *3301:A 0.000324278
118 *317:25 *3300:A 8.53113e-06
119 *330:28 *3302:A 0.0001222
120 *338:10 *3302:A 0.000132951
121 *338:29 *3302:A 4.11685e-05
122 *345:16 *590:176 0.000101916
123 *350:48 *590:108 1.79483e-05
124 *350:62 *590:14 4.12356e-05
125 *355:10 *3299:A 5.05716e-06
126 *395:57 *590:24 1.93765e-05
127 *395:57 *590:35 0.000194773
128 *395:57 *590:52 1.0145e-05
129 *403:49 *590:157 0.00026392
130 *403:49 *590:208 3.61405e-05
131 *403:53 *590:18 0.000137217
132 *419:136 *3300:A 0.000101936
133 *419:136 *590:161 6.6e-05
134 *419:136 *590:176 4.08906e-05
135 *419:144 *590:161 1.41941e-05
136 *430:64 *3307:A 0
137 *430:64 *590:222 0.000103637
138 *442:58 *3307:A 0
139 *445:21 *3307:A 0.000137687
140 *445:23 *3307:A 0.000106368
141 *474:18 *590:161 0.000487031
142 *474:49 *590:222 3.01288e-05
143 *511:150 *590:108 7.65551e-05
144 *528:28 *3305:A 4.66108e-05
145 *528:62 *590:24 1.79483e-05
146 *528:62 *590:35 0.000200994
147 *528:62 *590:52 1.7635e-05
*RES
1 *3295:X *590:14 4.89963 
2 *590:14 *590:18 4.06947 
3 *590:18 *590:24 4.29563 
4 *590:24 *3304:A 4.05 
5 *590:24 *590:35 2.4 
6 *590:35 *3305:A 4.05 
7 *590:35 *590:52 4.00903 
8 *590:52 *3296:A 6.0075 
9 *590:52 *3303:A 4.33125 
10 *590:18 *590:86 5.11443 
11 *590:86 *590:92 7.97 
12 *590:92 *590:108 11.1694 
13 *590:108 *3297:A 1.6 
14 *590:108 *590:121 6.485 
15 *590:121 *3298:A 3.6 
16 *590:121 *3301:A 34.995 
17 *590:92 *3310:A 1.6 
18 *590:86 *3311:A 3.6 
19 *590:14 *590:157 2.44973 
20 *590:157 *590:161 1.6742 
21 *590:161 *3299:A 4.7825 
22 *590:161 *590:176 1.31987 
23 *590:176 *3300:A 10.4825 
24 *590:176 *3302:A 9.7687 
25 *590:157 *590:208 4.72687 
26 *590:208 *590:222 13.1048 
27 *590:222 *3307:A 11.21 
28 *590:222 *3306:A 1.6 
29 *590:208 *590:246 6.0475 
30 *590:246 *3308:A 2.05 
31 *590:246 *3309:A 9.95 
*END

*D_NET *591 0.01104
*CONN
*I *3262:CLK I *D sky130_fd_sc_hd__dfxtp_1
*I *3241:CLK I *D sky130_fd_sc_hd__dfxtp_1
*I *3245:CLK I *D sky130_fd_sc_hd__dfxtp_1
*I *3244:CLK I *D sky130_fd_sc_hd__dfxtp_1
*I *3240:CLK I *D sky130_fd_sc_hd__dfxtp_1
*I *3247:CLK I *D sky130_fd_sc_hd__dfxtp_1
*I *3246:CLK I *D sky130_fd_sc_hd__dfxtp_1
*I *3256:CLK I *D sky130_fd_sc_hd__dfxtp_1
*I *3257:CLK I *D sky130_fd_sc_hd__dfxtp_1
*I *3248:CLK I *D sky130_fd_sc_hd__dfxtp_1
*I *3296:X O *D sky130_fd_sc_hd__clkbuf_8
*CAP
1 *3262:CLK 0.000164169
2 *3241:CLK 0
3 *3245:CLK 3.55506e-05
4 *3244:CLK 0.000216968
5 *3240:CLK 0.000144075
6 *3247:CLK 8.60811e-05
7 *3246:CLK 3.37454e-05
8 *3256:CLK 0.000414749
9 *3257:CLK 0.000191656
10 *3248:CLK 0.000686363
11 *3296:X 0.000386013
12 *591:92 0.000992889
13 *591:26 0.00101048
14 *591:24 0.000680931
15 *591:22 0.000352968
16 *591:20 0.000632654
17 *591:18 0.00061337
18 *591:16 0.000848591
19 *591:14 0.00039709
20 *591:10 0.000947272
21 *3257:CLK *3473:A 0.000167577
22 *591:10 *2580:A0 9.30787e-05
23 *591:10 *2724:B2 1.64907e-05
24 *591:10 *598:29 1.07797e-05
25 *591:92 *3345:A 2.66935e-05
26 *591:92 *812:8 2.77183e-05
27 *2559:A *591:14 0.000246466
28 *2561:A *591:92 3.86529e-05
29 *2568:S *591:92 0
30 *2571:A *591:92 2.34083e-05
31 *2574:A *3247:CLK 0.0001249
32 *2574:A *591:20 0
33 *2574:A *591:22 0
34 *2601:A *3256:CLK 2.86975e-05
35 *2724:A2 *591:10 0
36 *2807:C1 *591:10 0
37 *3240:D *3240:CLK 7.82691e-05
38 *3240:D *591:18 0
39 *3241:D *591:14 0.000111993
40 *3244:D *3244:CLK 9.20132e-05
41 *3245:D *591:92 0.000124408
42 *3246:D *591:22 4.05358e-05
43 *3257:D *3256:CLK 1.71824e-05
44 *3262:D *3262:CLK 0.000120655
45 *197:134 *591:10 0
46 *215:108 *591:10 0
47 *358:36 *591:10 0.000205556
48 *358:57 *591:10 4.83324e-05
49 *511:30 *3262:CLK 8.79923e-05
50 *511:30 *591:14 0.00023635
51 *511:34 *591:14 0.000236648
52 *511:66 *591:92 0
*RES
1 *3296:X *591:10 13.355 
2 *591:10 *591:14 9.435 
3 *591:14 *591:16 2 
4 *591:16 *591:18 1.635 
5 *591:18 *591:20 5.97 
6 *591:20 *591:22 2.655 
7 *591:22 *591:24 2.145 
8 *591:24 *591:26 2.145 
9 *591:26 *3248:CLK 13.785 
10 *591:26 *3257:CLK 7.5 
11 *591:24 *3256:CLK 9.915 
12 *591:22 *3246:CLK 4.05 
13 *591:20 *3247:CLK 5.355 
14 *591:18 *3240:CLK 5.79 
15 *591:16 *591:92 11.645 
16 *591:92 *3244:CLK 8.915 
17 *591:92 *3245:CLK 2.215 
18 *591:14 *3241:CLK 1.6 
19 *591:10 *3262:CLK 4.81 
*END

*D_NET *592 0.0151123
*CONN
*I *3281:CLK I *D sky130_fd_sc_hd__dfrtp_1
*I *3270:CLK I *D sky130_fd_sc_hd__dfxtp_1
*I *3271:CLK I *D sky130_fd_sc_hd__dfxtp_1
*I *3173:CLK I *D sky130_fd_sc_hd__dfxtp_1
*I *3286:CLK I *D sky130_fd_sc_hd__dfrtp_1
*I *3287:CLK I *D sky130_fd_sc_hd__dfrtp_1
*I *3272:CLK I *D sky130_fd_sc_hd__dfrtp_1
*I *3294:CLK I *D sky130_fd_sc_hd__dfrtp_1
*I *3293:CLK I *D sky130_fd_sc_hd__dfstp_1
*I *3282:CLK I *D sky130_fd_sc_hd__dfrtp_4
*I *3283:CLK I *D sky130_fd_sc_hd__dfrtp_1
*I *3171:CLK I *D sky130_fd_sc_hd__dfxtp_1
*I *3170:CLK I *D sky130_fd_sc_hd__dfxtp_1
*I *3147:CLK I *D sky130_fd_sc_hd__dfxtp_1
*I *3175:CLK I *D sky130_fd_sc_hd__dfxtp_1
*I *3297:X O *D sky130_fd_sc_hd__clkbuf_8
*CAP
1 *3281:CLK 0
2 *3270:CLK 0
3 *3271:CLK 0.000373808
4 *3173:CLK 5.96198e-05
5 *3286:CLK 0.000194084
6 *3287:CLK 8.19502e-05
7 *3272:CLK 2.11983e-05
8 *3294:CLK 0.000250854
9 *3293:CLK 0
10 *3282:CLK 2.42846e-05
11 *3283:CLK 0
12 *3171:CLK 0.000114031
13 *3170:CLK 5.07026e-05
14 *3147:CLK 1.41866e-05
15 *3175:CLK 0.000206607
16 *3297:X 0.000712079
17 *592:139 0.000358875
18 *592:115 0.000393883
19 *592:113 0.000529798
20 *592:102 0.000730428
21 *592:87 0.000639247
22 *592:76 0.000356946
23 *592:32 0.00037404
24 *592:30 0.000275996
25 *592:28 0.000352574
26 *592:26 0.000386601
27 *592:24 0.000466405
28 *592:22 0.000732964
29 *592:18 0.00011349
30 *592:16 0.000800376
31 *3170:CLK *2878:A1 4.80285e-05
32 *3171:CLK *2954:A1 0.000141971
33 *3173:CLK *2737:A2 4.9253e-06
34 *3175:CLK *2968:A1 0
35 *3175:CLK *3357:A 2.30292e-05
36 *3271:CLK *2818:A1 0.000158313
37 *3271:CLK *3361:A 5.88217e-05
38 *3271:CLK *619:62 0
39 *3286:CLK *2654:S 0.000139245
40 *3286:CLK *3286:D 8.53856e-06
41 *3286:CLK *630:73 7.54478e-05
42 *3286:CLK *630:81 0
43 *3286:CLK *783:12 1.52184e-05
44 *3287:CLK *2654:A0 8.49205e-05
45 *592:24 *2731:A2 0.000170484
46 *592:24 *2818:A1 0.000138961
47 *592:24 *3361:A 0.000101523
48 *592:24 *737:46 0.000274636
49 *592:26 *2731:A2 0.000172838
50 *592:28 *2731:A2 8.53113e-06
51 *592:28 *2731:B2 7.18346e-05
52 *592:28 *2810:B2 0
53 *592:28 *2956:A1 9.05535e-05
54 *592:30 *2731:B2 5.94427e-05
55 *592:32 *2731:B2 3.35338e-05
56 *592:32 *2878:A1 5.20968e-05
57 *592:32 *2882:A1 4.05358e-05
58 *592:32 *2968:A1 0
59 *592:32 *921:10 3.04982e-05
60 *592:76 *693:24 9.17869e-05
61 *592:87 *2810:B2 0
62 *592:87 *693:24 0.000104803
63 *592:102 *2640:A1 0.000273114
64 *592:102 *2810:B2 0
65 *592:113 *3293:SET_B 2.91561e-06
66 *592:115 *3272:RESET_B 0
67 *592:139 *783:12 2.42236e-05
68 *2632:A *3271:CLK 5.23546e-05
69 *2632:B *3271:CLK 6.69608e-06
70 *2639:A *592:102 0
71 *2639:B *3282:CLK 2.75229e-05
72 *2639:B *592:102 0.000217192
73 *2641:A *592:87 9.05377e-05
74 *2641:A *592:102 0.000101179
75 *2646:A2 *3287:CLK 8.8266e-05
76 *2655:A *3272:CLK 4.82919e-05
77 *2655:A *3287:CLK 2.49909e-05
78 *2655:A *592:115 0.000141599
79 *2655:A *592:139 0.000116853
80 *2810:C1 *592:24 2.75451e-05
81 *2810:C1 *592:26 6.23288e-05
82 *2810:C1 *592:76 0.0001249
83 *2883:A *3175:CLK 0.000139238
84 *2883:A *592:32 0.000116165
85 *2957:A *592:28 0.000111293
86 *2963:A *592:76 0.000122821
87 *2969:A *3147:CLK 8.65905e-05
88 *3147:D *3147:CLK 8.65905e-05
89 *3170:D *3170:CLK 5.05437e-05
90 *3171:D *3171:CLK 8.71823e-05
91 *3171:D *592:28 7.15571e-05
92 *3171:D *592:30 1.46781e-05
93 *3175:D *3175:CLK 0.000313834
94 *3270:D *592:18 4.66108e-05
95 *3270:D *592:22 4.66108e-05
96 *3271:D *3271:CLK 7.20896e-05
97 *163:32 *592:102 0.000630999
98 *163:32 *592:113 0.000206158
99 *315:22 *592:102 6.52265e-05
100 *316:22 *3271:CLK 0.000131088
101 *350:20 *592:24 9.30787e-05
102 *350:48 *3173:CLK 0.000118081
103 *351:150 *592:24 0
104 *359:111 *592:28 2.70314e-05
105 *359:119 *592:28 2.41554e-05
106 *359:119 *592:30 4.46958e-05
107 *359:119 *592:32 5.09385e-05
108 *574:8 *3271:CLK 0.000108974
*RES
1 *3297:X *592:16 10.75 
2 *592:16 *592:18 1.485 
3 *592:18 *592:22 2.45 
4 *592:22 *592:24 8.265 
5 *592:24 *592:26 2.145 
6 *592:26 *592:28 4.44 
7 *592:28 *592:30 1.89 
8 *592:30 *592:32 4.185 
9 *592:32 *3175:CLK 8.37 
10 *592:32 *3147:CLK 4.395 
11 *592:30 *3170:CLK 4.74 
12 *592:28 *3171:CLK 6.12 
13 *592:26 *592:76 5.555 
14 *592:76 *3283:CLK 1.6 
15 *592:76 *592:87 6.41 
16 *592:87 *3282:CLK 4.05 
17 *592:87 *592:102 13.22 
18 *592:102 *3293:CLK 1.6 
19 *592:102 *592:113 7.64 
20 *592:113 *592:115 2.145 
21 *592:115 *3294:CLK 7.41 
22 *592:115 *3272:CLK 4.05 
23 *592:113 *592:139 1.89 
24 *592:139 *3287:CLK 5.43 
25 *592:139 *3286:CLK 7.14 
26 *592:24 *3173:CLK 4.74 
27 *592:22 *3271:CLK 11.46 
28 *592:18 *3270:CLK 1.6 
29 *592:16 *3281:CLK 1.6 
*END

*D_NET *593 0.0126207
*CONN
*I *3279:CLK I *D sky130_fd_sc_hd__dfrtp_1
*I *3284:CLK I *D sky130_fd_sc_hd__dfrtp_1
*I *3288:CLK I *D sky130_fd_sc_hd__dfrtp_1
*I *3291:CLK I *D sky130_fd_sc_hd__dfrtp_4
*I *3289:CLK I *D sky130_fd_sc_hd__dfrtp_2
*I *3145:CLK I *D sky130_fd_sc_hd__dfrtp_1
*I *3180:CLK I *D sky130_fd_sc_hd__dfxtp_1
*I *3178:CLK I *D sky130_fd_sc_hd__dfxtp_1
*I *3268:CLK I *D sky130_fd_sc_hd__dfxtp_1
*I *3179:CLK I *D sky130_fd_sc_hd__dfxtp_1
*I *3290:CLK I *D sky130_fd_sc_hd__dfrtp_1
*I *3280:CLK I *D sky130_fd_sc_hd__dfrtp_1
*I *3298:X O *D sky130_fd_sc_hd__clkbuf_8
*CAP
1 *3279:CLK 0
2 *3284:CLK 0
3 *3288:CLK 8.81132e-05
4 *3291:CLK 0
5 *3289:CLK 0.000127059
6 *3145:CLK 0
7 *3180:CLK 0
8 *3178:CLK 1.80269e-05
9 *3268:CLK 0.00033544
10 *3179:CLK 0.000125308
11 *3290:CLK 0.00019819
12 *3280:CLK 0.000577438
13 *3298:X 0.000253422
14 *593:95 0.000594674
15 *593:91 0.000967702
16 *593:84 0.000757683
17 *593:77 0.000612956
18 *593:57 0.000834887
19 *593:51 0.000847881
20 *593:40 0.000398265
21 *593:34 0.000295834
22 *593:14 0.000865541
23 *593:10 0.000212003
24 *593:8 0.000253422
25 *3268:CLK *2630:A1 0.000344372
26 *3268:CLK *2790:A1 5.11708e-05
27 *3280:CLK *3280:RESET_B 0.000383352
28 *3288:CLK *3145:RESET_B 0.000103982
29 *3289:CLK *2657:B 0
30 *3289:CLK *2658:A 2.11084e-05
31 *3289:CLK *2659:A 1.0555e-05
32 *3289:CLK *3291:D 5.13029e-05
33 *3289:CLK *795:54 4.82919e-05
34 *3290:CLK *2670:B 8.82096e-05
35 *3290:CLK *3290:D 4.375e-05
36 *593:14 *3280:RESET_B 0
37 *593:34 *3279:D 6.4422e-05
38 *593:34 *3280:RESET_B 0
39 *593:34 *3284:D 6.74794e-05
40 *593:34 *630:42 8.57321e-05
41 *593:40 *3280:RESET_B 0.000206817
42 *593:40 *3284:D 6.97118e-05
43 *593:40 *630:8 0.000117825
44 *593:40 *630:42 7.22354e-05
45 *593:40 *652:63 0.00012904
46 *593:51 *652:63 0.000203576
47 *593:57 *885:10 8.64599e-05
48 *593:77 *652:63 0.0005278
49 *593:91 *3145:RESET_B 2.91561e-06
50 *593:95 *2659:A 6.61068e-05
51 *593:95 *786:12 5.99655e-05
52 *2630:A0 *3268:CLK 0.000119873
53 *2630:S *3268:CLK 0.000177352
54 *2631:A *3268:CLK 4.66108e-05
55 *2662:A *593:95 7.59067e-05
56 *2666:B *593:8 4.65607e-05
57 *2667:A *3290:CLK 0.000122325
58 *2673:C1 *593:95 2.01644e-05
59 *3178:D *3178:CLK 9.12671e-06
60 *3178:D *3268:CLK 2.69153e-05
61 *3178:D *593:57 9.26654e-05
62 *3180:D *593:77 0
63 *3292:D *593:95 0
64 *3301:A *593:34 0.000173547
65 *316:22 *3280:CLK 0.000242345
66 *590:121 *593:14 0.000187766
67 *590:121 *593:34 9.50342e-06
*RES
1 *3298:X *593:8 5.17 
2 *593:8 *593:10 2 
3 *593:10 *593:14 4.145 
4 *593:14 *3280:CLK 12.4 
5 *593:14 *3290:CLK 5.5 
6 *593:10 *593:34 5.63 
7 *593:34 *593:40 7.07 
8 *593:40 *3179:CLK 5.43 
9 *593:40 *593:51 2.4 
10 *593:51 *593:57 9.365 
11 *593:57 *3268:CLK 8.965 
12 *593:57 *3178:CLK 1.96 
13 *593:51 *593:77 8.225 
14 *593:77 *3180:CLK 1.6 
15 *593:77 *593:84 4.935 
16 *593:84 *3145:CLK 1.6 
17 *593:84 *593:91 5.625 
18 *593:91 *593:95 10.265 
19 *593:95 *3289:CLK 6.195 
20 *593:95 *3291:CLK 3.6 
21 *593:91 *3288:CLK 3.43 
22 *593:34 *3284:CLK 1.6 
23 *593:8 *3279:CLK 1.6 
*END

*D_NET *594 0.012519
*CONN
*I *3276:CLK I *D sky130_fd_sc_hd__dfrtp_4
*I *3141:CLK I *D sky130_fd_sc_hd__dfrtp_4
*I *3210:CLK I *D sky130_fd_sc_hd__dfxtp_1
*I *3236:CLK I *D sky130_fd_sc_hd__dfxtp_1
*I *3237:CLK I *D sky130_fd_sc_hd__dfxtp_1
*I *3232:CLK I *D sky130_fd_sc_hd__dfxtp_1
*I *3233:CLK I *D sky130_fd_sc_hd__dfxtp_1
*I *3299:X O *D sky130_fd_sc_hd__clkbuf_8
*CAP
1 *3276:CLK 0.000406993
2 *3141:CLK 0.00013636
3 *3210:CLK 0.00022801
4 *3236:CLK 0
5 *3237:CLK 0
6 *3232:CLK 9.11903e-05
7 *3233:CLK 0.000285189
8 *3299:X 0
9 *594:83 0.000927588
10 *594:26 0.000637365
11 *594:22 0.00082038
12 *594:14 0.000852057
13 *594:12 0.000709086
14 *594:4 0.000572649
15 *3141:CLK *595:10 0.000416823
16 *3210:CLK *3314:A 0.000133453
17 *3210:CLK *775:57 4.66108e-05
18 *3210:CLK *775:61 0.000132946
19 *3276:CLK *2719:A_N 3.24029e-05
20 *3276:CLK *2719:B 4.40519e-06
21 *3276:CLK *2719:C 2.49909e-05
22 *3276:CLK *3273:RESET_B 4.62396e-05
23 *3276:CLK *607:12 0.000358937
24 *3276:CLK *663:8 3.59997e-05
25 *3276:CLK *663:92 4.87458e-05
26 *3276:CLK *773:24 0
27 *2709:B1 *594:22 0.000301503
28 *2757:A3 *3233:CLK 0.000101813
29 *2791:C *3232:CLK 0.000155497
30 *2800:C1 *3232:CLK 1.05984e-05
31 *2800:C1 *3233:CLK 0.000157726
32 *2833:A *3276:CLK 7.61039e-05
33 *3042:A *3276:CLK 0.000484204
34 *3042:A *594:83 5.16418e-05
35 *3066:A0 *3276:CLK 1.86021e-05
36 *3066:A0 *594:83 0.000227668
37 *3067:A *3210:CLK 0.000158532
38 *3122:A *594:26 1.79483e-05
39 *3210:D *3210:CLK 0.00015492
40 *3232:D *3232:CLK 6.21763e-05
41 *3232:D *594:26 0.000366494
42 *3233:D *3233:CLK 0.000127419
43 *3236:D *594:22 6.00132e-05
44 *3295:A *3233:CLK 1.92979e-05
45 *3300:A *3141:CLK 8.49205e-05
46 *187:64 *594:22 0.000296891
47 *187:64 *594:26 0.000284181
48 *202:14 *3233:CLK 4.98863e-05
49 *215:68 *3276:CLK 0.000133255
50 *231:98 *3233:CLK 1.92979e-05
51 *317:38 *3141:CLK 0.00015639
52 *319:10 *3276:CLK 0
53 *345:16 *594:83 0.000104463
54 *370:54 *594:22 0.000208603
55 *370:54 *594:26 0.000285726
56 *407:14 *594:83 0.000477053
57 *415:27 *594:12 9.91348e-05
58 *415:52 *3210:CLK 8.35118e-05
59 *430:24 *3232:CLK 0.000167346
60 *430:24 *3233:CLK 0.000237459
61 *474:6 *3210:CLK 6.07575e-06
62 *474:12 *3210:CLK 1.98144e-05
63 *474:12 *594:14 0.000188258
64 *515:10 *594:26 0.000116165
*RES
1 *3299:X *594:4 1.6 
2 *594:4 *594:12 7.285 
3 *594:12 *594:14 5.28 
4 *594:14 *594:22 11.225 
5 *594:22 *594:26 10.01 
6 *594:26 *3233:CLK 13.79 
7 *594:26 *3232:CLK 4.465 
8 *594:22 *3237:CLK 3.6 
9 *594:14 *3236:CLK 1.6 
10 *594:12 *3210:CLK 11.255 
11 *594:4 *594:83 11.09 
12 *594:83 *3141:CLK 7.5 
13 *594:83 *3276:CLK 14.97 
*END

*D_NET *595 0.0104894
*CONN
*I *3140:CLK I *D sky130_fd_sc_hd__dfrtp_2
*I *3273:CLK I *D sky130_fd_sc_hd__dfrtp_4
*I *3202:CLK I *D sky130_fd_sc_hd__dfxtp_1
*I *3203:CLK I *D sky130_fd_sc_hd__dfxtp_1
*I *3207:CLK I *D sky130_fd_sc_hd__dfxtp_1
*I *3206:CLK I *D sky130_fd_sc_hd__dfxtp_1
*I *3275:CLK I *D sky130_fd_sc_hd__dfrtp_4
*I *3139:CLK I *D sky130_fd_sc_hd__dfrtp_1
*I *3138:CLK I *D sky130_fd_sc_hd__dfrtp_1
*I *3300:X O *D sky130_fd_sc_hd__clkbuf_8
*CAP
1 *3140:CLK 0.00010738
2 *3273:CLK 5.21203e-05
3 *3202:CLK 9.79125e-05
4 *3203:CLK 0.000114389
5 *3207:CLK 0
6 *3206:CLK 0
7 *3275:CLK 3.19404e-05
8 *3139:CLK 1.65033e-05
9 *3138:CLK 4.83661e-05
10 *3300:X 0.000363217
11 *595:97 0.000643826
12 *595:82 0.000792329
13 *595:65 0.00108798
14 *595:55 0.00096181
15 *595:38 0.000347542
16 *595:36 0.000327862
17 *595:23 0.000170617
18 *595:10 0.000478306
19 *3138:CLK *770:14 5.3203e-05
20 *3139:CLK *2831:A 2.49909e-05
21 *3139:CLK *773:18 4.66108e-05
22 *3140:CLK *663:24 5.90938e-05
23 *3203:CLK *3335:A 5.6361e-05
24 *3203:CLK *856:6 3.45588e-05
25 *3273:CLK *3273:D 6.77501e-05
26 *3275:CLK *663:24 1.83756e-05
27 *595:36 *2831:A 4.94404e-05
28 *595:36 *3274:RESET_B 0
29 *595:38 *663:24 5.68668e-05
30 *595:55 *2719:B 0
31 *595:55 *3273:RESET_B 0
32 *595:55 *3275:D 0.000138188
33 *595:55 *799:12 0
34 *595:65 *2719:B 0.000105841
35 *595:65 *2719:D 1.83756e-05
36 *595:65 *3273:D 5.83121e-06
37 *595:65 *3275:D 2.8185e-05
38 *595:65 *607:12 0
39 *595:82 *2697:A1 0.000194299
40 *595:82 *2697:B2 7.84211e-05
41 *595:82 *3446:A 0.00040736
42 *595:97 *2765:A1 0
43 *595:97 *2766:A1 3.3154e-05
44 *595:97 *2766:B2 1.33285e-05
45 *595:97 *3050:A1 0.000104542
46 *2697:C1 *595:82 9.12671e-06
47 *2765:A2 *595:97 9.44319e-05
48 *2766:A2 *595:97 6.8725e-06
49 *2766:B1 *595:97 2.49909e-05
50 *2766:C1 *595:82 3.12855e-05
51 *2857:B1 *595:10 6.10014e-05
52 *2859:A *3138:CLK 8.57024e-05
53 *2859:A *595:10 9.50342e-06
54 *2859:A *595:23 0.000180682
55 *2859:A *595:36 0.00015997
56 *3043:A0 *595:82 0.00017664
57 *3046:A *3202:CLK 0.000149609
58 *3046:A *595:97 6.55328e-05
59 *3050:S *595:97 4.70891e-05
60 *3053:A0 *595:82 7.40277e-05
61 *3056:A *595:82 0.000122817
62 *3139:D *595:10 0.000254385
63 *3140:D *595:36 0
64 *3141:CLK *595:10 0.000416823
65 *3203:D *3202:CLK 5.12859e-05
66 *3203:D *3203:CLK 1.43717e-05
67 *3203:D *595:97 1.0183e-05
68 *3206:D *595:65 0.00016031
69 *3206:D *595:82 0.000102737
70 *3207:D *595:82 2.37415e-05
71 *211:14 *595:10 7.67552e-05
72 *211:14 *595:23 6.95335e-05
73 *211:14 *595:36 4.45598e-05
74 *211:14 *595:55 6.4422e-05
75 *317:38 *595:10 1.91597e-05
76 *318:10 *3138:CLK 2.75229e-05
77 *318:117 *3138:CLK 4.66742e-05
78 *340:10 *595:10 2.86623e-05
79 *340:27 *595:10 0.000315131
80 *430:155 *595:97 0.000205211
81 *432:81 *595:82 1.34618e-05
82 *468:12 *595:97 8.33066e-06
*RES
1 *3300:X *595:10 13.41 
2 *595:10 *3138:CLK 5.1 
3 *595:10 *595:23 2.145 
4 *595:23 *3139:CLK 4.05 
5 *595:23 *595:36 4.4 
6 *595:36 *595:38 2.175 
7 *595:38 *3275:CLK 2.41 
8 *595:38 *595:55 8.035 
9 *595:55 *595:65 16.645 
10 *595:65 *3206:CLK 1.6 
11 *595:65 *595:82 13.87 
12 *595:82 *3207:CLK 1.6 
13 *595:82 *595:97 10.895 
14 *595:97 *3203:CLK 5.775 
15 *595:97 *3202:CLK 6.195 
16 *595:55 *3273:CLK 2.74 
17 *595:36 *3140:CLK 3.445 
*END

*D_NET *596 0.0100151
*CONN
*I *3137:CLK I *D sky130_fd_sc_hd__dfrtp_1
*I *3285:CLK I *D sky130_fd_sc_hd__dfrtp_1
*I *3144:CLK I *D sky130_fd_sc_hd__dfrtp_1
*I *3278:CLK I *D sky130_fd_sc_hd__dfrtp_1
*I *3277:CLK I *D sky130_fd_sc_hd__dfrtp_1
*I *3292:CLK I *D sky130_fd_sc_hd__dfrtp_1
*I *3136:CLK I *D sky130_fd_sc_hd__dfstp_1
*I *3238:CLK I *D sky130_fd_sc_hd__dfxtp_1
*I *3301:X O *D sky130_fd_sc_hd__clkbuf_8
*CAP
1 *3137:CLK 0.000414904
2 *3285:CLK 3.39387e-05
3 *3144:CLK 0
4 *3278:CLK 0
5 *3277:CLK 0.000115984
6 *3292:CLK 0.000174543
7 *3136:CLK 0
8 *3238:CLK 0.000987051
9 *3301:X 0.000101015
10 *596:63 0.000212546
11 *596:61 0.000559126
12 *596:46 0.000767428
13 *596:44 0.000482801
14 *596:40 0.00101564
15 *596:14 0.00103536
16 *596:12 0.000431514
17 *3137:CLK *3137:RESET_B 5.65067e-05
18 *3238:CLK *2780:A 0.000278727
19 *3238:CLK *2987:A1 4.66108e-05
20 *3238:CLK *3380:A 0.000382764
21 *3238:CLK *3383:A 0
22 *3277:CLK *3277:D 0
23 *3277:CLK *3278:D 1.22676e-05
24 *3277:CLK *3278:RESET_B 0
25 *3277:CLK *652:63 6.28765e-05
26 *3292:CLK *641:18 0
27 *3292:CLK *641:20 0
28 *596:12 *3278:D 3.83194e-05
29 *596:40 *3136:SET_B 2.53494e-05
30 *596:40 *3137:RESET_B 0.000238357
31 *596:40 *674:33 4.3624e-05
32 *596:44 *2824:B2 7.23602e-05
33 *596:44 *3318:A 0.000139245
34 *596:61 *3144:RESET_B 0.000264749
35 *596:61 *3313:A 0.000171378
36 *596:61 *641:18 5.62622e-05
37 *596:63 *3278:D 7.35813e-05
38 *596:63 *3313:A 2.8185e-05
39 *2643:A2 *3137:CLK 8.23457e-05
40 *2643:A2 *596:40 0.00016031
41 *2643:A2 *596:44 5.36944e-05
42 *2643:B1 *596:44 6.08733e-05
43 *2643:B2 *596:44 8.60537e-05
44 *2780:C *3238:CLK 5.45067e-05
45 *2781:C *3238:CLK 1.52184e-05
46 *2783:C *3238:CLK 7.26993e-05
47 *2823:D *596:12 4.9253e-06
48 *2848:B1_N *596:12 6.47516e-05
49 *3068:A0 *3238:CLK 3.09451e-05
50 *3136:D *596:12 3.05373e-05
51 *3136:D *596:14 8.65961e-05
52 *3136:D *596:40 3.66286e-05
53 *3144:D *596:61 7.10578e-05
54 *3301:A *596:12 0.000204907
55 *8:10 *596:14 2.75145e-05
56 *8:10 *596:40 0.000428366
57 *191:18 *3238:CLK 2.42802e-05
58 *191:35 *3238:CLK 4.75576e-05
59 *313:10 *596:12 4.82919e-05
*RES
1 *3301:X *596:12 8.63 
2 *596:12 *596:14 1.14 
3 *596:14 *3238:CLK 21.965 
4 *596:14 *3136:CLK 1.6 
5 *596:12 *596:40 8.385 
6 *596:40 *596:44 8.225 
7 *596:44 *596:46 2.145 
8 *596:46 *3292:CLK 6.195 
9 *596:46 *596:61 11.075 
10 *596:61 *596:63 1.83 
11 *596:63 *3277:CLK 7.745 
12 *596:63 *3278:CLK 1.6 
13 *596:61 *3144:CLK 1.6 
14 *596:44 *3285:CLK 4.05 
15 *596:40 *3137:CLK 8.26 
*END

*D_NET *597 0.00666123
*CONN
*I *3274:CLK I *D sky130_fd_sc_hd__dfrtp_4
*I *3143:CLK I *D sky130_fd_sc_hd__dfrtp_4
*I *3142:CLK I *D sky130_fd_sc_hd__dfrtp_4
*I *3181:CLK I *D sky130_fd_sc_hd__dfxtp_1
*I *3239:CLK I *D sky130_fd_sc_hd__dfxtp_1
*I *3211:CLK I *D sky130_fd_sc_hd__dfxtp_1
*I *3302:X O *D sky130_fd_sc_hd__clkbuf_8
*CAP
1 *3274:CLK 0.000706783
2 *3143:CLK 0.000109348
3 *3142:CLK 4.58001e-05
4 *3181:CLK 0.00025834
5 *3239:CLK 0.000573015
6 *3211:CLK 0
7 *3302:X 4.21223e-05
8 *597:56 0.000920285
9 *597:45 0.00022527
10 *597:16 0.000603828
11 *597:14 0.000632163
12 *597:8 0.000460448
13 *3239:CLK *850:8 8.65905e-05
14 *3274:CLK *3385:A 0.000175058
15 *3274:CLK *770:38 8.71001e-05
16 *3274:CLK *773:14 0
17 *597:8 *774:76 8.53011e-05
18 *597:45 *775:49 2.23107e-05
19 *2554:A *3239:CLK 8.96362e-05
20 *2848:B1_N *597:14 0
21 *2849:A2 *3274:CLK 3.77199e-05
22 *2850:B1 *3274:CLK 8.08439e-05
23 *2853:A *3142:CLK 0.000233604
24 *2853:B *3142:CLK 0.000121659
25 *2854:B2 *3274:CLK 0.000116636
26 *2869:B1 *3143:CLK 9.83921e-06
27 *2988:A *3181:CLK 0
28 *3142:D *3142:CLK 8.64599e-05
29 *3143:D *3143:CLK 7.01132e-05
30 *3181:D *3181:CLK 0
31 *3211:D *3239:CLK 1.43717e-05
32 *3211:D *597:14 0
33 *3239:D *3239:CLK 5.94962e-05
34 *211:14 *3239:CLK 1.03323e-05
35 *312:10 *3274:CLK 0
36 *323:62 *3181:CLK 0
37 *330:28 *3274:CLK 9.67734e-05
38 *330:28 *597:14 8.15811e-05
39 *330:28 *597:45 5.42014e-05
40 *330:28 *597:56 6.39702e-05
41 *334:10 *597:14 0.00010733
42 *334:10 *597:45 1.10435e-05
43 *334:21 *597:45 2.74853e-05
44 *334:21 *597:56 1.57817e-05
45 *334:40 *3274:CLK 4.88393e-05
46 *334:40 *597:56 5.35141e-05
47 *334:55 *3274:CLK 0.000136234
*RES
1 *3302:X *597:8 4.395 
2 *597:8 *597:14 8.615 
3 *597:14 *597:16 0.45 
4 *597:16 *3211:CLK 1.6 
5 *597:16 *3239:CLK 10.36 
6 *597:14 *3181:CLK 9.785 
7 *597:8 *597:45 1.89 
8 *597:45 *3142:CLK 5.775 
9 *597:45 *597:56 2.4 
10 *597:56 *3143:CLK 5.445 
11 *597:56 *3274:CLK 19.515 
*END

*D_NET *598 0.0129983
*CONN
*I *3189:CLK I *D sky130_fd_sc_hd__dfxtp_1
*I *3267:CLK I *D sky130_fd_sc_hd__dfxtp_1
*I *3252:CLK I *D sky130_fd_sc_hd__dfxtp_1
*I *3250:CLK I *D sky130_fd_sc_hd__dfxtp_1
*I *3251:CLK I *D sky130_fd_sc_hd__dfxtp_1
*I *3242:CLK I *D sky130_fd_sc_hd__dfxtp_1
*I *3253:CLK I *D sky130_fd_sc_hd__dfxtp_1
*I *3266:CLK I *D sky130_fd_sc_hd__dfxtp_1
*I *3249:CLK I *D sky130_fd_sc_hd__dfxtp_1
*I *3243:CLK I *D sky130_fd_sc_hd__dfxtp_1
*I *3303:X O *D sky130_fd_sc_hd__clkbuf_8
*CAP
1 *3189:CLK 0.000153431
2 *3267:CLK 0.000411098
3 *3252:CLK 0.000102948
4 *3250:CLK 0
5 *3251:CLK 0
6 *3242:CLK 0.000141814
7 *3253:CLK 0
8 *3266:CLK 0
9 *3249:CLK 0.000450212
10 *3243:CLK 0.000621402
11 *3303:X 2.37813e-05
12 *598:122 0.00105909
13 *598:82 0.000514921
14 *598:72 0.000866006
15 *598:66 0.00110024
16 *598:62 0.00101752
17 *598:55 0.000146934
18 *598:44 0.000284121
19 *598:29 0.000750852
20 *598:6 0.000790066
21 *3189:CLK *2721:A1 0
22 *3189:CLK *2802:A2 0.000107361
23 *3243:CLK *2580:A0 0.000198051
24 *3243:CLK *2807:A1 0.000263278
25 *3243:CLK *814:8 2.64607e-05
26 *3249:CLK *2565:A1 1.14169e-05
27 *3249:CLK *808:6 3.33763e-05
28 *3252:CLK *2583:A1 0.000112907
29 *3267:CLK *2721:A1 0
30 *3267:CLK *2802:A1 4.87939e-05
31 *3267:CLK *2802:A2 0.000254785
32 *3267:CLK *3452:A 0.000106318
33 *598:6 *2807:A1 2.30292e-05
34 *598:29 *2580:A0 0.000242054
35 *598:29 *2801:B2 5.20249e-05
36 *598:44 *2801:B2 0.000156284
37 *598:122 *2590:A1 4.65607e-05
38 *598:122 *2801:A1 9.24211e-05
39 *598:122 *3454:A 6.74688e-05
40 *2581:A *3243:CLK 9.37731e-05
41 *2582:A *3267:CLK 9.09055e-05
42 *2612:A *3189:CLK 0
43 *2622:A *598:44 0.000199386
44 *2622:A *598:55 0.000339997
45 *2623:A0 *3267:CLK 1.79098e-05
46 *2729:B1 *3267:CLK 0
47 *2802:B1 *3267:CLK 0.000160208
48 *3008:A *3189:CLK 9.91257e-05
49 *3243:D *3243:CLK 0.000113663
50 *3249:D *3249:CLK 0.000125139
51 *3250:D *598:72 1.43717e-05
52 *3250:D *598:82 4.18603e-06
53 *3251:D *598:82 7.20071e-05
54 *3253:D *598:62 9.53428e-06
55 *3253:D *598:66 2.67184e-05
56 *3253:D *598:122 9.78895e-05
57 *3267:D *3267:CLK 4.28112e-06
58 *174:112 *3267:CLK 4.66108e-05
59 *197:134 *3243:CLK 0.00011686
60 *212:91 *3189:CLK 0.00016215
61 *215:108 *598:29 0
62 *358:57 *598:29 0.000104828
63 *358:57 *598:44 0.000102544
64 *358:57 *598:55 0.000188769
65 *511:79 *598:72 0.000274434
66 *511:96 *598:66 0.000174881
67 *511:96 *598:72 1.14169e-05
68 *544:22 *598:66 5.69836e-05
69 *544:22 *598:122 1.89867e-06
70 *591:10 *598:29 1.07797e-05
*RES
1 *3303:X *598:6 2.05 
2 *598:6 *3243:CLK 17.315 
3 *598:6 *598:29 5.93 
4 *598:29 *3249:CLK 10.29 
5 *598:29 *598:44 4.185 
6 *598:44 *3266:CLK 3.6 
7 *598:44 *598:55 6.185 
8 *598:55 *3253:CLK 1.6 
9 *598:55 *598:62 0.36 
10 *598:62 *598:66 6.33 
11 *598:66 *598:72 7.725 
12 *598:72 *598:82 9.115 
13 *598:82 *3242:CLK 7.85 
14 *598:82 *3251:CLK 1.6 
15 *598:72 *3250:CLK 1.6 
16 *598:66 *3252:CLK 7.43 
17 *598:62 *598:122 9.695 
18 *598:122 *3267:CLK 12.57 
19 *598:122 *3189:CLK 7.665 
*END

*D_NET *599 0.0135672
*CONN
*I *3261:CLK I *D sky130_fd_sc_hd__dfxtp_1
*I *3263:CLK I *D sky130_fd_sc_hd__dfxtp_1
*I *3151:CLK I *D sky130_fd_sc_hd__dfxtp_1
*I *3162:CLK I *D sky130_fd_sc_hd__dfxtp_1
*I *3135:CLK I *D sky130_fd_sc_hd__dfxtp_1
*I *3134:CLK I *D sky130_fd_sc_hd__dfxtp_1
*I *3264:CLK I *D sky130_fd_sc_hd__dfxtp_1
*I *3165:CLK I *D sky130_fd_sc_hd__dfxtp_1
*I *3164:CLK I *D sky130_fd_sc_hd__dfxtp_1
*I *3158:CLK I *D sky130_fd_sc_hd__dfxtp_1
*I *3159:CLK I *D sky130_fd_sc_hd__dfxtp_1
*I *3258:CLK I *D sky130_fd_sc_hd__dfxtp_1
*I *3259:CLK I *D sky130_fd_sc_hd__dfxtp_1
*I *3265:CLK I *D sky130_fd_sc_hd__dfxtp_1
*I *3304:X O *D sky130_fd_sc_hd__clkbuf_8
*CAP
1 *3261:CLK 1.26083e-05
2 *3263:CLK 0.000303615
3 *3151:CLK 0.000354361
4 *3162:CLK 0
5 *3135:CLK 0
6 *3134:CLK 0
7 *3264:CLK 0.00030345
8 *3165:CLK 0
9 *3164:CLK 0
10 *3158:CLK 0.000248789
11 *3159:CLK 0
12 *3258:CLK 0
13 *3259:CLK 0
14 *3265:CLK 0.000413579
15 *3304:X 0.000316878
16 *599:138 0.000549904
17 *599:88 0.000397687
18 *599:75 0.000314428
19 *599:65 0.000279143
20 *599:63 0.000536972
21 *599:61 0.000250487
22 *599:59 0.000465939
23 *599:53 0.0010294
24 *599:42 0.000509956
25 *599:16 0.000471046
26 *599:14 0.000218443
27 *599:12 0.00060228
28 *599:10 0.000478634
29 *3151:CLK *2797:B2 0
30 *3151:CLK *2842:A0 2.50166e-05
31 *3263:CLK *2804:A1 3.23663e-05
32 *3263:CLK *2804:A2 5.83121e-06
33 *3263:CLK *892:8 3.08022e-05
34 *3265:CLK *2805:B2 0
35 *3265:CLK *3473:A 8.22843e-05
36 *3265:CLK *693:32 2.01737e-05
37 *3265:CLK *870:10 0
38 *599:10 *2804:A2 0.000331128
39 *599:12 *2804:A2 0.000155928
40 *599:14 *2605:A1 0
41 *599:14 *2805:B2 0
42 *599:53 *925:10 0.000274659
43 *599:59 *2797:B2 0
44 *599:59 *2839:A0 0
45 *2577:A *3261:CLK 4.82863e-05
46 *2606:A *599:53 0
47 *2609:A *3261:CLK 1.16578e-05
48 *2609:A *599:10 0.000352298
49 *2611:A *3263:CLK 7.67415e-06
50 *2611:A *599:10 1.32017e-05
51 *2611:A *599:12 4.11281e-05
52 *2612:A *599:10 2.97004e-06
53 *2617:A *3265:CLK 0
54 *2620:A0 *3265:CLK 0.000375266
55 *2620:A0 *599:14 0.000132096
56 *2620:A0 *599:16 0.000177568
57 *2620:S *3265:CLK 0.000157595
58 *2621:A *3265:CLK 0.000248774
59 *2804:B1 *3263:CLK 4.21973e-05
60 *2805:B1 *599:10 0
61 *2805:B1 *599:12 0
62 *2805:B1 *599:14 0
63 *2808:A2 *3263:CLK 0.000282639
64 *2838:A *3151:CLK 0.0001274
65 *2840:A *599:59 3.91255e-05
66 *2842:S *3151:CLK 9.30717e-05
67 *2922:A *3158:CLK 4.89295e-05
68 *2939:A *3264:CLK 1.56428e-05
69 *2939:A *599:65 0.000131265
70 *2939:A *599:75 0.000173093
71 *3134:D *599:61 7.1624e-05
72 *3135:D *599:59 0.000127106
73 *3135:D *599:61 9.12494e-06
74 *3159:D *3158:CLK 0.000106893
75 *3159:D *599:88 6.47594e-05
76 *3162:D *3151:CLK 0.000136726
77 *3165:D *599:65 0
78 *3165:D *599:75 1.9872e-05
79 *3165:D *599:88 3.57275e-05
80 *3258:D *599:42 4.82919e-05
81 *3258:D *599:53 0.00010293
82 *3259:D *3265:CLK 1.43521e-05
83 *3259:D *599:14 2.03578e-05
84 *3259:D *599:16 7.45794e-05
85 *3259:D *599:42 2.0514e-05
86 *3259:D *599:53 8.65905e-05
87 *3260:D *3261:CLK 1.34503e-05
88 *3265:D *3265:CLK 0.000109537
89 *208:58 *3151:CLK 1.7309e-05
90 *299:32 *599:10 0.000461941
91 *316:78 *599:12 0
92 *328:44 *3263:CLK 3.26889e-05
93 *328:44 *599:12 9.50342e-06
94 *328:44 *599:14 0.000159964
95 *359:18 *3151:CLK 0
96 *528:72 *599:59 0.000285675
*RES
1 *3304:X *599:10 11.775 
2 *599:10 *599:12 2.655 
3 *599:12 *599:14 3.42 
4 *599:14 *599:16 2.145 
5 *599:16 *3265:CLK 13.935 
6 *599:16 *3259:CLK 3.6 
7 *599:14 *599:42 2.45 
8 *599:42 *3258:CLK 1.6 
9 *599:42 *599:53 8.67 
10 *599:53 *599:59 8.33 
11 *599:59 *599:61 2.145 
12 *599:61 *599:63 1.89 
13 *599:63 *599:65 2.4 
14 *599:65 *599:75 5.495 
15 *599:75 *3159:CLK 1.6 
16 *599:75 *599:88 4.79 
17 *599:88 *3158:CLK 7.92 
18 *599:88 *3164:CLK 3.6 
19 *599:65 *3165:CLK 3.6 
20 *599:63 *3264:CLK 8.19 
21 *599:61 *3134:CLK 3.6 
22 *599:59 *3135:CLK 3.6 
23 *599:53 *599:138 2.865 
24 *599:138 *3162:CLK 1.6 
25 *599:138 *3151:CLK 12.485 
26 *599:12 *3263:CLK 9.255 
27 *599:10 *3261:CLK 4.05 
*END

*D_NET *600 0.0124767
*CONN
*I *3220:CLK I *D sky130_fd_sc_hd__dfxtp_1
*I *3155:CLK I *D sky130_fd_sc_hd__dfxtp_1
*I *3188:CLK I *D sky130_fd_sc_hd__dfxtp_1
*I *3154:CLK I *D sky130_fd_sc_hd__dfxtp_1
*I *3156:CLK I *D sky130_fd_sc_hd__dfxtp_1
*I *3157:CLK I *D sky130_fd_sc_hd__dfxtp_1
*I *3149:CLK I *D sky130_fd_sc_hd__dfxtp_1
*I *3163:CLK I *D sky130_fd_sc_hd__dfxtp_1
*I *3260:CLK I *D sky130_fd_sc_hd__dfxtp_1
*I *3305:X O *D sky130_fd_sc_hd__clkbuf_8
*CAP
1 *3220:CLK 0.000485357
2 *3155:CLK 0
3 *3188:CLK 0.000429318
4 *3154:CLK 2.33467e-05
5 *3156:CLK 0
6 *3157:CLK 0
7 *3149:CLK 8.87208e-05
8 *3163:CLK 0.000156993
9 *3260:CLK 0.000228959
10 *3305:X 0.000224726
11 *600:109 0.000533009
12 *600:94 0.000549678
13 *600:81 0.000480694
14 *600:66 0.000534518
15 *600:37 0.000412348
16 *600:26 0.000716021
17 *600:18 0.000409325
18 *600:12 0.000463502
19 *3149:CLK *2760:A1 0.000348906
20 *3188:CLK *3375:A 2.05056e-05
21 *3188:CLK *875:6 0.000131069
22 *3220:CLK *2744:A 0
23 *3220:CLK *3375:A 0.000122801
24 *3260:CLK *2760:A1 0.000575178
25 *3260:CLK *915:10 4.9253e-06
26 *600:18 *2798:A1 1.83756e-05
27 *600:26 *2608:A1 0
28 *600:26 *2805:B2 0
29 *600:37 *2760:A1 0.000711794
30 *600:37 *915:10 3.79854e-05
31 *600:66 *2798:A1 8.99246e-05
32 *600:81 *2798:A1 1.42598e-05
33 *600:109 *3375:A 4.04983e-05
34 *2572:A *600:18 7.14653e-05
35 *2572:A *600:26 9.02174e-05
36 *2587:A *3188:CLK 0.000418498
37 *2587:A *600:109 7.14699e-05
38 *2607:A *600:37 3.83194e-05
39 *2607:B *600:37 0.000118081
40 *2608:S *600:26 0.00015829
41 *2730:D1 *600:94 0
42 *2744:B *3220:CLK 5.11658e-05
43 *2744:B *600:109 6.6564e-05
44 *2744:C *600:109 0.000109901
45 *2747:B1 *3163:CLK 0
46 *2747:B1 *600:12 0
47 *2747:B1 *600:66 0
48 *2748:A1 *600:94 6.23375e-05
49 *2748:B1 *600:81 4.41607e-05
50 *2748:C1 *3154:CLK 2.69153e-05
51 *2798:A2 *600:81 8.96103e-05
52 *2798:A3 *600:66 3.59531e-06
53 *2798:A3 *600:81 9.38986e-05
54 *2798:B1 *600:26 0.000109251
55 *2799:C1 *600:81 4.77807e-05
56 *2910:A *3220:CLK 0.000119756
57 *2914:A *600:66 3.73048e-05
58 *2914:A *600:81 5.66369e-05
59 *2916:A *600:66 1.02164e-05
60 *2935:B *3149:CLK 0.00020418
61 *2935:B *600:37 0.000238719
62 *3155:D *3220:CLK 0.000348792
63 *3156:D *600:81 2.79481e-05
64 *3157:D *600:12 3.80855e-05
65 *3157:D *600:18 1.43717e-05
66 *3157:D *600:66 7.9642e-06
67 *3188:D *3188:CLK 7.7152e-05
68 *3260:D *3260:CLK 1.43717e-05
69 *3261:D *3260:CLK 2.01259e-05
70 *181:56 *3163:CLK 0
71 *181:56 *600:26 0
72 *207:90 *600:81 0.000154448
73 *207:90 *600:94 0.000206817
74 *215:108 *600:26 9.5296e-05
75 *231:44 *600:81 8.89966e-05
76 *316:70 *600:26 7.15928e-05
77 *374:105 *3220:CLK 5.16348e-05
78 *374:113 *3220:CLK 5.61451e-05
79 *374:141 *3220:CLK 0.000282326
80 *376:84 *3220:CLK 0.000323668
81 *395:57 *600:18 2.76356e-05
82 *395:57 *600:26 1.83756e-05
83 *395:57 *600:66 4.0788e-05
84 *395:57 *600:81 0
85 *527:26 *600:81 1.79536e-05
86 *528:18 *600:12 0.000271873
87 *528:62 *600:12 2.92496e-05
*RES
1 *3305:X *600:12 7.95 
2 *600:12 *600:18 3.845 
3 *600:18 *600:26 11.2 
4 *600:26 *3260:CLK 7.24 
5 *600:26 *600:37 6.66 
6 *600:37 *3163:CLK 8 
7 *600:37 *3149:CLK 5.17 
8 *600:18 *3157:CLK 1.6 
9 *600:12 *600:66 4.655 
10 *600:66 *3156:CLK 1.6 
11 *600:66 *600:81 10.01 
12 *600:81 *3154:CLK 4.05 
13 *600:81 *600:94 4.4 
14 *600:94 *3188:CLK 10.12 
15 *600:94 *600:109 1.83 
16 *600:109 *3155:CLK 1.6 
17 *600:109 *3220:CLK 16.565 
*END

*D_NET *601 0.00965894
*CONN
*I *3235:CLK I *D sky130_fd_sc_hd__dfxtp_1
*I *3234:CLK I *D sky130_fd_sc_hd__dfxtp_1
*I *3225:CLK I *D sky130_fd_sc_hd__dfxtp_1
*I *3224:CLK I *D sky130_fd_sc_hd__dfxtp_1
*I *3227:CLK I *D sky130_fd_sc_hd__dfxtp_1
*I *3228:CLK I *D sky130_fd_sc_hd__dfxtp_1
*I *3229:CLK I *D sky130_fd_sc_hd__dfxtp_1
*I *3230:CLK I *D sky130_fd_sc_hd__dfxtp_1
*I *3231:CLK I *D sky130_fd_sc_hd__dfxtp_1
*I *3306:X O *D sky130_fd_sc_hd__clkbuf_8
*CAP
1 *3235:CLK 0
2 *3234:CLK 0.00024133
3 *3225:CLK 0
4 *3224:CLK 0.000101995
5 *3227:CLK 0.000293633
6 *3228:CLK 2.08101e-05
7 *3229:CLK 6.62565e-05
8 *3230:CLK 0
9 *3231:CLK 0.000136304
10 *3306:X 0.000769979
11 *601:99 0.000758847
12 *601:88 0.000540848
13 *601:55 0.000337669
14 *601:42 0.000429941
15 *601:22 0.000376518
16 *601:14 0.000721949
17 *601:12 0.000335162
18 *601:10 0.000885201
19 *3227:CLK *2773:A 3.51721e-05
20 *3229:CLK *726:38 3.06494e-05
21 *601:10 *822:12 0.000135002
22 *601:12 *823:14 0
23 *601:14 *3128:A1 0
24 *601:14 *3130:A1 0
25 *601:42 *2773:A 6.1357e-05
26 *601:42 *3120:A1 0.000278117
27 *601:55 *2773:A 2.05056e-05
28 *601:88 *2714:A1 1.73351e-05
29 *601:99 *2714:A1 1.07285e-05
30 *601:99 *822:12 0.00034729
31 *601:99 *823:14 4.51414e-05
32 *3115:A *3229:CLK 2.92496e-05
33 *3115:A *601:42 4.66108e-05
34 *3115:A *601:55 3.57349e-05
35 *3119:A *601:42 0.000198339
36 *3120:A0 *601:42 4.66108e-05
37 *3121:A *601:22 4.82369e-05
38 *3128:A0 *601:42 6.34285e-05
39 *3128:S *601:14 0
40 *3128:S *601:22 0
41 *3129:A *3234:CLK 0
42 *3130:A0 *3224:CLK 2.50059e-05
43 *3130:S *3224:CLK 0
44 *3224:D *601:10 0.000112907
45 *3224:D *601:12 0.000133085
46 *3224:D *601:14 7.39642e-05
47 *3228:D *3227:CLK 1.43717e-05
48 *3229:D *3229:CLK 0.00011504
49 *3230:D *601:22 6.88421e-05
50 *3231:D *3231:CLK 7.14241e-05
51 *3234:D *3234:CLK 4.99619e-05
52 *3235:D *3234:CLK 0
53 *3235:D *601:99 1.43717e-05
54 *445:8 *3229:CLK 0.000200412
55 *500:12 *601:42 0.000418782
56 *500:131 *3227:CLK 0.000554604
57 *500:131 *601:42 0.000257869
58 *500:131 *601:55 8.23457e-05
*RES
1 *3306:X *601:10 14.94 
2 *601:10 *601:12 1.635 
3 *601:12 *601:14 2.4 
4 *601:14 *601:22 5.645 
5 *601:22 *3231:CLK 7.745 
6 *601:22 *3230:CLK 1.6 
7 *601:14 *601:42 11.42 
8 *601:42 *3229:CLK 8 
9 *601:42 *601:55 0.795 
10 *601:55 *3228:CLK 1.96 
11 *601:55 *3227:CLK 8.38 
12 *601:12 *3224:CLK 5.01 
13 *601:10 *601:88 2.45 
14 *601:88 *3225:CLK 1.6 
15 *601:88 *601:99 9.105 
16 *601:99 *3234:CLK 9.59 
17 *601:99 *3235:CLK 1.6 
*END

*D_NET *602 0.011012
*CONN
*I *3192:CLK I *D sky130_fd_sc_hd__dfxtp_1
*I *3215:CLK I *D sky130_fd_sc_hd__dfxtp_1
*I *3213:CLK I *D sky130_fd_sc_hd__dfxtp_1
*I *3212:CLK I *D sky130_fd_sc_hd__dfxtp_1
*I *3214:CLK I *D sky130_fd_sc_hd__dfxtp_1
*I *3217:CLK I *D sky130_fd_sc_hd__dfxtp_1
*I *3209:CLK I *D sky130_fd_sc_hd__dfxtp_1
*I *3208:CLK I *D sky130_fd_sc_hd__dfxtp_1
*I *3216:CLK I *D sky130_fd_sc_hd__dfxtp_1
*I *3218:CLK I *D sky130_fd_sc_hd__dfxtp_1
*I *3219:CLK I *D sky130_fd_sc_hd__dfxtp_1
*I *3307:X O *D sky130_fd_sc_hd__clkbuf_8
*CAP
1 *3192:CLK 0.000167955
2 *3215:CLK 0
3 *3213:CLK 0.000150017
4 *3212:CLK 0.000158898
5 *3214:CLK 0
6 *3217:CLK 0
7 *3209:CLK 0.000128783
8 *3208:CLK 3.37585e-05
9 *3216:CLK 0.000425785
10 *3218:CLK 0
11 *3219:CLK 0.000142537
12 *3307:X 0
13 *602:107 0.000460225
14 *602:101 0.000577748
15 *602:86 0.00082966
16 *602:59 0.000569
17 *602:53 0.000765117
18 *602:31 0.000535068
19 *602:25 0.000547943
20 *602:14 0.000544033
21 *602:10 0.000841544
22 *602:4 0.000284784
23 *3213:CLK *2741:A1 3.05373e-05
24 *3216:CLK *843:18 4.89295e-05
25 *602:14 *3088:A0 0.000200615
26 *602:14 *840:16 0.000491309
27 *602:31 *843:18 3.90873e-06
28 *602:53 *843:18 0.000112907
29 *602:86 *2742:B2 0
30 *602:86 *2793:A1 0
31 *602:86 *2794:A1 0
32 *602:86 *3081:A0 0.000245206
33 *602:86 *841:12 0
34 *602:101 *2741:A1 0.000116559
35 *602:101 *2792:A1 0
36 *602:101 *2794:A1 0
37 *602:101 *3431:A 1.85674e-05
38 *602:107 *2741:A1 0.000103974
39 *602:107 *3431:A 1.16578e-05
40 *2741:B1 *602:101 0
41 *2794:B1 *602:101 0.000137578
42 *2794:C1 *602:86 0.00011108
43 *3063:A1 *602:25 0.000133085
44 *3063:A1 *602:53 0.000223257
45 *3070:A *602:10 0
46 *3072:A *3212:CLK 9.92913e-05
47 *3074:A *3213:CLK 1.79098e-05
48 *3078:S *602:86 0
49 *3078:S *602:101 0
50 *3082:A *3219:CLK 0.000128189
51 *3082:A *602:14 5.69873e-05
52 *3084:A *602:53 6.6925e-05
53 *3084:A *602:59 1.83847e-05
54 *3086:S *602:86 0
55 *3088:S *602:14 4.99619e-05
56 *3208:D *3209:CLK 5.72004e-05
57 *3209:D *3209:CLK 0
58 *3209:D *602:59 0
59 *3212:D *3212:CLK 7.36892e-05
60 *3212:D *3213:CLK 0
61 *3213:D *3213:CLK 4.77769e-05
62 *3215:D *602:101 7.4199e-05
63 *3216:D *3216:CLK 0.000166946
64 *3217:D *602:53 0.000102006
65 *3217:D *602:59 4.99619e-05
66 *3219:D *3219:CLK 2.2917e-05
67 *3219:D *602:25 0
68 *3219:D *602:53 0
69 *3219:D *602:59 0
70 *3295:A *602:59 0.000130003
71 *3307:A *3192:CLK 3.66286e-05
72 *3307:A *602:10 8.8266e-05
73 *430:64 *3192:CLK 8.65961e-05
74 *430:64 *602:10 0
75 *442:58 *602:10 0.000137893
76 *442:58 *602:86 0.000172845
77 *445:23 *3192:CLK 8.73389e-06
78 *445:70 *3192:CLK 7.646e-05
79 *477:8 *602:86 0
80 *489:8 *602:14 9.02174e-05
*RES
1 *3307:X *602:4 1.6 
2 *602:4 *602:10 4.43 
3 *602:10 *602:14 9.695 
4 *602:14 *3219:CLK 4.465 
5 *602:14 *602:25 3.635 
6 *602:25 *602:31 3.41 
7 *602:31 *3218:CLK 1.6 
8 *602:31 *3216:CLK 8.2 
9 *602:25 *602:53 8.9 
10 *602:53 *602:59 8.93 
11 *602:59 *3208:CLK 4.05 
12 *602:59 *3209:CLK 5.94 
13 *602:53 *3217:CLK 1.6 
14 *602:10 *602:86 8.265 
15 *602:86 *3214:CLK 3.6 
16 *602:86 *602:101 9.47 
17 *602:101 *602:107 4.94 
18 *602:107 *3212:CLK 6.81 
19 *602:107 *3213:CLK 6.45 
20 *602:101 *3215:CLK 1.6 
21 *602:4 *3192:CLK 4.825 
*END

*D_NET *603 0.0155863
*CONN
*I *3176:CLK I *D sky130_fd_sc_hd__dfxtp_1
*I *3177:CLK I *D sky130_fd_sc_hd__dfxtp_1
*I *3193:CLK I *D sky130_fd_sc_hd__dfxtp_1
*I *3222:CLK I *D sky130_fd_sc_hd__dfxtp_1
*I *3221:CLK I *D sky130_fd_sc_hd__dfxtp_1
*I *3191:CLK I *D sky130_fd_sc_hd__dfxtp_1
*I *3190:CLK I *D sky130_fd_sc_hd__dfxtp_1
*I *3223:CLK I *D sky130_fd_sc_hd__dfxtp_1
*I *3226:CLK I *D sky130_fd_sc_hd__dfxtp_1
*I *3186:CLK I *D sky130_fd_sc_hd__dfxtp_1
*I *3308:X O *D sky130_fd_sc_hd__clkbuf_8
*CAP
1 *3176:CLK 7.53926e-05
2 *3177:CLK 0
3 *3193:CLK 0
4 *3222:CLK 0
5 *3221:CLK 0.000281238
6 *3191:CLK 0.000271924
7 *3190:CLK 0.000324947
8 *3223:CLK 0
9 *3226:CLK 0.000109425
10 *3186:CLK 0.000202381
11 *3308:X 0.000557902
12 *603:91 0.000791721
13 *603:82 0.000569238
14 *603:70 0.000655625
15 *603:68 0.000728043
16 *603:39 0.00122956
17 *603:31 0.000587407
18 *603:25 0.000309219
19 *603:21 0.000254262
20 *603:8 0.000825245
21 *3176:CLK *2775:A1 1.91597e-05
22 *3221:CLK *3091:A0 0.000119762
23 *3226:CLK *2706:A 0.000220675
24 *603:8 *2717:A1 3.01353e-05
25 *603:8 *3360:A 4.8513e-05
26 *603:21 *2775:B2 3.39349e-05
27 *603:31 *2707:A1 2.10582e-05
28 *603:68 *2704:A1 0.000173489
29 *2704:A2 *603:68 4.92627e-05
30 *2704:B1 *3221:CLK 1.32472e-05
31 *2704:B1 *603:82 8.7152e-06
32 *2730:A1 *603:68 4.77757e-05
33 *2730:A2 *603:68 0.000124651
34 *2775:A2 *3176:CLK 4.85874e-05
35 *2777:A2 *3176:CLK 2.49909e-05
36 *2777:A2 *603:25 5.2124e-05
37 *2777:A2 *603:31 0.000186041
38 *2777:B1 *603:68 0.000279871
39 *2911:A *3190:CLK 4.99619e-05
40 *2911:D_N *3190:CLK 1.56428e-05
41 *2934:A *3190:CLK 1.12578e-05
42 *2973:B *603:31 0.000198939
43 *2973:B *603:39 1.34594e-05
44 *2975:A *603:31 1.95015e-05
45 *2977:A *3176:CLK 2.49909e-05
46 *2977:A *603:21 0.000130832
47 *2977:A *603:25 4.93879e-05
48 *2990:B *603:25 9.01765e-05
49 *2990:B *603:31 2.91176e-05
50 *3091:S *3221:CLK 0.000120923
51 *3186:D *3186:CLK 9.00919e-05
52 *3193:D *603:39 1.22464e-05
53 *3308:A *603:8 4.82863e-05
54 *3309:A *603:8 7.24717e-05
55 *177:100 *603:82 5.91496e-05
56 *177:100 *603:91 0.000131077
57 *181:32 *3226:CLK 0.000112652
58 *181:32 *603:21 0
59 *181:32 *603:39 0.000560519
60 *181:34 *3226:CLK 0.000133642
61 *183:56 *603:68 5.83121e-06
62 *183:69 *3221:CLK 0.000338175
63 *183:75 *3221:CLK 0.000289011
64 *193:60 *603:82 7.50823e-05
65 *193:76 *603:68 0.000163918
66 *197:60 *603:68 8.00381e-05
67 *197:60 *603:82 0.000326342
68 *202:52 *603:68 0.000128757
69 *202:52 *603:82 8.17811e-05
70 *207:12 *3176:CLK 0.000112349
71 *207:39 *3186:CLK 8.58619e-05
72 *207:39 *603:8 4.41506e-05
73 *207:47 *3186:CLK 1.37328e-05
74 *208:10 *3191:CLK 4.36573e-06
75 *208:18 *3191:CLK 0.000221271
76 *208:18 *603:91 0.000180611
77 *208:106 *603:21 7.96104e-06
78 *235:18 *3226:CLK 1.55955e-05
79 *235:18 *603:39 6.8236e-05
80 *321:28 *3190:CLK 8.35936e-05
81 *336:25 *3190:CLK 2.75145e-05
82 *365:22 *3191:CLK 1.0911e-05
83 *365:22 *603:82 5.78474e-05
84 *365:22 *603:91 0.000314906
85 *365:64 *3191:CLK 0.000142778
86 *369:74 *603:82 6.42099e-05
87 *374:141 *3221:CLK 0.000667633
88 *374:141 *603:82 5.93455e-05
89 *376:84 *603:82 0.000236486
90 *399:34 *603:39 0.00042814
91 *421:32 *603:31 0
*RES
1 *3308:X *603:8 8.275 
2 *603:8 *3186:CLK 4.39 
3 *603:8 *603:21 3.635 
4 *603:21 *603:25 2.34 
5 *603:25 *603:31 6.23 
6 *603:31 *603:39 10.9625 
7 *603:39 *3226:CLK 6.6375 
8 *603:39 *603:68 9.11757 
9 *603:68 *603:70 2 
10 *603:70 *603:82 4.49547 
11 *603:82 *3223:CLK 3.6 
12 *603:82 *603:91 5.715 
13 *603:91 *3190:CLK 8.22 
14 *603:91 *3191:CLK 9.615 
15 *603:70 *3221:CLK 13.305 
16 *603:68 *3222:CLK 1.6 
17 *603:31 *3193:CLK 1.6 
18 *603:25 *3177:CLK 3.6 
19 *603:21 *3176:CLK 5.43 
*END

*D_NET *604 0.0137327
*CONN
*I *3187:CLK I *D sky130_fd_sc_hd__dfxtp_1
*I *3204:CLK I *D sky130_fd_sc_hd__dfxtp_1
*I *3205:CLK I *D sky130_fd_sc_hd__dfxtp_1
*I *3201:CLK I *D sky130_fd_sc_hd__dfxtp_1
*I *3200:CLK I *D sky130_fd_sc_hd__dfxtp_1
*I *3196:CLK I *D sky130_fd_sc_hd__dfxtp_1
*I *3197:CLK I *D sky130_fd_sc_hd__dfxtp_1
*I *3195:CLK I *D sky130_fd_sc_hd__dfxtp_1
*I *3198:CLK I *D sky130_fd_sc_hd__dfxtp_1
*I *3194:CLK I *D sky130_fd_sc_hd__dfxtp_1
*I *3199:CLK I *D sky130_fd_sc_hd__dfxtp_1
*I *3183:CLK I *D sky130_fd_sc_hd__dfxtp_1
*I *3182:CLK I *D sky130_fd_sc_hd__dfxtp_1
*I *3309:X O *D sky130_fd_sc_hd__clkbuf_8
*CAP
1 *3187:CLK 0.000158244
2 *3204:CLK 0
3 *3205:CLK 0.000136943
4 *3201:CLK 0
5 *3200:CLK 0.000193584
6 *3196:CLK 0.000128566
7 *3197:CLK 0.000144111
8 *3195:CLK 0.000184679
9 *3198:CLK 3.43921e-05
10 *3194:CLK 0.000253441
11 *3199:CLK 0
12 *3183:CLK 0.00015125
13 *3182:CLK 5.82553e-05
14 *3309:X 7.37034e-05
15 *604:156 0.000512722
16 *604:143 0.000489932
17 *604:126 0.00041145
18 *604:98 0.000369091
19 *604:92 0.000278891
20 *604:55 0.00041167
21 *604:53 0.00100309
22 *604:49 0.000894639
23 *604:40 0.00059805
24 *604:14 0.000465821
25 *604:12 0.000755898
26 *604:10 0.000254781
27 *3187:CLK *3319:A 7.22337e-05
28 *3196:CLK *2764:B2 1.88904e-05
29 *3196:CLK *3458:A 0.000219005
30 *3197:CLK *866:8 1.83756e-05
31 *3200:CLK *3030:A0 0.000138544
32 *3200:CLK *864:8 4.78896e-05
33 *3205:CLK *3461:A 5.23362e-05
34 *604:10 *2775:A1 4.62912e-05
35 *604:12 *3319:A 3.08892e-05
36 *604:14 *2993:A1 4.82919e-05
37 *604:14 *3319:A 1.56428e-05
38 *604:40 *2764:A1 0
39 *604:40 *2764:B2 0.000177035
40 *604:40 *2775:A1 7.5416e-05
41 *604:49 *2764:B2 0.000226658
42 *604:49 *3035:A1 4.76051e-05
43 *604:92 *2764:A1 0
44 *604:92 *2764:B2 0.000125084
45 *604:98 *2764:B2 0.000101524
46 *604:126 *3028:A0 2.68526e-05
47 *604:143 *3028:A0 0.000116703
48 *604:156 *2765:B2 2.49909e-05
49 *2692:A2 *604:98 1.54665e-05
50 *2692:A2 *604:143 2.97339e-05
51 *2692:A2 *604:156 2.1742e-05
52 *2692:B1 *604:98 5.33085e-05
53 *2698:B1 *604:98 4.66742e-05
54 *2698:B1 *604:126 0.000145495
55 *2698:B1 *604:143 0.000145495
56 *2730:A2 *604:40 0
57 *2993:S *604:14 0.00020069
58 *3003:A1 *604:10 4.31856e-05
59 *3003:A1 *604:40 0
60 *3023:S *604:53 8.35783e-05
61 *3026:A *3195:CLK 0
62 *3029:A *3196:CLK 8.23457e-05
63 *3029:A *604:98 2.49909e-05
64 *3029:A *604:126 4.8854e-05
65 *3031:A *3197:CLK 3.59272e-05
66 *3031:A *604:53 0.000264598
67 *3031:A *604:98 0
68 *3041:A *3205:CLK 3.50033e-05
69 *3182:D *3182:CLK 0.000113663
70 *3187:D *3187:CLK 0.00011006
71 *3194:D *3194:CLK 4.43871e-06
72 *3194:D *3195:CLK 0
73 *3195:D *3195:CLK 4.18603e-06
74 *3196:D *3196:CLK 2.16917e-05
75 *3197:D *3196:CLK 0.000186099
76 *3197:D *3197:CLK 3.79986e-05
77 *3198:D *604:53 9.83921e-06
78 *3198:D *604:55 1.66897e-05
79 *3201:D *604:156 0.000353328
80 *3204:D *3205:CLK 2.97004e-06
81 *3205:D *3205:CLK 0
82 *181:134 *604:40 0.000254385
83 *197:108 *3182:CLK 9.51101e-05
84 *197:108 *604:14 6.83629e-05
85 *215:24 *3182:CLK 8.65961e-05
86 *215:24 *3187:CLK 0.000309982
87 *215:24 *604:12 7.41429e-05
88 *215:24 *604:14 0.0008119
89 *215:38 *3183:CLK 0.000106248
90 *430:74 *3183:CLK 2.87179e-05
91 *432:143 *3183:CLK 7.44375e-05
92 *453:12 *604:53 9.13235e-05
93 *456:10 *604:40 0
*RES
1 *3309:X *604:10 7.235 
2 *604:10 *604:12 0.795 
3 *604:12 *604:14 7.695 
4 *604:14 *3182:CLK 3.775 
5 *604:14 *3183:CLK 8.645 
6 *604:12 *604:40 12.305 
7 *604:40 *3199:CLK 3.6 
8 *604:40 *604:49 2.91 
9 *604:49 *604:53 10.385 
10 *604:53 *604:55 1.485 
11 *604:55 *3194:CLK 9.17 
12 *604:55 *3198:CLK 2.215 
13 *604:53 *3195:CLK 9.02 
14 *604:49 *604:92 3.635 
15 *604:92 *604:98 4.3925 
16 *604:98 *3197:CLK 5.9475 
17 *604:98 *3196:CLK 7.5225 
18 *604:92 *604:126 2.52 
19 *604:126 *3200:CLK 9.08 
20 *604:126 *604:143 3.21 
21 *604:143 *3201:CLK 1.6 
22 *604:143 *604:156 6.45 
23 *604:156 *3205:CLK 8.045 
24 *604:156 *3204:CLK 1.6 
25 *604:10 *3187:CLK 5.845 
*END

*D_NET *605 0.0127325
*CONN
*I *3172:CLK I *D sky130_fd_sc_hd__dfxtp_1
*I *3150:CLK I *D sky130_fd_sc_hd__dfxtp_1
*I *3169:CLK I *D sky130_fd_sc_hd__dfxtp_1
*I *3174:CLK I *D sky130_fd_sc_hd__dfxtp_1
*I *3146:CLK I *D sky130_fd_sc_hd__dfxtp_1
*I *3152:CLK I *D sky130_fd_sc_hd__dfxtp_1
*I *3160:CLK I *D sky130_fd_sc_hd__dfxtp_1
*I *3153:CLK I *D sky130_fd_sc_hd__dfxtp_1
*I *3161:CLK I *D sky130_fd_sc_hd__dfxtp_1
*I *3168:CLK I *D sky130_fd_sc_hd__dfxtp_1
*I *3310:X O *D sky130_fd_sc_hd__clkbuf_8
*CAP
1 *3172:CLK 0
2 *3150:CLK 0.000499748
3 *3169:CLK 0
4 *3174:CLK 9.88258e-05
5 *3146:CLK 0.000704959
6 *3152:CLK 0
7 *3160:CLK 0.000137979
8 *3153:CLK 0
9 *3161:CLK 0.000301886
10 *3168:CLK 0.00014913
11 *3310:X 0.000249061
12 *605:73 0.00101314
13 *605:60 0.000228013
14 *605:51 0.000156632
15 *605:37 0.000538793
16 *605:31 0.000406883
17 *605:29 0.00045031
18 *605:27 0.000780082
19 *605:18 0.000495249
20 *605:8 0.00059518
21 *3146:CLK *2815:B2 0
22 *3150:CLK *2737:B2 0
23 *3150:CLK *917:8 0.000195488
24 *3160:CLK *3353:A 0.0001249
25 *3161:CLK *904:12 2.11084e-05
26 *3161:CLK *907:8 0.000115474
27 *605:8 *2736:A1 9.54469e-05
28 *605:8 *899:10 0.000183036
29 *605:18 *3395:A 0.000195012
30 *605:29 *2812:B2 0
31 *605:31 *2812:B2 0
32 *605:37 *904:12 4.9253e-06
33 *2740:A1 *605:18 0
34 *2740:A2 *3150:CLK 7.67405e-05
35 *2740:A2 *605:18 0.00043306
36 *2740:A2 *605:29 0.000153053
37 *2740:A3 *605:8 0
38 *2815:A2 *3150:CLK 0.000174478
39 *2815:A2 *605:29 0.000192219
40 *2816:A *3150:CLK 1.16433e-05
41 *2816:B *3168:CLK 0.000102573
42 *2817:A2 *3150:CLK 1.1561e-05
43 *2881:A *605:8 1.82563e-05
44 *2904:A *605:31 5.84456e-05
45 *2904:A *605:37 0.00011741
46 *2919:A0 *3160:CLK 0.000197017
47 *2919:A0 *3174:CLK 0.000246722
48 *2919:A0 *605:60 2.0514e-05
49 *2919:A0 *605:73 0.000333729
50 *2926:A1 *3146:CLK 0
51 *2926:A1 *605:37 8.26527e-05
52 *2947:B *3150:CLK 0.000145694
53 *2950:S *3150:CLK 3.50033e-05
54 *2950:S *605:29 8.80441e-05
55 *2951:A *605:29 0
56 *3150:D *3150:CLK 0.000108614
57 *3152:D *605:31 0.000112105
58 *3152:D *605:37 4.43871e-06
59 *3152:D *605:73 7.56999e-05
60 *3153:D *605:37 1.43717e-05
61 *3160:D *3160:CLK 4.99619e-05
62 *3161:D *3161:CLK 0.000113663
63 *3168:D *3168:CLK 1.43717e-05
64 *3172:D *605:8 9.50342e-06
65 *3172:D *605:18 0.000140905
66 *3174:D *3146:CLK 0
67 *218:126 *605:8 0.000598274
68 *218:126 *605:18 1.15688e-05
69 *325:16 *605:8 0.000120313
70 *325:28 *3150:CLK 0.000142051
71 *328:20 *3150:CLK 8.02938e-06
72 *358:28 *3150:CLK 0.000214918
73 *369:132 *3168:CLK 0.000247196
74 *369:132 *605:18 0.000383438
75 *374:40 *605:29 5.85741e-05
76 *374:40 *605:31 6.44051e-05
*RES
1 *3310:X *605:8 11.61 
2 *605:8 *605:18 11.27 
3 *605:18 *3168:CLK 5.5 
4 *605:18 *605:27 2 
5 *605:27 *605:29 5.97 
6 *605:29 *605:31 4.185 
7 *605:31 *605:37 6.92 
8 *605:37 *3161:CLK 7.225 
9 *605:37 *3153:CLK 1.6 
10 *605:31 *605:51 2 
11 *605:51 *3160:CLK 5.155 
12 *605:51 *605:60 0.45 
13 *605:60 *3152:CLK 1.6 
14 *605:60 *605:73 5.07 
15 *605:73 *3146:CLK 16.1 
16 *605:73 *3174:CLK 4.12 
17 *605:29 *3169:CLK 3.6 
18 *605:27 *3150:CLK 14.79 
19 *605:8 *3172:CLK 3.6 
*END

*D_NET *606 0.0133883
*CONN
*I *3185:CLK I *D sky130_fd_sc_hd__dfxtp_1
*I *3184:CLK I *D sky130_fd_sc_hd__dfxtp_1
*I *3269:CLK I *D sky130_fd_sc_hd__dfxtp_1
*I *3166:CLK I *D sky130_fd_sc_hd__dfxtp_1
*I *3255:CLK I *D sky130_fd_sc_hd__dfxtp_1
*I *3254:CLK I *D sky130_fd_sc_hd__dfxtp_1
*I *3148:CLK I *D sky130_fd_sc_hd__dfxtp_1
*I *3167:CLK I *D sky130_fd_sc_hd__dfxtp_1
*I *3311:X O *D sky130_fd_sc_hd__clkbuf_8
*CAP
1 *3185:CLK 6.28747e-05
2 *3184:CLK 3.02776e-05
3 *3269:CLK 0.000172077
4 *3166:CLK 9.66003e-05
5 *3255:CLK 0.000161213
6 *3254:CLK 0
7 *3148:CLK 0
8 *3167:CLK 0
9 *3311:X 2.74361e-05
10 *606:102 0.000470087
11 *606:81 0.00114768
12 *606:42 0.000570184
13 *606:27 0.00090976
14 *606:10 0.000519337
15 *606:8 0.000631388
16 *606:6 0.00114234
17 *3166:CLK *737:36 4.40899e-05
18 *3166:CLK *759:34 0.000155928
19 *606:27 *2811:A1 0.00014476
20 *606:27 *902:8 0.000159747
21 *606:42 *2888:A1 1.19928e-05
22 *2556:B *606:81 2.07679e-05
23 *2577:A *606:42 0.000177384
24 *2595:A0 *3184:CLK 2.04319e-05
25 *2595:A0 *3269:CLK 3.72957e-05
26 *2595:A0 *606:102 0.000297572
27 *2596:A *3255:CLK 0.000230037
28 *2631:A *3269:CLK 4.77719e-05
29 *2755:A2 *606:102 0.000264598
30 *2761:C *3185:CLK 3.37941e-05
31 *2762:C *606:102 0.000151756
32 *2763:B2 *3269:CLK 0.000303278
33 *2811:A2 *606:27 0.000212931
34 *2812:C1 *3166:CLK 0
35 *2886:A0 *606:27 0.000326432
36 *2889:A *606:42 0.000135896
37 *2941:B *606:81 7.82498e-05
38 *2945:A *3166:CLK 8.23457e-05
39 *2959:B *606:8 8.23457e-05
40 *2978:A *3269:CLK 0.000483544
41 *3148:D *606:27 0.000239069
42 *3149:D *606:42 1.01661e-05
43 *3166:D *3166:CLK 8.35068e-05
44 *3167:D *606:8 1.43717e-05
45 *3184:D *606:102 1.43717e-05
46 *3185:D *3185:CLK 3.25831e-05
47 *3254:D *3255:CLK 1.43717e-05
48 *3269:D *3269:CLK 1.19928e-05
49 *208:18 *3255:CLK 6.92078e-05
50 *218:126 *606:81 0.000963585
51 *291:24 *606:42 0.000469555
52 *299:32 *606:42 5.83121e-06
53 *322:61 *3255:CLK 8.79325e-05
54 *350:48 *606:81 0
55 *355:38 *606:81 2.01543e-05
56 *355:38 *606:102 8.94564e-05
57 *355:42 *606:81 0.000110301
58 *359:12 *606:27 5.56048e-05
59 *359:12 *606:42 6.07575e-06
60 *365:22 *606:42 0.000511897
61 *370:54 *3185:CLK 7.35849e-05
62 *371:61 *606:42 7.58798e-06
63 *374:76 *606:8 0.000146866
64 *374:76 *606:10 4.82863e-05
65 *374:76 *606:27 0.000115697
66 *385:16 *606:27 0.00011846
67 *391:43 *606:42 0
68 *419:61 *3184:CLK 4.77719e-05
69 *419:61 *3255:CLK 0.000132233
70 *419:61 *606:102 0.000418227
71 *532:18 *606:81 9.23027e-06
72 *532:18 *606:102 1.61489e-05
*RES
1 *3311:X *606:6 2.05 
2 *606:6 *606:8 7.695 
3 *606:8 *606:10 0.45 
4 *606:10 *3167:CLK 1.6 
5 *606:10 *606:27 16.78 
6 *606:27 *3148:CLK 1.6 
7 *606:27 *606:42 15.205 
8 *606:42 *3254:CLK 1.6 
9 *606:42 *3255:CLK 10.025 
10 *606:8 *3166:CLK 8.285 
11 *606:6 *606:81 14.195 
12 *606:81 *3269:CLK 8.895 
13 *606:81 *606:102 12.125 
14 *606:102 *3184:CLK 2.41 
15 *606:102 *3185:CLK 7.235 
*END

*D_NET *607 0.016808
*CONN
*I *3315:A I *D sky130_fd_sc_hd__buf_4
*I *3316:A I *D sky130_fd_sc_hd__clkbuf_2
*I *3314:A I *D sky130_fd_sc_hd__clkbuf_4
*I *3462:X O *D sky130_fd_sc_hd__clkbuf_2
*CAP
1 *3315:A 1.8475e-05
2 *3316:A 0.000834506
3 *3314:A 0.00111313
4 *3462:X 0.0016675
5 *607:22 0.00245646
6 *607:12 0.0021948
7 *3314:A *2780:A 0.000392603
8 *3314:A *2834:B 4.9968e-05
9 *3314:A *3387:A 0.000104362
10 *3314:A *652:6 8.40269e-05
11 *3314:A *652:23 0.000258694
12 *3314:A *775:61 0.00109806
13 *3315:A *3276:D 2.49909e-05
14 *3316:A *2865:B1 0.000159722
15 *607:12 *2719:B 0.000136891
16 *607:12 *2723:A_N 9.30717e-05
17 *607:12 *3273:RESET_B 0
18 *607:12 *3433:A 0
19 *607:12 *799:20 0.000605738
20 *607:22 *2873:A 9.83207e-05
21 *607:22 *2964:C 0
22 *607:22 *3276:D 6.71882e-05
23 *2791:A *3314:A 9.64869e-05
24 *2851:B_N *3316:A 5.80663e-05
25 *2854:A1_N *3316:A 0.000224329
26 *2862:A *607:22 4.23233e-05
27 *2865:A1 *3316:A 0.000122817
28 *2865:A2 *3316:A 0.000122821
29 *2866:B *3316:A 4.77769e-05
30 *2867:A *3316:A 8.06779e-05
31 *2953:B *3314:A 0.000108771
32 *3042:A *607:12 1.15688e-05
33 *3042:A *607:22 0.000587643
34 *3054:A *607:12 7.736e-05
35 *3070:A *607:22 0.000123516
36 *3210:CLK *3314:A 0.000133453
37 *3276:CLK *607:12 0.000358937
38 *215:8 *607:22 4.66108e-05
39 *215:68 *3315:A 1.19928e-05
40 *215:68 *607:22 2.8185e-05
41 *323:62 *3316:A 0.000932633
42 *336:12 *3316:A 0.000104588
43 *361:36 *3314:A 0.000664174
44 *361:36 *607:22 0.000216089
45 *407:14 *3314:A 0.000567282
46 *407:14 *607:22 0.0003091
47 *415:52 *3314:A 0.000127671
48 *430:30 *3314:A 1.19928e-05
49 *480:14 *3314:A 7.28318e-05
50 *527:12 *3314:A 5.98151e-05
51 *595:65 *607:12 0
*RES
1 *3462:X *607:12 36.68 
2 *607:12 *607:22 14.6 
3 *607:22 *3314:A 36.175 
4 *607:22 *3316:A 22.455 
5 *607:12 *3315:A 2.05 
*END

*D_NET *608 0.0141537
*CONN
*I *2780:B I *D sky130_fd_sc_hd__and3_1
*I *2683:A I *D sky130_fd_sc_hd__nand2_1
*I *2809:A2 I *D sky130_fd_sc_hd__a22o_1
*I *2732:A2 I *D sky130_fd_sc_hd__a221o_1
*I *2758:A I *D sky130_fd_sc_hd__and2_1
*I *3465:X O *D sky130_fd_sc_hd__clkbuf_2
*CAP
1 *2780:B 0
2 *2683:A 3.87152e-05
3 *2809:A2 2.0929e-05
4 *2732:A2 0.000518078
5 *2758:A 0.000353116
6 *3465:X 0.000127862
7 *608:37 0.00132735
8 *608:18 0.00131009
9 *608:16 0.000957137
10 *608:10 0.000877655
11 *2683:A *2763:C1 5.58436e-05
12 *2732:A2 *2732:A1 7.48159e-05
13 *2732:A2 *2732:B2 1.34605e-05
14 *2732:A2 *2809:B2 0.000103599
15 *2732:A2 *920:8 8.53113e-06
16 *2809:A2 *2809:A1 0.000122797
17 *2809:A2 *2809:B2 0.000122797
18 *608:10 *3465:A 1.56428e-05
19 *608:16 *2763:C1 0.000232111
20 *608:37 *2809:B2 2.85623e-05
21 *608:37 *796:30 7.23602e-05
22 *2632:B *608:37 0.000335791
23 *2636:A *608:37 0.000619191
24 *2683:B *2683:A 0
25 *2683:B *608:18 2.97593e-05
26 *2683:B *608:37 3.09164e-05
27 *2732:C1 *2732:A2 0.000354164
28 *2754:B *608:16 0.000242837
29 *2763:B2 *608:16 0.000177751
30 *2819:A3 *608:37 5.2305e-05
31 *2836:A *2758:A 9.03081e-05
32 *2836:B *2758:A 7.21296e-06
33 *2837:A *2758:A 4.61007e-06
34 *2953:B *608:37 0.000141864
35 *2960:S *608:37 0.000129312
36 *3271:D *608:37 3.76596e-05
37 *174:35 *2758:A 0.000675952
38 *175:8 *608:16 6.07575e-06
39 *175:8 *608:18 1.1392e-05
40 *176:23 *608:16 0.000204463
41 *191:10 *608:10 0
42 *191:18 *608:10 4.04498e-05
43 *191:35 *608:10 8.28738e-05
44 *211:41 *608:10 9.50342e-06
45 *211:41 *608:16 0.000995602
46 *211:43 *608:16 0.000307343
47 *211:47 *608:16 0.000493466
48 *215:68 *608:10 9.07847e-05
49 *215:68 *608:16 9.86611e-05
50 *215:72 *608:16 0.000139629
51 *215:86 *608:16 0.000597465
52 *322:10 *2758:A 8.80293e-06
53 *322:12 *2758:A 4.66108e-05
54 *322:16 *2758:A 0.000638439
55 *328:133 *608:37 0.00034791
56 *328:149 *608:37 0
57 *351:18 *608:37 0.000216823
58 *351:20 *608:37 0.000168194
59 *351:95 *608:37 5.89992e-05
60 *511:10 *608:37 0.000159957
61 *511:150 *608:37 0.000119167
*RES
1 *3465:X *608:10 6.195 
2 *608:10 *608:16 25.79 
3 *608:16 *608:18 1.83 
4 *608:18 *2758:A 14.78 
5 *608:18 *608:37 23.27 
6 *608:37 *2732:A2 11.3438 
7 *608:37 *2809:A2 4.74 
8 *608:16 *2683:A 2.47 
9 *608:10 *2780:B 3.6 
*END

*D_NET *609 0.000330985
*CONN
*I *2960:A1 I *D sky130_fd_sc_hd__mux2_1
*I *3445:X O *D sky130_fd_sc_hd__dlygate4sd3_1
*CAP
1 *2960:A1 0.000121914
2 *3445:X 0.000121914
3 *2960:A0 *2960:A1 8.71565e-05
*RES
1 *3445:X *2960:A1 4.685 
*END

*D_NET *610 0.000450895
*CONN
*I *3053:A1 I *D sky130_fd_sc_hd__mux2_1
*I *3446:X O *D sky130_fd_sc_hd__dlygate4sd3_1
*CAP
1 *3053:A1 9.85776e-05
2 *3446:X 9.85776e-05
3 *3053:A1 *3433:A 0.000120835
4 *3053:A0 *3053:A1 1.87038e-05
5 *3206:D *3053:A1 0.000114201
*RES
1 *3446:X *3053:A1 9.72 
*END

*D_NET *611 0.000329916
*CONN
*I *2944:A1 I *D sky130_fd_sc_hd__mux2_1
*I *3447:X O *D sky130_fd_sc_hd__dlygate4sd3_1
*CAP
1 *2944:A1 3.76265e-05
2 *3447:X 3.76265e-05
3 *2819:A1 *2944:A1 0.000162311
4 *2819:A2 *2944:A1 9.80032e-06
5 *2944:S *2944:A1 2.49909e-05
6 *299:32 *2944:A1 3.00381e-05
7 *400:6 *2944:A1 2.75229e-05
*RES
1 *3447:X *2944:A1 4.685 
*END

*D_NET *612 0.00164953
*CONN
*I *2888:A1 I *D sky130_fd_sc_hd__mux2_1
*I *3448:X O *D sky130_fd_sc_hd__dlygate4sd3_1
*CAP
1 *2888:A1 0.000300188
2 *3448:X 0.000300188
3 *2888:A1 *2760:A1 0.00026784
4 *2577:A *2888:A1 9.044e-05
5 *299:32 *2888:A1 0.000360964
6 *359:12 *2888:A1 0.000269625
7 *359:18 *2888:A1 4.82919e-05
8 *606:42 *2888:A1 1.19928e-05
*RES
1 *3448:X *2888:A1 13.71 
*END

*D_NET *613 0.000440912
*CONN
*I *3020:A0 I *D sky130_fd_sc_hd__mux2_1
*I *3449:X O *D sky130_fd_sc_hd__dlygate4sd3_1
*CAP
1 *3020:A0 6.02705e-05
2 *3449:X 6.02705e-05
3 *3020:A1 *3020:A0 0.000122325
4 *3085:A *3020:A0 0.000198046
*RES
1 *3449:X *3020:A0 5.03 
*END

*D_NET *614 0.000354554
*CONN
*I *2966:A1 I *D sky130_fd_sc_hd__mux2_1
*I *3450:X O *D sky130_fd_sc_hd__dlygate4sd3_1
*CAP
1 *2966:A1 9.24264e-05
2 *3450:X 9.24264e-05
3 *2966:A1 *889:14 7.14241e-05
4 *2879:A *2966:A1 7.14241e-05
5 *2966:A0 *2966:A1 2.68526e-05
*RES
1 *3450:X *2966:A1 9.24 
*END

*D_NET *615 0.0011311
*CONN
*I *2625:A1 I *D sky130_fd_sc_hd__mux2_1
*I *3452:X O *D sky130_fd_sc_hd__dlygate4sd3_1
*CAP
1 *2625:A1 0.000137722
2 *3452:X 0.000137722
3 *2622:B *2625:A1 0.000155608
4 *2623:A0 *2625:A1 0.000177775
5 *2727:B1 *2625:A1 2.24169e-05
6 *2729:B1 *2625:A1 8.27307e-05
7 *2807:A2 *2625:A1 4.8174e-05
8 *2808:B1 *2625:A1 0.000197505
9 *211:85 *2625:A1 1.7635e-05
10 *215:108 *2625:A1 0.000153816
*RES
1 *3452:X *2625:A1 12.105 
*END

*D_NET *616 0.000642861
*CONN
*I *3043:A1 I *D sky130_fd_sc_hd__mux2_1
*I *3453:X O *D sky130_fd_sc_hd__dlygate4sd3_1
*CAP
1 *3043:A1 0.000241117
2 *3453:X 0.000241117
3 *3043:A1 *3045:A1 0.000160626
4 *3044:A *3043:A1 0
*RES
1 *3453:X *3043:A1 10.905 
*END

*D_NET *617 0.000932331
*CONN
*I *2590:A1 I *D sky130_fd_sc_hd__mux2_1
*I *3454:X O *D sky130_fd_sc_hd__dlygate4sd3_1
*CAP
1 *2590:A1 0.000133417
2 *3454:X 0.000133417
3 *2590:A1 *2801:A1 8.40269e-05
4 *2590:A1 *3454:A 4.99619e-05
5 *2588:S *2590:A1 0.000136182
6 *2722:C1 *2590:A1 0
7 *2729:A1 *2590:A1 7.79002e-05
8 *2729:A2 *2590:A1 0.000126853
9 *350:120 *2590:A1 0.000134509
10 *547:14 *2590:A1 9.50342e-06
11 *598:122 *2590:A1 4.65607e-05
*RES
1 *3454:X *2590:A1 11.475 
*END

*D_NET *618 0.00111721
*CONN
*I *2615:A1 I *D sky130_fd_sc_hd__mux2_1
*I *3455:X O *D sky130_fd_sc_hd__dlygate4sd3_1
*CAP
1 *2615:A1 0.000352372
2 *3455:X 0.000352372
3 *2557:B *2615:A1 2.16389e-05
4 *2615:A0 *2615:A1 4.82919e-05
5 *2804:B1 *2615:A1 0
6 *3263:D *2615:A1 6.28843e-05
7 *328:48 *2615:A1 0.000257967
8 *538:22 *2615:A1 2.16833e-05
*RES
1 *3455:X *2615:A1 12.555 
*END

*D_NET *619 0.0163641
*CONN
*I *2779:B I *D sky130_fd_sc_hd__and3_1
*I *2810:A2 I *D sky130_fd_sc_hd__a221o_1
*I *2737:A2 I *D sky130_fd_sc_hd__a22o_1
*I *2750:A2 I *D sky130_fd_sc_hd__a31o_1
*I *2787:B I *D sky130_fd_sc_hd__and3_1
*I *3466:X O *D sky130_fd_sc_hd__clkbuf_2
*CAP
1 *2779:B 0
2 *2810:A2 8.4196e-06
3 *2737:A2 0.00125435
4 *2750:A2 3.46808e-05
5 *2787:B 2.08101e-05
6 *3466:X 0.000445889
7 *619:62 0.0021669
8 *619:54 0.00123981
9 *619:39 0.00122443
10 *619:14 0.00132077
11 *2737:A2 *2737:A1 0.000344686
12 *2750:A2 *2750:A1 9.50342e-06
13 *2810:A2 *2810:A1 2.87433e-05
14 *619:14 *759:28 0.000560559
15 *619:39 *2751:A 0.000312097
16 *619:39 *2782:A 3.09451e-05
17 *619:39 *2787:A 4.39656e-05
18 *619:39 *3408:A 0.000100837
19 *619:39 *3414:A 0.000213908
20 *619:62 *2779:A 0.00031763
21 *619:62 *2818:A1 0
22 *619:62 *2818:B1 0
23 *619:62 *3361:A 3.4222e-05
24 *619:62 *737:46 0.000469217
25 *619:62 *826:8 9.37846e-05
26 *2708:B *619:14 6.98629e-05
27 *2737:B1 *2737:A2 0
28 *2750:B1 *619:39 0.000306449
29 *2752:B1 *619:39 0.000379447
30 *2817:A1 *619:62 0.000116158
31 *2818:A2 *619:62 0
32 *2948:S *2737:A2 3.87723e-05
33 *2962:A0 *2810:A2 2.87433e-05
34 *2982:A *619:62 0.000116921
35 *2983:A *619:54 0.000212923
36 *2996:S *619:39 0.000407255
37 *3122:B *619:14 0.000108031
38 *3172:D *2737:A2 2.60579e-05
39 *3173:CLK *2737:A2 4.9253e-06
40 *3173:D *2737:A2 7.90245e-05
41 *3271:CLK *619:62 0
42 *174:14 *2750:A2 5.39961e-05
43 *174:14 *619:39 4.66108e-05
44 *176:44 *619:39 0
45 *177:28 *619:39 0.000185398
46 *187:64 *619:14 0
47 *187:98 *2737:A2 8.65905e-05
48 *192:10 *619:14 7.25462e-06
49 *192:10 *619:39 8.73389e-06
50 *192:12 *619:14 1.14714e-05
51 *192:22 *619:14 0.000175768
52 *211:41 *619:62 0.000304595
53 *211:43 *619:62 0.00031562
54 *211:47 *2737:A2 8.0005e-05
55 *211:47 *619:62 0.00144558
56 *212:20 *619:39 0.000270647
57 *212:42 *619:39 0.000415308
58 *218:108 *619:39 1.14559e-05
59 *350:48 *2737:A2 0.00028271
60 *359:111 *2737:A2 0.000201393
61 *359:111 *619:62 5.16418e-05
62 *411:14 *619:39 0
63 *415:52 *2750:A2 3.57768e-05
64 *415:52 *619:54 3.67779e-05
65 *527:12 *619:39 0.000165996
*RES
1 *3466:X *619:14 14.465 
2 *619:14 *2787:B 1.96 
3 *619:14 *619:39 28.44 
4 *619:39 *2750:A2 4.47 
5 *619:39 *619:54 6.425 
6 *619:54 *619:62 28.67 
7 *619:62 *2737:A2 22.485 
8 *619:62 *2810:A2 3.8775 
9 *619:54 *2779:B 1.6 
*END

*D_NET *620 0.000595044
*CONN
*I *2623:A1 I *D sky130_fd_sc_hd__mux2_1
*I *3456:X O *D sky130_fd_sc_hd__dlygate4sd3_1
*CAP
1 *2623:A1 0.000115575
2 *3456:X 0.000115575
3 *2623:A0 *2623:A1 6.33103e-05
4 *2623:S *2623:A1 4.66108e-05
5 *2729:B1 *2623:A1 0.000108927
6 *2802:B1 *2623:A1 4.02502e-05
7 *218:42 *2623:A1 9.83446e-05
8 *350:120 *2623:A1 6.44978e-06
*RES
1 *3456:X *2623:A1 10.08 
*END

*D_NET *621 0.000709603
*CONN
*I *3099:A1 I *D sky130_fd_sc_hd__mux2_1
*I *3457:X O *D sky130_fd_sc_hd__dlygate4sd3_1
*CAP
1 *3099:A1 0.000253215
2 *3457:X 0.000253215
3 *3099:A1 *3096:A1 3.8253e-05
4 *3099:A1 *726:26 0.000164919
*RES
1 *3457:X *3099:A1 7.445 
*END

*D_NET *622 0.00108228
*CONN
*I *3025:A0 I *D sky130_fd_sc_hd__mux2_1
*I *3458:X O *D sky130_fd_sc_hd__dlygate4sd3_1
*CAP
1 *3025:A0 0.0002669
2 *3458:X 0.0002669
3 *3025:A0 *2692:B2 3.00381e-05
4 *3025:A0 *3023:A0 0.000165068
5 *3025:A0 *3434:A 0.000296088
6 *3025:A0 *3458:A 0
7 *3025:A0 *867:10 4.92062e-05
8 *3026:A *3025:A0 0
9 *3031:A *3025:A0 8.08153e-06
*RES
1 *3458:X *3025:A0 13.29 
*END

*D_NET *623 0.000752441
*CONN
*I *2583:A1 I *D sky130_fd_sc_hd__mux2_1
*I *3459:X O *D sky130_fd_sc_hd__dlygate4sd3_1
*CAP
1 *2583:A1 0.000248754
2 *3459:X 0.000248754
3 *2583:A1 *3459:A 0.000142026
4 *3252:CLK *2583:A1 0.000112907
*RES
1 *3459:X *2583:A1 11.505 
*END

*D_NET *624 0.000536394
*CONN
*I *3120:A1 I *D sky130_fd_sc_hd__mux2_1
*I *3460:X O *D sky130_fd_sc_hd__dlygate4sd3_1
*CAP
1 *3120:A1 4.82201e-05
2 *3460:X 4.82201e-05
3 *3128:A0 *3120:A1 0.000161837
4 *601:42 *3120:A1 0.000278117
*RES
1 *3460:X *3120:A1 5.72 
*END

*D_NET *625 0.000416153
*CONN
*I *3040:A0 I *D sky130_fd_sc_hd__mux2_1
*I *3461:X O *D sky130_fd_sc_hd__dlygate4sd3_1
*CAP
1 *3040:A0 0.000123438
2 *3461:X 0.000123438
3 *3040:A0 *3336:A 2.23253e-05
4 *430:116 *3040:A0 0.000122821
5 *462:10 *3040:A0 2.41307e-05
*RES
1 *3461:X *3040:A0 9.21 
*END

*D_NET *626 0.000455662
*CONN
*I *3003:A0 I *D sky130_fd_sc_hd__mux2_1
*I *3319:X O *D sky130_fd_sc_hd__dlygate4sd3_1
*CAP
1 *3003:A0 0.000143843
2 *3319:X 0.000143843
3 *3002:A *3003:A0 0.000167976
*RES
1 *3319:X *3003:A0 5.495 
*END

*D_NET *627 0.00207858
*CONN
*I *3030:A0 I *D sky130_fd_sc_hd__mux2_1
*I *3320:X O *D sky130_fd_sc_hd__dlygate4sd3_1
*CAP
1 *3030:A0 0.000356373
2 *3320:X 0.000356373
3 *3030:A0 *2698:A1 0
4 *3030:A0 *2764:A1 0.000306164
5 *3030:A0 *3028:A0 0
6 *3030:A0 *3035:A1 4.77807e-05
7 *3030:A0 *3320:A 0.000640945
8 *3030:A0 *865:8 5.05521e-05
9 *3028:A1 *3030:A0 0.000112001
10 *3028:S *3030:A0 2.43441e-05
11 *3200:CLK *3030:A0 0.000138544
12 *442:119 *3030:A0 1.56428e-05
13 *456:10 *3030:A0 2.98644e-05
*RES
1 *3320:X *3030:A0 17.685 
*END

*D_NET *628 0.000422713
*CONN
*I *2936:A0 I *D sky130_fd_sc_hd__mux2_1
*I *3321:X O *D sky130_fd_sc_hd__dlygate4sd3_1
*CAP
1 *2936:A0 0.000158884
2 *3321:X 0.000158884
3 *2936:A0 *2733:B2 0
4 *2936:S *2936:A0 9.98831e-05
5 *369:104 *2936:A0 5.062e-06
*RES
1 *3321:X *2936:A0 9.735 
*END

*D_NET *629 0.000805216
*CONN
*I *2974:A0 I *D sky130_fd_sc_hd__mux2_1
*I *3322:X O *D sky130_fd_sc_hd__dlygate4sd3_1
*CAP
1 *2974:A0 0.000230769
2 *3322:X 0.000230769
3 *2974:A0 *2707:A1 0.000273541
4 *2974:A0 *2770:A1 7.01359e-05
*RES
1 *3322:X *2974:A0 10.59 
*END

*D_NET *630 0.00954707
*CONN
*I *3284:RESET_B I *D sky130_fd_sc_hd__dfrtp_1
*I *3286:RESET_B I *D sky130_fd_sc_hd__dfrtp_1
*I *3287:RESET_B I *D sky130_fd_sc_hd__dfrtp_1
*I *3293:SET_B I *D sky130_fd_sc_hd__dfstp_1
*I *3272:RESET_B I *D sky130_fd_sc_hd__dfrtp_1
*I *3290:RESET_B I *D sky130_fd_sc_hd__dfrtp_1
*I *3279:RESET_B I *D sky130_fd_sc_hd__dfrtp_1
*I *3282:RESET_B I *D sky130_fd_sc_hd__dfrtp_4
*I *3294:RESET_B I *D sky130_fd_sc_hd__dfrtp_1
*I *3283:RESET_B I *D sky130_fd_sc_hd__dfrtp_1
*I *3312:X O *D sky130_fd_sc_hd__clkbuf_4
*CAP
1 *3284:RESET_B 4.97478e-06
2 *3286:RESET_B 1.17451e-05
3 *3287:RESET_B 2.70279e-05
4 *3293:SET_B 0.000214133
5 *3272:RESET_B 7.9943e-05
6 *3290:RESET_B 2.59705e-05
7 *3279:RESET_B 0
8 *3282:RESET_B 0
9 *3294:RESET_B 0.000237989
10 *3283:RESET_B 3.20088e-05
11 *3312:X 7.85477e-05
12 *630:83 0.000516474
13 *630:81 0.000509949
14 *630:73 0.000656643
15 *630:54 0.00108581
16 *630:42 0.000928081
17 *630:16 0.000428499
18 *630:12 0.000824312
19 *630:10 0.000730519
20 *630:8 0.0003909
21 *3272:RESET_B *3440:A 0
22 *3283:RESET_B *693:24 5.22698e-05
23 *3287:RESET_B *3287:D 0.000157375
24 *3293:SET_B *783:12 3.738e-05
25 *3294:RESET_B *693:24 0.000525284
26 *3294:RESET_B *797:10 9.75063e-05
27 *630:8 *3280:RESET_B 2.50049e-05
28 *630:8 *3374:A 0
29 *630:10 *3280:RESET_B 6.55328e-05
30 *630:10 *3374:A 0
31 *630:12 *2650:A 0
32 *630:12 *2651:B 7.24866e-05
33 *630:12 *3280:RESET_B 0.000130065
34 *630:12 *3281:RESET_B 0
35 *630:12 *796:16 0
36 *630:16 *796:16 0
37 *630:16 *797:10 0
38 *630:42 *3284:D 1.03423e-05
39 *630:54 *2664:A2 9.70228e-05
40 *630:54 *792:19 7.84785e-05
41 *630:54 *794:10 0
42 *630:54 *794:29 0
43 *630:54 *794:33 0
44 *630:73 *2654:S 2.77665e-05
45 *630:73 *3286:D 8.73389e-06
46 *630:73 *782:8 6.38291e-05
47 *630:81 *2654:S 0
48 *630:83 *783:12 0
49 *2638:A *3293:SET_B 4.82863e-05
50 *2639:B *630:12 0
51 *2640:A0 *630:12 0
52 *2641:A *630:16 0
53 *2646:A2 *3287:RESET_B 9.31061e-05
54 *2646:A2 *630:83 0
55 *2653:A2 *630:12 0.000136884
56 *2655:A *3272:RESET_B 0
57 *2655:A *630:83 0
58 *2676:A *630:54 0
59 *2676:A *630:73 0
60 *2677:B *3284:RESET_B 1.53577e-05
61 *2677:B *630:42 4.05674e-06
62 *2677:B *630:54 0.000186104
63 *3272:D *3272:RESET_B 2.67022e-05
64 *3286:CLK *630:73 7.54478e-05
65 *3286:CLK *630:81 0
66 *3294:D *3294:RESET_B 2.3536e-06
67 *11:43 *630:54 0.000306373
68 *156:10 *630:54 4.94326e-05
69 *584:12 *630:12 7.23602e-05
70 *590:108 *630:12 1.92979e-05
71 *590:121 *630:12 0
72 *592:113 *3293:SET_B 2.91561e-06
73 *592:115 *3272:RESET_B 0
74 *593:34 *630:42 8.57321e-05
75 *593:40 *630:8 0.000117825
76 *593:40 *630:42 7.22354e-05
*RES
1 *3312:X *630:8 5.49 
2 *630:8 *630:10 1.38 
3 *630:10 *630:12 12.345 
4 *630:12 *630:16 4.655 
5 *630:16 *3283:RESET_B 0.7425 
6 *630:16 *3294:RESET_B 6.2625 
7 *630:12 *3282:RESET_B 2 
8 *630:10 *3279:RESET_B 2 
9 *630:8 *630:42 5.9 
10 *630:42 *630:54 13.8875 
11 *630:54 *3290:RESET_B 2.6825 
12 *630:54 *630:73 8.6975 
13 *630:73 *630:81 5.315 
14 *630:81 *630:83 2.91 
15 *630:83 *3272:RESET_B 3.38 
16 *630:83 *3293:SET_B 5.1575 
17 *630:81 *3287:RESET_B 3.4325 
18 *630:73 *3286:RESET_B 0.3975 
19 *630:42 *3284:RESET_B 0.3975 
*END

*D_NET *631 0.000607903
*CONN
*I *3130:A1 I *D sky130_fd_sc_hd__mux2_1
*I *3323:X O *D sky130_fd_sc_hd__dlygate4sd3_1
*CAP
1 *3130:A1 0.00018796
2 *3323:X 0.00018796
3 *3130:A1 *3128:A1 0.00011663
4 *3130:A1 *823:14 6.53916e-05
5 *3130:S *3130:A1 4.99619e-05
6 *601:14 *3130:A1 0
*RES
1 *3323:X *3130:A1 11.07 
*END

*D_NET *632 0.00114126
*CONN
*I *3071:A1 I *D sky130_fd_sc_hd__mux2_1
*I *3324:X O *D sky130_fd_sc_hd__dlygate4sd3_1
*CAP
1 *3071:A1 0.000256777
2 *3324:X 0.000256777
3 *3071:A0 *3071:A1 0.000579417
4 *3073:A0 *3071:A1 4.82919e-05
*RES
1 *3324:X *3071:A1 8.48 
*END

*D_NET *633 0.00110201
*CONN
*I *3091:A0 I *D sky130_fd_sc_hd__mux2_1
*I *3325:X O *D sky130_fd_sc_hd__dlygate4sd3_1
*CAP
1 *3091:A0 0.000345066
2 *3325:X 0.000345066
3 *3091:S *3091:A0 0.000114886
4 *3092:A *3091:A0 4.82919e-05
5 *3221:CLK *3091:A0 0.000119762
6 *3221:D *3091:A0 1.43717e-05
7 *208:18 *3091:A0 4.05358e-05
8 *365:22 *3091:A0 7.4027e-05
*RES
1 *3325:X *3091:A0 13.02 
*END

*D_NET *634 0.000862364
*CONN
*I *3081:A0 I *D sky130_fd_sc_hd__mux2_1
*I *3326:X O *D sky130_fd_sc_hd__dlygate4sd3_1
*CAP
1 *3081:A0 0.000171706
2 *3326:X 0.000171706
3 *3081:A0 *2793:A1 2.97291e-05
4 *2793:A2 *3081:A0 4.76503e-05
5 *2794:C1 *3081:A0 7.23602e-05
6 *492:8 *3081:A0 0.000124007
7 *602:86 *3081:A0 0.000245206
*RES
1 *3326:X *3081:A0 11.25 
*END

*D_NET *635 0.000444651
*CONN
*I *2919:A1 I *D sky130_fd_sc_hd__mux2_1
*I *3327:X O *D sky130_fd_sc_hd__dlygate4sd3_1
*CAP
1 *2919:A1 0.000192234
2 *3327:X 0.000192234
3 *2919:A1 *901:16 5.53249e-06
4 *2919:S *2919:A1 5.53249e-06
5 *2927:A *2919:A1 4.91189e-05
6 *3158:D *2919:A1 0
*RES
1 *3327:X *2919:A1 10.62 
*END

*D_NET *636 0.000620949
*CONN
*I *2894:A1 I *D sky130_fd_sc_hd__mux2_1
*I *3328:X O *D sky130_fd_sc_hd__dlygate4sd3_1
*CAP
1 *2894:A1 0.000180361
2 *3328:X 0.000180361
3 *2838:B *2894:A1 0.000213616
4 *2894:A0 *2894:A1 4.66108e-05
*RES
1 *3328:X *2894:A1 6.185 
*END

*D_NET *637 0.000577849
*CONN
*I *2608:A1 I *D sky130_fd_sc_hd__mux2_1
*I *3330:X O *D sky130_fd_sc_hd__dlygate4sd3_1
*CAP
1 *2608:A1 0.000186542
2 *3330:X 0.000186542
3 *2608:S *2608:A1 2.0514e-05
4 *2613:A0 *2608:A1 3.26889e-05
5 *181:56 *2608:A1 0.000120652
6 *299:32 *2608:A1 3.09088e-05
7 *600:26 *2608:A1 0
*RES
1 *3330:X *2608:A1 10.17 
*END

*D_NET *638 0.00029714
*CONN
*I *2979:A1 I *D sky130_fd_sc_hd__mux2_1
*I *3331:X O *D sky130_fd_sc_hd__dlygate4sd3_1
*CAP
1 *2979:A1 0.000131882
2 *3331:X 0.000131882
3 *425:6 *2979:A1 3.33763e-05
*RES
1 *3331:X *2979:A1 4.685 
*END

*D_NET *639 0.000773235
*CONN
*I *2610:A1 I *D sky130_fd_sc_hd__mux2_1
*I *3332:X O *D sky130_fd_sc_hd__dlygate4sd3_1
*CAP
1 *2610:A1 0.000258682
2 *3332:X 0.000258682
3 *2610:A1 *2805:B2 0
4 *2610:S *2610:A1 7.23602e-05
5 *328:30 *2610:A1 0.000183512
*RES
1 *3332:X *2610:A1 10.935 
*END

*D_NET *640 0.000410434
*CONN
*I *2962:A1 I *D sky130_fd_sc_hd__mux2_1
*I *3333:X O *D sky130_fd_sc_hd__dlygate4sd3_1
*CAP
1 *2962:A1 0.000115194
2 *3333:X 0.000115194
3 *2962:A1 *796:30 1.79882e-05
4 *2962:A0 *2962:A1 0.000113765
5 *2963:A *2962:A1 4.82919e-05
*RES
1 *3333:X *2962:A1 5.375 
*END

*D_NET *641 0.00441295
*CONN
*I *3292:RESET_B I *D sky130_fd_sc_hd__dfrtp_1
*I *3288:RESET_B I *D sky130_fd_sc_hd__dfrtp_1
*I *3145:RESET_B I *D sky130_fd_sc_hd__dfrtp_1
*I *3291:RESET_B I *D sky130_fd_sc_hd__dfrtp_4
*I *3289:RESET_B I *D sky130_fd_sc_hd__dfrtp_2
*I *3144:RESET_B I *D sky130_fd_sc_hd__dfrtp_1
*I *3313:X O *D sky130_fd_sc_hd__clkbuf_2
*CAP
1 *3292:RESET_B 0
2 *3288:RESET_B 0.000101577
3 *3145:RESET_B 0.000273312
4 *3291:RESET_B 0
5 *3289:RESET_B 3.50635e-05
6 *3144:RESET_B 9.41775e-05
7 *3313:X 0
8 *641:36 0.00037489
9 *641:22 0.000355415
10 *641:20 0.000493987
11 *641:18 0.000655724
12 *641:4 0.000576266
13 *3144:RESET_B *3313:A 0.000160995
14 *641:22 *2657:B 5.85317e-05
15 *2649:A *641:22 7.51327e-05
16 *3288:CLK *3145:RESET_B 0.000103982
17 *3288:D *641:22 0.000262524
18 *3292:CLK *641:18 0
19 *3292:CLK *641:20 0
20 *3292:D *641:20 0
21 *11:29 *3289:RESET_B 4.91189e-05
22 *11:29 *641:22 0.000139467
23 *157:18 *3289:RESET_B 0.000120186
24 *157:18 *641:22 0.000158673
25 *593:91 *3145:RESET_B 2.91561e-06
26 *596:61 *3144:RESET_B 0.000264749
27 *596:61 *641:18 5.62622e-05
*RES
1 *3313:X *641:4 1.6 
2 *641:4 *3144:RESET_B 3.0825 
3 *641:4 *641:18 7.715 
4 *641:18 *641:20 2.91 
5 *641:20 *641:22 8.265 
6 *641:22 *3289:RESET_B 3.38 
7 *641:22 *3291:RESET_B 2 
8 *641:20 *641:36 2 
9 *641:36 *3145:RESET_B 3.9825 
10 *641:36 *3288:RESET_B 1.4325 
11 *641:18 *3292:RESET_B 2 
*END

*D_NET *642 0.000587449
*CONN
*I *2573:A1 I *D sky130_fd_sc_hd__mux2_1
*I *3334:X O *D sky130_fd_sc_hd__dlygate4sd3_1
*CAP
1 *2573:A1 0.000221967
2 *3334:X 0.000221967
3 *2573:S *2573:A1 7.11549e-05
4 *358:36 *2573:A1 7.23602e-05
*RES
1 *3334:X *2573:A1 10.245 
*END

*D_NET *643 0.00131159
*CONN
*I *3050:A1 I *D sky130_fd_sc_hd__mux2_1
*I *3335:X O *D sky130_fd_sc_hd__dlygate4sd3_1
*CAP
1 *3050:A1 0.000430034
2 *3335:X 0.000430034
3 *3050:A1 *2766:B2 0
4 *3050:A1 *3335:A 7.53903e-05
5 *3050:A1 *3416:A 4.66108e-05
6 *2766:A2 *3050:A1 1.74776e-05
7 *2767:C1 *3050:A1 8.33066e-06
8 *3046:A *3050:A1 9.54399e-05
9 *3050:S *3050:A1 2.88357e-05
10 *430:155 *3050:A1 7.48954e-05
11 *595:97 *3050:A1 0.000104542
*RES
1 *3335:X *3050:A1 15.3 
*END

*D_NET *644 0.00162885
*CONN
*I *3035:A1 I *D sky130_fd_sc_hd__mux2_1
*I *3336:X O *D sky130_fd_sc_hd__dlygate4sd3_1
*CAP
1 *3035:A1 0.000374559
2 *3336:X 0.000374559
3 *3035:A1 *2764:A1 2.75092e-05
4 *3030:A0 *3035:A1 4.77807e-05
5 *3038:A1 *3035:A1 3.68948e-05
6 *3040:A1 *3035:A1 0.000158997
7 *430:95 *3035:A1 4.77807e-05
8 *430:116 *3035:A1 0.000304442
9 *442:119 *3035:A1 5.01751e-05
10 *445:106 *3035:A1 0.000158548
11 *604:49 *3035:A1 4.76051e-05
*RES
1 *3336:X *3035:A1 14.4 
*END

*D_NET *645 0.000506266
*CONN
*I *2628:A1 I *D sky130_fd_sc_hd__mux2_1
*I *3337:X O *D sky130_fd_sc_hd__dlygate4sd3_1
*CAP
1 *2628:A1 5.54747e-05
2 *3337:X 5.54747e-05
3 *2628:A0 *2628:A1 4.89295e-05
4 *2628:S *2628:A1 0.000121019
5 *2630:S *2628:A1 0.000121023
6 *2755:A2 *2628:A1 0.000104345
*RES
1 *3337:X *2628:A1 5.375 
*END

*D_NET *646 0.000587636
*CONN
*I *2563:A1 I *D sky130_fd_sc_hd__mux2_1
*I *3338:X O *D sky130_fd_sc_hd__dlygate4sd3_1
*CAP
1 *2563:A1 0.000100887
2 *3338:X 0.000100887
3 *2563:A1 *815:8 6.81824e-05
4 *500:37 *2563:A1 0.000158839
5 *511:79 *2563:A1 0.000158839
*RES
1 *3338:X *2563:A1 10.23 
*END

*D_NET *647 0.000437892
*CONN
*I *3088:A0 I *D sky130_fd_sc_hd__mux2_1
*I *3339:X O *D sky130_fd_sc_hd__dlygate4sd3_1
*CAP
1 *3088:A0 5.70264e-05
2 *3339:X 5.70264e-05
3 *3088:A1 *3088:A0 0.000123225
4 *602:14 *3088:A0 0.000200615
*RES
1 *3339:X *3088:A0 5.03 
*END

*D_NET *648 0.00137034
*CONN
*I *3083:A0 I *D sky130_fd_sc_hd__mux2_1
*I *3341:X O *D sky130_fd_sc_hd__dlygate4sd3_1
*CAP
1 *3083:A0 0.000322352
2 *3341:X 0.000322352
3 *3063:A1 *3083:A0 0.000605057
4 *3082:A *3083:A0 0.000103192
5 *197:128 *3083:A0 0
6 *445:42 *3083:A0 1.7386e-05
*RES
1 *3341:X *3083:A0 14.985 
*END

*D_NET *649 0.00161686
*CONN
*I *2954:A1 I *D sky130_fd_sc_hd__mux2_1
*I *3342:X O *D sky130_fd_sc_hd__dlygate4sd3_1
*CAP
1 *2954:A1 0.000616652
2 *3342:X 0.000616652
3 *2954:A1 *894:10 2.01737e-05
4 *2810:C1 *2954:A1 0.000108433
5 *2954:A0 *2954:A1 2.46218e-05
6 *3171:CLK *2954:A1 0.000141971
7 *3171:D *2954:A1 8.83522e-05
*RES
1 *3342:X *2954:A1 12.8 
*END

*D_NET *650 0.00147666
*CONN
*I *2839:A0 I *D sky130_fd_sc_hd__mux2_1
*I *3343:X O *D sky130_fd_sc_hd__dlygate4sd3_1
*CAP
1 *2839:A0 0.00066884
2 *3343:X 0.00066884
3 *2839:A0 *2842:A0 0
4 *2839:A0 *693:32 3.47218e-05
5 *2839:A0 *923:8 1.55253e-05
6 *2839:A1 *2839:A0 3.18973e-05
7 *208:58 *2839:A0 4.76126e-05
8 *328:20 *2839:A0 9.22294e-06
9 *599:59 *2839:A0 0
*RES
1 *3343:X *2839:A0 16.065 
*END

*D_NET *651 0.000344745
*CONN
*I *3038:A0 I *D sky130_fd_sc_hd__mux2_1
*I *3344:X O *D sky130_fd_sc_hd__dlygate4sd3_1
*CAP
1 *3038:A0 0.000102267
2 *3344:X 0.000102267
3 *3038:A0 *3461:A 0.000118104
4 *3038:A0 *861:14 2.21074e-05
*RES
1 *3344:X *3038:A0 8.865 
*END

*D_NET *652 0.0108911
*CONN
*I *3313:A I *D sky130_fd_sc_hd__clkbuf_2
*I *3312:A I *D sky130_fd_sc_hd__clkbuf_4
*I *3281:RESET_B I *D sky130_fd_sc_hd__dfrtp_1
*I *3280:RESET_B I *D sky130_fd_sc_hd__dfrtp_1
*I *3278:RESET_B I *D sky130_fd_sc_hd__dfrtp_1
*I *3277:RESET_B I *D sky130_fd_sc_hd__dfrtp_1
*I *2834:C I *D sky130_fd_sc_hd__nand3_4
*I *2555:C_N I *D sky130_fd_sc_hd__or3b_4
*I *3314:X O *D sky130_fd_sc_hd__clkbuf_4
*CAP
1 *3313:A 0.000659495
2 *3312:A 2.4637e-05
3 *3281:RESET_B 0.000103081
4 *3280:RESET_B 0.000514005
5 *3278:RESET_B 0.000422224
6 *3277:RESET_B 0.000757311
7 *2834:C 0
8 *2555:C_N 2.08954e-05
9 *3314:X 2.439e-05
10 *652:63 0.00101075
11 *652:59 0.00153862
12 *652:23 0.000964154
13 *652:6 0.000370416
14 *3277:RESET_B *2779:A 4.82919e-05
15 *3280:RESET_B *3279:D 0.000105542
16 *3281:RESET_B *2650:A 0
17 *3313:A *3278:D 4.82919e-05
18 *652:23 *2555:A 6.2187e-05
19 *652:23 *2555:B 8.23457e-05
20 *652:23 *774:92 0.000126584
21 *652:59 *3278:D 0.000198939
22 *652:63 *3277:D 5.02217e-05
23 *2779:C *3277:RESET_B 4.6194e-05
24 *2783:A *3277:RESET_B 2.49909e-05
25 *2783:A *652:23 4.41506e-05
26 *2983:A *3277:RESET_B 0.000317708
27 *2983:A *652:23 8.40213e-05
28 *2983:B *3277:RESET_B 8.65961e-05
29 *3144:D *3313:A 0.0001249
30 *3144:RESET_B *3313:A 0.000160995
31 *3277:CLK *3278:RESET_B 0
32 *3277:CLK *652:63 6.28765e-05
33 *3280:CLK *3280:RESET_B 0.000383352
34 *3301:A *3280:RESET_B 0
35 *3301:A *652:63 0
36 *3314:A *652:6 8.40269e-05
37 *3314:A *652:23 0.000258694
38 *173:12 *3277:RESET_B 0.000215298
39 *215:72 *652:23 0.000137578
40 *231:14 *652:23 4.10688e-05
41 *316:22 *3281:RESET_B 0
42 *323:10 *3312:A 4.66108e-05
43 *323:62 *3278:RESET_B 0
44 *415:52 *652:23 5.42473e-05
45 *527:12 *652:6 4.66826e-05
46 *527:12 *652:23 5.13692e-05
47 *593:14 *3280:RESET_B 0
48 *593:34 *3280:RESET_B 0
49 *593:40 *3280:RESET_B 0.000206817
50 *593:40 *652:63 0.00012904
51 *593:51 *652:63 0.000203576
52 *593:77 *652:63 0.0005278
53 *596:61 *3313:A 0.000171378
54 *596:63 *3313:A 2.8185e-05
55 *630:8 *3280:RESET_B 2.50049e-05
56 *630:10 *3280:RESET_B 6.55328e-05
57 *630:12 *3280:RESET_B 0.000130065
58 *630:12 *3281:RESET_B 0
*RES
1 *3314:X *652:6 2.395 
2 *652:6 *2555:C_N 1.96 
3 *652:6 *652:23 12.055 
4 *652:23 *2834:C 1.6 
5 *652:23 *3277:RESET_B 11.1075 
6 *3277:RESET_B *3278:RESET_B 5.38 
7 *3278:RESET_B *652:59 3.9675 
8 *652:59 *652:63 15.365 
9 *652:63 *3280:RESET_B 12.2375 
10 *3280:RESET_B *3281:RESET_B 5.635 
11 *652:63 *3312:A 4.05 
12 *652:59 *3313:A 10.345 
*END

*D_NET *653 0.000676177
*CONN
*I *2568:A1 I *D sky130_fd_sc_hd__mux2_1
*I *3345:X O *D sky130_fd_sc_hd__dlygate4sd3_1
*CAP
1 *2568:A1 0.000261452
2 *3345:X 0.000261452
3 *2568:A1 *3345:A 0
4 *2568:A1 *813:10 0.00012657
5 *2571:A *2568:A1 2.67022e-05
6 *3245:D *2568:A1 0
*RES
1 *3345:X *2568:A1 11.25 
*END

*D_NET *654 0.000575564
*CONN
*I *3073:A1 I *D sky130_fd_sc_hd__mux2_1
*I *3346:X O *D sky130_fd_sc_hd__dlygate4sd3_1
*CAP
1 *3073:A1 0.000285563
2 *3346:X 0.000285563
3 *3073:A1 *2792:B2 0
4 *3073:A0 *3073:A1 4.43871e-06
5 *483:18 *3073:A1 0
*RES
1 *3346:X *3073:A1 10.83 
*END

*D_NET *655 0.000512948
*CONN
*I *2565:A1 I *D sky130_fd_sc_hd__mux2_1
*I *3347:X O *D sky130_fd_sc_hd__dlygate4sd3_1
*CAP
1 *2565:A1 0.000236337
2 *3347:X 0.000236337
3 *2565:A1 *3347:A 2.30258e-05
4 *2565:A0 *2565:A1 5.83121e-06
5 *3249:CLK *2565:A1 1.14169e-05
*RES
1 *3347:X *2565:A1 9.9 
*END

*D_NET *656 0.000581749
*CONN
*I *2921:A1 I *D sky130_fd_sc_hd__mux2_1
*I *3348:X O *D sky130_fd_sc_hd__dlygate4sd3_1
*CAP
1 *2921:A1 0.000226829
2 *3348:X 0.000226829
3 *2921:A1 *2733:A1 1.16578e-05
4 *2921:A1 *901:16 6.65725e-05
5 *2921:A1 *906:10 0
6 *2921:S *2921:A1 1.19928e-05
7 *369:104 *2921:A1 3.78687e-05
*RES
1 *3348:X *2921:A1 10.245 
*END

*D_NET *657 0.00120382
*CONN
*I *2878:A1 I *D sky130_fd_sc_hd__mux2_1
*I *3349:X O *D sky130_fd_sc_hd__dlygate4sd3_1
*CAP
1 *2878:A1 0.000366257
2 *3349:X 0.000366257
3 *2878:A1 *2731:B2 9.54399e-05
4 *2878:A1 *3352:A 1.17409e-05
5 *2732:C1 *2878:A1 1.47256e-05
6 *2878:S *2878:A1 8.49205e-05
7 *2955:A *2878:A1 0.000164352
8 *3170:CLK *2878:A1 4.80285e-05
9 *592:32 *2878:A1 5.20968e-05
*RES
1 *3349:X *2878:A1 13.965 
*END

*D_NET *658 0.000938058
*CONN
*I *2956:A1 I *D sky130_fd_sc_hd__mux2_1
*I *3350:X O *D sky130_fd_sc_hd__dlygate4sd3_1
*CAP
1 *2956:A1 0.000188647
2 *3350:X 0.000188647
3 *2956:A1 *2731:A1 8.64599e-05
4 *2956:A1 *693:24 2.41307e-05
5 *2956:A0 *2956:A1 8.41384e-05
6 *2957:A *2956:A1 4.66108e-05
7 *2963:A *2956:A1 0.000228871
8 *592:28 *2956:A1 9.05535e-05
*RES
1 *3350:X *2956:A1 11.295 
*END

*D_NET *659 0.000383176
*CONN
*I *2882:A1 I *D sky130_fd_sc_hd__mux2_1
*I *3352:X O *D sky130_fd_sc_hd__dlygate4sd3_1
*CAP
1 *2882:A1 0.000110163
2 *3352:X 0.000110163
3 *2968:A0 *2882:A1 4.82863e-05
4 *359:119 *2882:A1 7.4027e-05
5 *592:32 *2882:A1 4.05358e-05
*RES
1 *3352:X *2882:A1 9.48 
*END

*D_NET *660 0.000559166
*CONN
*I *2926:A0 I *D sky130_fd_sc_hd__mux2_1
*I *3353:X O *D sky130_fd_sc_hd__dlygate4sd3_1
*CAP
1 *2926:A0 0.000228694
2 *3353:X 0.000228694
3 *2926:A0 *904:12 2.87867e-05
4 *2904:A *2926:A0 0
5 *2926:A1 *2926:A0 4.99619e-05
6 *2926:S *2926:A0 2.30292e-05
7 *3153:D *2926:A0 0
*RES
1 *3353:X *2926:A0 10.905 
*END

*D_NET *661 0.000362596
*CONN
*I *2603:A1 I *D sky130_fd_sc_hd__mux2_1
*I *3354:X O *D sky130_fd_sc_hd__dlygate4sd3_1
*CAP
1 *2603:A1 0.000108117
2 *3354:X 0.000108117
3 *2605:S *2603:A1 9.80943e-06
4 *316:89 *2603:A1 4.82863e-05
5 *556:8 *2603:A1 8.8266e-05
*RES
1 *3354:X *2603:A1 4.685 
*END

*D_NET *662 0.000689949
*CONN
*I *3128:A1 I *D sky130_fd_sc_hd__mux2_1
*I *3355:X O *D sky130_fd_sc_hd__dlygate4sd3_1
*CAP
1 *3128:A1 0.000235958
2 *3355:X 0.000235958
3 *3128:A0 *3128:A1 3.07153e-05
4 *3128:S *3128:A1 7.06865e-05
5 *3130:A1 *3128:A1 0.00011663
6 *601:14 *3128:A1 0
*RES
1 *3355:X *3128:A1 10.905 
*END

*D_NET *663 0.00833972
*CONN
*I *3273:RESET_B I *D sky130_fd_sc_hd__dfrtp_4
*I *3276:RESET_B I *D sky130_fd_sc_hd__dfrtp_4
*I *3140:RESET_B I *D sky130_fd_sc_hd__dfrtp_2
*I *3274:RESET_B I *D sky130_fd_sc_hd__dfrtp_4
*I *3139:RESET_B I *D sky130_fd_sc_hd__dfrtp_1
*I *3138:RESET_B I *D sky130_fd_sc_hd__dfrtp_1
*I *3141:RESET_B I *D sky130_fd_sc_hd__dfrtp_4
*I *2970:C I *D sky130_fd_sc_hd__nand3b_4
*I *3057:B I *D sky130_fd_sc_hd__nand3b_4
*I *3275:RESET_B I *D sky130_fd_sc_hd__dfrtp_4
*I *3315:X O *D sky130_fd_sc_hd__buf_4
*CAP
1 *3273:RESET_B 0.000157847
2 *3276:RESET_B 0.000467882
3 *3140:RESET_B 0.000101781
4 *3274:RESET_B 0.000145695
5 *3139:RESET_B 1.92961e-05
6 *3138:RESET_B 7.82039e-05
7 *3141:RESET_B 0
8 *2970:C 1.86374e-05
9 *3057:B 0.000312299
10 *3275:RESET_B 4.01738e-05
11 *3315:X 6.60489e-05
12 *663:92 0.000695816
13 *663:40 0.000741796
14 *663:34 0.00057155
15 *663:32 0.000426169
16 *663:30 0.000331073
17 *663:26 0.000270197
18 *663:24 0.000630138
19 *663:10 0.000568531
20 *663:8 0.000136135
21 *2970:C *775:92 3.5678e-06
22 *3057:B *3057:C 0.000160338
23 *3057:B *774:124 8.41384e-05
24 *3057:B *775:51 7.30505e-05
25 *3057:B *775:57 0.000153185
26 *3139:RESET_B *2831:A 7.8198e-05
27 *3139:RESET_B *773:18 4.70477e-05
28 *3273:RESET_B *2719:B 0.000113797
29 *3273:RESET_B *2719:D 6.28687e-05
30 *3273:RESET_B *3275:D 0
31 *3274:RESET_B *3418:A 0
32 *3274:RESET_B *799:12 0
33 *3276:RESET_B *2723:D 3.6227e-05
34 *3276:RESET_B *798:69 2.55219e-05
35 *3276:RESET_B *799:45 2.54616e-05
36 *3276:RESET_B *800:75 8.57469e-05
37 *3276:RESET_B *801:57 4.08276e-05
38 *663:30 *3418:A 0
39 *663:30 *772:12 0
40 *663:40 *775:51 2.21074e-05
41 *663:92 *3275:D 0
42 *2854:A1_N *663:40 0
43 *2854:B1 *663:34 0.000196613
44 *2854:B1 *663:40 0.000117825
45 *2855:A1 *663:34 0.00010052
46 *2855:A1 *663:40 7.36562e-05
47 *2855:B1 *663:40 0
48 *2859:A *3138:RESET_B 9.31061e-05
49 *2859:A *663:30 0
50 *2859:A *663:32 0
51 *2859:A *663:34 0
52 *3138:D *663:34 9.54399e-05
53 *3139:D *663:32 0
54 *3140:CLK *663:24 5.90938e-05
55 *3140:D *3274:RESET_B 4.54719e-05
56 *3140:D *663:24 0.000163199
57 *3140:D *663:30 2.92496e-05
58 *3275:CLK *663:24 1.83756e-05
59 *3276:CLK *3273:RESET_B 4.62396e-05
60 *3276:CLK *663:8 3.59997e-05
61 *3276:CLK *663:92 4.87458e-05
62 *211:14 *663:40 0
63 *211:14 *663:92 0
64 *318:117 *663:34 0
65 *319:10 *663:8 0
66 *319:10 *663:92 0
67 *323:62 *663:40 0.000282661
68 *334:76 *663:34 0
69 *338:29 *663:40 0
70 *340:10 *663:40 0
71 *419:8 *3057:B 8.53011e-05
72 *419:136 *663:40 0
73 *595:36 *3274:RESET_B 0
74 *595:38 *663:24 5.68668e-05
75 *595:55 *3273:RESET_B 0
76 *607:12 *3273:RESET_B 0
*RES
1 *3315:X *663:8 4.725 
2 *663:8 *663:10 2 
3 *663:10 *3275:RESET_B 0.7575 
4 *663:10 *663:24 7.47 
5 *663:24 *663:26 2 
6 *663:26 *663:30 1.83 
7 *663:30 *663:32 2.91 
8 *663:32 *663:34 4.185 
9 *663:34 *663:40 10.205 
10 *663:40 *3057:B 8.275 
11 *663:40 *2970:C 1.96 
12 *663:34 *3141:RESET_B 2 
13 *663:32 *3138:RESET_B 3.4325 
14 *663:30 *3139:RESET_B 2.7425 
15 *663:26 *3274:RESET_B 4.655 
16 *663:24 *3140:RESET_B 1.4325 
17 *663:8 *663:92 1.38 
18 *663:92 *3276:RESET_B 12.135 
19 *663:92 *3273:RESET_B 5.165 
*END

*D_NET *664 0.00156323
*CONN
*I *2605:A1 I *D sky130_fd_sc_hd__mux2_1
*I *3356:X O *D sky130_fd_sc_hd__dlygate4sd3_1
*CAP
1 *2605:A1 0.000513219
2 *3356:X 0.000513219
3 *2605:A1 *2805:B2 0.000248254
4 *2605:A1 *924:8 4.99619e-05
5 *2604:A *2605:A1 2.66586e-05
6 *2605:S *2605:A1 3.23663e-05
7 *2839:A1 *2605:A1 4.58257e-05
8 *3259:D *2605:A1 0
9 *208:58 *2605:A1 4.71333e-05
10 *316:78 *2605:A1 8.65905e-05
11 *599:14 *2605:A1 0
*RES
1 *3356:X *2605:A1 15.15 
*END

*D_NET *665 0.000982404
*CONN
*I *2968:A1 I *D sky130_fd_sc_hd__mux2_1
*I *3357:X O *D sky130_fd_sc_hd__dlygate4sd3_1
*CAP
1 *2968:A1 0.000306898
2 *3357:X 0.000306898
3 *2968:A1 *2809:A1 0
4 *2968:A0 *2968:A1 0.000328073
5 *2969:A *2968:A1 4.05358e-05
6 *3175:CLK *2968:A1 0
7 *3175:D *2968:A1 0
8 *592:32 *2968:A1 0
*RES
1 *3357:X *2968:A1 12.885 
*END

*D_NET *666 0.00059503
*CONN
*I *2618:A1 I *D sky130_fd_sc_hd__mux2_1
*I *3358:X O *D sky130_fd_sc_hd__dlygate4sd3_1
*CAP
1 *2618:A1 0.000184968
2 *3358:X 0.000184968
3 *2618:A1 *2727:A1 0
4 *2619:A *2618:A1 0
5 *2620:A0 *2618:A1 6.02202e-05
6 *2923:B *2618:A1 0.000164874
*RES
1 *3358:X *2618:A1 10.065 
*END

*D_NET *667 0.00151982
*CONN
*I *2976:A0 I *D sky130_fd_sc_hd__mux2_1
*I *3359:X O *D sky130_fd_sc_hd__dlygate4sd3_1
*CAP
1 *2976:A0 0.000516621
2 *3359:X 0.000516621
3 *2730:A2 *2976:A0 0
4 *3001:A1 *2976:A0 2.12738e-05
5 *3002:A *2976:A0 8.30619e-05
6 *3309:A *2976:A0 0.000125362
7 *197:108 *2976:A0 9.67685e-05
8 *365:64 *2976:A0 0.000160115
9 *374:141 *2976:A0 0
*RES
1 *3359:X *2976:A0 14.91 
*END

*D_NET *668 0.000537885
*CONN
*I *3001:A0 I *D sky130_fd_sc_hd__mux2_1
*I *3360:X O *D sky130_fd_sc_hd__dlygate4sd3_1
*CAP
1 *3001:A0 0.000179206
2 *3360:X 0.000179206
3 *3001:A0 *3360:A 0.000106195
4 *3001:A1 *3001:A0 4.82863e-05
5 *3001:S *3001:A0 2.49909e-05
*RES
1 *3360:X *3001:A0 6.425 
*END

*D_NET *669 0.00208664
*CONN
*I *2818:A1 I *D sky130_fd_sc_hd__o21a_1
*I *2635:A1 I *D sky130_fd_sc_hd__mux2_1
*I *3361:X O *D sky130_fd_sc_hd__dlygate4sd3_1
*CAP
1 *2818:A1 0.000483228
2 *2635:A1 0.000206263
3 *3361:X 0
4 *669:4 0.00068949
5 *2818:A1 *3361:A 4.80285e-05
6 *2634:A *2635:A1 4.9253e-06
7 *2634:A *2818:A1 6.19801e-05
8 *2819:B1 *2818:A1 5.05521e-05
9 *3270:D *2818:A1 0.000158302
10 *3271:CLK *2818:A1 0.000158313
11 *3280:D *2818:A1 0
12 *3281:D *2818:A1 8.65961e-05
13 *592:24 *2818:A1 0.000138961
14 *619:62 *2818:A1 0
*RES
1 *3361:X *669:4 1.6 
2 *669:4 *2635:A1 4.045 
3 *669:4 *2818:A1 14.375 
*END

*D_NET *670 0.000434369
*CONN
*I *2981:A1 I *D sky130_fd_sc_hd__mux2_1
*I *3363:X O *D sky130_fd_sc_hd__dlygate4sd3_1
*CAP
1 *2981:A1 0.000169432
2 *3363:X 0.000169432
3 *2982:A *2981:A1 0
4 *351:150 *2981:A1 3.86607e-05
5 *359:70 *2981:A1 3.94592e-05
6 *359:83 *2981:A1 1.7386e-05
*RES
1 *3363:X *2981:A1 9.555 
*END

*D_NET *671 0.000310244
*CONN
*I *2585:A1 I *D sky130_fd_sc_hd__mux2_1
*I *3364:X O *D sky130_fd_sc_hd__dlygate4sd3_1
*CAP
1 *2585:A1 0.000112227
2 *3364:X 0.000112227
3 *2585:A1 *806:10 7.99594e-05
4 *2585:A0 *2585:A1 5.83121e-06
*RES
1 *3364:X *2585:A1 4.685 
*END

*D_NET *672 0.000310201
*CONN
*I *2668:B I *D sky130_fd_sc_hd__or2_1
*I *3365:X O *D sky130_fd_sc_hd__dlygate4sd3_1
*CAP
1 *2668:B 0.000140081
2 *3365:X 0.000140081
3 *2668:B *2820:A 3.00381e-05
4 *310:12 *2668:B 0
*RES
1 *3365:X *2668:B 9.285 
*END

*D_NET *673 0.0003076
*CONN
*I *2613:A1 I *D sky130_fd_sc_hd__mux2_1
*I *3366:X O *D sky130_fd_sc_hd__dlygate4sd3_1
*CAP
1 *2613:A1 5.97202e-05
2 *3366:X 5.97202e-05
3 *2613:A0 *2613:A1 5.2397e-05
4 *2615:S *2613:A1 4.99619e-05
5 *562:14 *2613:A1 8.58007e-05
*RES
1 *3366:X *2613:A1 4.685 
*END

*D_NET *674 0.0054299
*CONN
*I *3143:RESET_B I *D sky130_fd_sc_hd__dfrtp_4
*I *3142:RESET_B I *D sky130_fd_sc_hd__dfrtp_4
*I *3137:RESET_B I *D sky130_fd_sc_hd__dfrtp_1
*I *3136:SET_B I *D sky130_fd_sc_hd__dfstp_1
*I *3285:RESET_B I *D sky130_fd_sc_hd__dfrtp_1
*I *3316:X O *D sky130_fd_sc_hd__clkbuf_2
*CAP
1 *3143:RESET_B 8.4903e-05
2 *3142:RESET_B 0
3 *3137:RESET_B 0.000272253
4 *3136:SET_B 5.80135e-06
5 *3285:RESET_B 0.000186334
6 *3316:X 0.000131578
7 *674:33 0.000416093
8 *674:20 0.000688387
9 *674:16 0.000449142
10 *674:10 0.000301609
11 *3137:RESET_B *779:10 0.000101998
12 *3285:RESET_B *2824:A2 5.92191e-05
13 *674:10 *2865:B1 0.000191355
14 *674:10 *775:8 1.64141e-05
15 *674:16 *2865:B1 0.000150732
16 *674:16 *775:8 0.000126162
17 *674:20 *2865:B1 6.98623e-05
18 *674:20 *775:8 3.24563e-05
19 *674:20 *775:14 0.000446499
20 *2823:D *674:20 0
21 *2824:A1 *3285:RESET_B 0.000183036
22 *2847:B1 *674:20 0.000139238
23 *2848:B1_N *674:20 0
24 *2866:A *3143:RESET_B 0.000155608
25 *2866:B *3143:RESET_B 0.00011407
26 *2867:A *674:10 9.92396e-05
27 *2869:B1 *3143:RESET_B 4.77769e-05
28 *3137:CLK *3137:RESET_B 5.65067e-05
29 *3301:A *674:20 0
30 *159:20 *3285:RESET_B 0.00044111
31 *159:20 *674:20 0.000129006
32 *312:27 *674:20 2.61825e-05
33 *313:10 *3285:RESET_B 0
34 *313:10 *674:20 0
35 *596:40 *3136:SET_B 2.53494e-05
36 *596:40 *3137:RESET_B 0.000238357
37 *596:40 *674:33 4.3624e-05
*RES
1 *3316:X *674:10 6.96 
2 *674:10 *674:16 2.7 
3 *674:16 *674:20 8.97 
4 *674:20 *3285:RESET_B 7.205 
5 *674:20 *674:33 3.845 
6 *674:33 *3136:SET_B 0.3975 
7 *674:33 *3137:RESET_B 4.8825 
8 *674:16 *3142:RESET_B 2 
9 *674:10 *3143:RESET_B 4.3925 
*END

*D_NET *675 0.000368723
*CONN
*I *2620:A1 I *D sky130_fd_sc_hd__mux2_1
*I *3367:X O *D sky130_fd_sc_hd__dlygate4sd3_1
*CAP
1 *2620:A1 0.00010419
2 *3367:X 0.00010419
3 *2896:A *2620:A1 0.000160342
*RES
1 *3367:X *2620:A1 4.685 
*END

*D_NET *676 0.000482029
*CONN
*I *2648:A0 I *D sky130_fd_sc_hd__mux2_1
*I *3368:X O *D sky130_fd_sc_hd__dlygate4sd3_1
*CAP
1 *2648:A0 0.000163879
2 *3368:X 0.000163879
3 *2648:A1 *2648:A0 0.000114649
4 *11:29 *2648:A0 3.96214e-05
*RES
1 *3368:X *2648:A0 9.975 
*END

*D_NET *677 0.00739987
*CONN
*I *3465:A I *D sky130_fd_sc_hd__clkbuf_2
*I *2749:B I *D sky130_fd_sc_hd__and3_1
*I *3464:X O *D sky130_fd_sc_hd__buf_1
*CAP
1 *3465:A 0.000331652
2 *2749:B 0.000334085
3 *3464:X 0.00124528
4 *677:20 0.00191101
5 *2749:B *2749:A 3.90873e-06
6 *2749:B *2786:A 2.65814e-06
7 *3465:A *3383:A 0.000234358
8 *2551:S *3465:A 0.000119866
9 *2552:A *3465:A 8.5214e-05
10 *2749:C *2749:B 1.26985e-05
11 *2749:C *3465:A 3.31413e-05
12 *2786:C *2749:B 0.000116158
13 *2875:B *677:20 0.000235906
14 *2940:A *677:20 0.000179701
15 *2940:B *677:20 0.000149342
16 *2946:C *677:20 1.6011e-05
17 *2989:A *677:20 0
18 *3047:A *677:20 0.000351368
19 *3059:A *677:20 0.000112153
20 *3468:A *677:20 1.74629e-05
21 *191:35 *3465:A 0.000850499
22 *218:12 *677:20 0
23 *317:113 *677:20 1.01152e-05
24 *318:62 *677:20 5.16418e-05
25 *319:88 *677:20 4.12825e-05
26 *336:23 *677:20 6.33103e-05
27 *340:41 *677:20 0
28 *343:10 *677:20 3.26822e-05
29 *355:10 *677:20 0
30 *355:38 *2749:B 8.79662e-05
31 *355:38 *677:20 0.000270314
32 *361:36 *3465:A 0.000153144
33 *365:14 *677:20 1.22824e-05
34 *384:14 *677:20 0.000154586
35 *411:10 *677:20 0.00016443
36 *415:27 *677:20 0
37 *608:10 *3465:A 1.56428e-05
*RES
1 *3464:X *677:20 33.31 
2 *677:20 *2749:B 8.595 
3 *677:20 *3465:A 14.19 
*END

*D_NET *678 0.0056475
*CONN
*I *2709:A2 I *D sky130_fd_sc_hd__a31o_1
*I *3466:A I *D sky130_fd_sc_hd__clkbuf_2
*I *3467:X O *D sky130_fd_sc_hd__buf_1
*CAP
1 *2709:A2 6.33663e-05
2 *3466:A 0.000167068
3 *3467:X 0.000974247
4 *678:12 0.00120468
5 *3466:A *3457:A 8.33066e-06
6 *3466:A *737:24 1.79536e-05
7 *3466:A *737:36 0.000110733
8 *3466:A *759:12 2.59398e-05
9 *678:12 *2720:A_N 0
10 *678:12 *2720:B_N 5.12859e-05
11 *678:12 *3457:A 0.000104264
12 *678:12 *800:19 4.62396e-05
13 *2709:A3 *2709:A2 2.49909e-05
14 *2709:A3 *3466:A 1.0397e-05
15 *2928:A *678:12 6.3109e-05
16 *3037:A *678:12 7.25503e-05
17 *3096:A0 *3466:A 4.77807e-05
18 *3190:D *678:12 7.56644e-05
19 *172:14 *678:12 0
20 *180:138 *678:12 7.23602e-05
21 *194:26 *3466:A 0.000265765
22 *317:66 *678:12 0.000335006
23 *391:16 *678:12 0.000501731
24 *432:14 *3466:A 0.00021861
25 *432:29 *3466:A 0.000175279
26 *432:29 *678:12 0.000241004
27 *432:46 *678:12 0.000284845
28 *432:73 *678:12 0.000455512
29 *468:12 *678:12 2.87867e-05
*RES
1 *3467:X *678:12 27.465 
2 *678:12 *3466:A 8.52 
3 *678:12 *2709:A2 4.665 
*END

*D_NET *679 0.000860968
*CONN
*I *3274:D I *D sky130_fd_sc_hd__dfrtp_4
*I *3317:X O *D sky130_fd_sc_hd__dlygate4sd3_1
*CAP
1 *3274:D 0.000330729
2 *3317:X 0.000330729
3 *3274:D *3385:A 0.00011852
4 *3274:D *3418:A 6.74079e-05
5 *3274:D *772:8 1.3582e-05
*RES
1 *3317:X *3274:D 11.79 
*END

*D_NET *680 0.00382762
*CONN
*I *3284:D I *D sky130_fd_sc_hd__dfrtp_1
*I *2818:B1 I *D sky130_fd_sc_hd__o21a_1
*I *2763:C1 I *D sky130_fd_sc_hd__o221a_1
*I *3374:X O *D sky130_fd_sc_hd__buf_1
*CAP
1 *3284:D 0.000290154
2 *2818:B1 9.48572e-05
3 *2763:C1 0.000283987
4 *3374:X 0
5 *680:8 0.000998401
6 *680:4 0.000909711
7 *2683:A *2763:C1 5.58436e-05
8 *2818:A2 *2763:C1 0.000464505
9 *2818:A2 *2818:B1 8.89829e-05
10 *3280:D *2763:C1 2.21886e-05
11 *3280:D *2818:B1 0.000145241
12 *3280:D *680:8 8.73389e-06
13 *175:8 *2763:C1 5.78185e-05
14 *351:150 *2818:B1 2.75538e-05
15 *593:34 *3284:D 6.74794e-05
16 *593:40 *3284:D 6.97118e-05
17 *608:16 *2763:C1 0.000232111
18 *619:62 *2818:B1 0
19 *630:42 *3284:D 1.03423e-05
*RES
1 *3374:X *680:4 1.6 
2 *680:4 *680:8 6.8475 
3 *680:8 *2763:C1 8.3575 
4 *680:8 *2818:B1 8.2775 
5 *680:4 *3284:D 5.08375 
*END

*D_NET *681 0.00131203
*CONN
*I *3273:D I *D sky130_fd_sc_hd__dfrtp_4
*I *3385:X O *D sky130_fd_sc_hd__dlygate4sd3_1
*CAP
1 *3273:D 0.000341553
2 *3385:X 0.000341553
3 *3273:D *3275:D 0.000505378
4 *3273:D *3418:A 4.99619e-05
5 *3273:CLK *3273:D 6.77501e-05
6 *595:65 *3273:D 5.83121e-06
*RES
1 *3385:X *3273:D 10.55 
*END

*D_NET *682 0.0084776
*CONN
*I *2660:A_N I *D sky130_fd_sc_hd__and4bb_1
*I *2670:B I *D sky130_fd_sc_hd__and3b_1
*I *3463:X O *D sky130_fd_sc_hd__buf_1
*CAP
1 *2660:A_N 0.000423028
2 *2670:B 0.000953561
3 *3463:X 0.00190821
4 *682:14 0.0032848
5 *2660:A_N *2664:A1 4.13171e-05
6 *2660:A_N *2664:A2 4.19797e-05
7 *2660:A_N *2664:C1 0.000134222
8 *2660:A_N *2835:D_N 0.000181715
9 *2660:A_N *793:24 0
10 *2660:A_N *795:62 0
11 *2660:A_N *795:81 2.49909e-05
12 *2670:B *2665:B 8.65961e-05
13 *2670:B *2674:A2 0
14 *2670:B *3290:D 1.29367e-05
15 *2670:B *794:10 4.82863e-05
16 *682:14 *2640:A1 0
17 *682:14 *796:16 0
18 *682:14 *797:10 0
19 *2645:A *2670:B 7.60965e-05
20 *2648:A1 *2670:B 0
21 *2666:B *2660:A_N 0.000337531
22 *2667:A *2660:A_N 7.23602e-05
23 *2667:A *682:14 7.30547e-05
24 *2673:B1 *2660:A_N 0.000270745
25 *2676:A *2670:B 0
26 *3290:CLK *2670:B 8.82096e-05
27 *3294:D *2660:A_N 1.73877e-05
28 *3294:D *682:14 0.000400565
29 *11:43 *2660:A_N 0
30 *315:22 *682:14 0
31 *590:121 *2660:A_N 0
32 *590:121 *682:14 0
*RES
1 *3463:X *682:14 35.685 
2 *682:14 *2670:B 19.405 
3 *682:14 *2660:A_N 14.13 
*END

*D_NET *683 0.00208485
*CONN
*I *2824:A2 I *D sky130_fd_sc_hd__a32o_1
*I *2870:B1_N I *D sky130_fd_sc_hd__o21bai_1
*I *3396:X O *D sky130_fd_sc_hd__dlygate4sd3_1
*CAP
1 *2824:A2 0.000195368
2 *2870:B1_N 0.000234218
3 *3396:X 0.000311574
4 *683:8 0.00074116
5 *2824:A2 *2835:D_N 0.000133657
6 *2870:B1_N *2835:D_N 0.000227623
7 *2824:A1 *2824:A2 9.50342e-06
8 *3144:D *2824:A2 0.000136909
9 *3285:RESET_B *2824:A2 5.92191e-05
10 *3301:A *2824:A2 0
11 *3301:A *2870:B1_N 0
12 *159:20 *2824:A2 3.56184e-05
*RES
1 *3396:X *683:8 6.81 
2 *683:8 *2870:B1_N 8.745 
3 *683:8 *2824:A2 8.805 
*END

*D_NET *684 0.000477889
*CONN
*I *3145:D I *D sky130_fd_sc_hd__dfrtp_1
*I *3407:X O *D sky130_fd_sc_hd__dlygate4sd3_1
*CAP
1 *3145:D 0.000129746
2 *3407:X 0.000129746
3 *3145:D *2677:A 0
4 *2870:A2 *3145:D 0.000123961
5 *159:20 *3145:D 9.44361e-05
*RES
1 *3407:X *3145:D 9.465 
*END

*D_NET *685 0.00179153
*CONN
*I *3275:D I *D sky130_fd_sc_hd__dfrtp_4
*I *3418:X O *D sky130_fd_sc_hd__dlygate4sd3_1
*CAP
1 *3275:D 0.000528059
2 *3418:X 0.000528059
3 *3275:D *2719:D 6.36578e-05
4 *3273:D *3275:D 0.000505378
5 *3273:RESET_B *3275:D 0
6 *211:14 *3275:D 0
7 *595:55 *3275:D 0.000138188
8 *595:65 *3275:D 2.8185e-05
9 *663:92 *3275:D 0
*RES
1 *3418:X *3275:D 15.9 
*END

*D_NET *686 0.0014998
*CONN
*I *3276:D I *D sky130_fd_sc_hd__dfrtp_4
*I *3429:X O *D sky130_fd_sc_hd__dlygate4sd3_1
*CAP
1 *3276:D 0.000388526
2 *3429:X 0.000388526
3 *3276:D *773:24 3.45679e-05
4 *3276:D *801:93 0.000291358
5 *3042:A *3276:D 0.000291358
6 *3315:A *3276:D 2.49909e-05
7 *215:68 *3276:D 1.32843e-05
8 *607:22 *3276:D 6.71882e-05
*RES
1 *3429:X *3276:D 14.175 
*END

*D_NET *687 0.00172443
*CONN
*I *2646:C1 I *D sky130_fd_sc_hd__a221o_1
*I *2637:A I *D sky130_fd_sc_hd__clkbuf_1
*I *3440:X O *D sky130_fd_sc_hd__dlygate4sd3_1
*CAP
1 *2646:C1 0.00033768
2 *2637:A 0.000380226
3 *3440:X 0
4 *687:4 0.000717907
5 *2646:C1 *787:16 0.000265607
6 *2638:A *2637:A 1.85674e-05
7 *2646:A2 *2646:C1 0
8 *2646:B2 *2646:C1 4.43871e-06
*RES
1 *3440:X *687:4 1.6 
2 *687:4 *2637:A 7.51 
3 *687:4 *2646:C1 11.765 
*END

*D_NET *688 0.000883697
*CONN
*I *3287:D I *D sky130_fd_sc_hd__dfrtp_1
*I *3451:X O *D sky130_fd_sc_hd__dlygate4sd3_1
*CAP
1 *3287:D 0.00030287
2 *3451:X 0.00030287
3 *3287:D *2654:S 0
4 *2646:A2 *3287:D 0.000120582
5 *3287:RESET_B *3287:D 0.000157375
*RES
1 *3451:X *3287:D 11.64 
*END

*D_NET *689 0.00209891
*CONN
*I *3277:D I *D sky130_fd_sc_hd__dfrtp_1
*I *3318:X O *D sky130_fd_sc_hd__dlygate4sd3_1
*CAP
1 *3277:D 0.000661137
2 *3318:X 0.000661137
3 *3277:D *2642:A1 1.9415e-05
4 *3277:D *3278:D 0.000523836
5 *2642:A2 *3277:D 4.66108e-05
6 *2642:B1 *3277:D 4.99619e-05
7 *2643:B1 *3277:D 8.65961e-05
8 *3277:CLK *3277:D 0
9 *3301:A *3277:D 0
10 *652:63 *3277:D 5.02217e-05
*RES
1 *3318:X *3277:D 19.74 
*END

*D_NET *690 0.00281448
*CONN
*I *3278:D I *D sky130_fd_sc_hd__dfrtp_1
*I *3329:X O *D sky130_fd_sc_hd__dlygate4sd3_1
*CAP
1 *3278:D 0.000810353
2 *3329:X 0.000810353
3 *2848:B1_N *3278:D 3.31204e-05
4 *3136:D *3278:D 4.58406e-05
5 *3277:CLK *3278:D 1.22676e-05
6 *3277:D *3278:D 0.000523836
7 *3301:A *3278:D 5.63701e-05
8 *3313:A *3278:D 4.82919e-05
9 *313:10 *3278:D 0.000163204
10 *596:12 *3278:D 3.83194e-05
11 *596:63 *3278:D 7.35813e-05
12 *652:59 *3278:D 0.000198939
*RES
1 *3329:X *3278:D 23.085 
*END

*D_NET *691 0.000822572
*CONN
*I *2674:A2 I *D sky130_fd_sc_hd__a31o_1
*I *3340:X O *D sky130_fd_sc_hd__dlygate4sd3_1
*CAP
1 *2674:A2 0.000176891
2 *3340:X 0.000176891
3 *2674:A2 *795:12 3.09233e-05
4 *2674:A2 *795:16 0.00013521
5 *2645:A *2674:A2 1.83756e-05
6 *2648:A1 *2674:A2 0.000284281
7 *2670:B *2674:A2 0
8 *2676:A *2674:A2 0
*RES
1 *3340:X *2674:A2 11.07 
*END

*D_NET *692 0.000804071
*CONN
*I *2763:A1 I *D sky130_fd_sc_hd__o221a_1
*I *2633:A1 I *D sky130_fd_sc_hd__mux2_1
*I *3351:X O *D sky130_fd_sc_hd__dlygate4sd3_1
*CAP
1 *2763:A1 6.6404e-05
2 *2633:A1 0.00015775
3 *3351:X 0
4 *692:4 0.000224154
5 *2763:B1 *2763:A1 0
6 *2819:B1 *2633:A1 0.000237243
7 *211:47 *2763:A1 0.00011852
8 *356:14 *2763:A1 0
*RES
1 *3351:X *692:4 1.6 
2 *692:4 *2633:A1 3.775 
3 *692:4 *2763:A1 6.98 
*END

*D_NET *693 0.0195544
*CONN
*I *3473:A I *D sky130_fd_sc_hd__clkbuf_4
*I *3294:Q O *D sky130_fd_sc_hd__dfrtp_1
*CAP
1 *3473:A 0.00313692
2 *3294:Q 0.00204102
3 *693:32 0.00554524
4 *693:24 0.00444934
5 *3473:A *2598:A0 4.40693e-06
6 *3473:A *809:12 8.9336e-05
7 *693:24 *2731:A1 3.92865e-05
8 *693:24 *2731:B2 0.000272858
9 *693:32 *2813:A1 3.04827e-05
10 *693:32 *2813:B1 0.000352365
11 *693:32 *870:10 3.31531e-05
12 *693:32 *923:8 0.000272283
13 *2598:A1 *3473:A 0.000234763
14 *2621:A *3473:A 7.5687e-06
15 *2732:C1 *693:24 8.35157e-05
16 *2740:A2 *693:32 0.0002575
17 *2809:B1 *693:24 0.000676705
18 *2815:A2 *693:32 0.000121039
19 *2815:B1 *693:24 0.000564775
20 *2815:B1 *693:32 4.31915e-05
21 *2839:A0 *693:32 3.47218e-05
22 *2949:A *693:32 5.79099e-06
23 *2956:A1 *693:24 2.41307e-05
24 *3134:D *693:32 4.13484e-05
25 *3257:CLK *3473:A 0.000167577
26 *3257:D *3473:A 4.78698e-06
27 *3265:CLK *3473:A 8.22843e-05
28 *3265:CLK *693:32 2.01737e-05
29 *3265:D *3473:A 7.85138e-05
30 *3283:RESET_B *693:24 5.22698e-05
31 *3294:RESET_B *693:24 0.000525284
32 *325:118 *693:24 6.51951e-05
33 *592:76 *693:24 9.17869e-05
34 *592:87 *693:24 0.000104803
*RES
1 *3294:Q *693:24 39.35 
2 *693:24 *693:32 30.6 
3 *693:32 *3473:A 47.975 
*END

*D_NET *694 0.00121664
*CONN
*I *2824:B2 I *D sky130_fd_sc_hd__a32o_1
*I *3362:X O *D sky130_fd_sc_hd__dlygate4sd3_1
*CAP
1 *2824:B2 0.000404699
2 *3362:X 0.000404699
3 *2824:B2 *2643:A1 2.5657e-05
4 *2643:A2 *2824:B2 0.000123915
5 *2824:A3 *2824:B2 0.000185305
6 *596:44 *2824:B2 7.23602e-05
*RES
1 *3362:X *2824:B2 13.725 
*END

*D_NET *695 0.00428006
*CONN
*I *2643:A1 I *D sky130_fd_sc_hd__a22o_1
*I *2677:A I *D sky130_fd_sc_hd__and2_1
*I *3369:X O *D sky130_fd_sc_hd__dlygate4sd3_1
*CAP
1 *2643:A1 9.52661e-05
2 *2677:A 0.00115826
3 *3369:X 0
4 *695:4 0.00125352
5 *2677:A *2664:A2 0
6 *2677:A *2664:C1 4.66108e-05
7 *2677:A *2835:D_N 7.63499e-05
8 *2677:A *3396:A 0.000196201
9 *2677:A *793:32 0.000134379
10 *2677:A *795:62 0.000202828
11 *2643:A2 *2643:A1 6.59154e-05
12 *2643:B2 *2643:A1 4.76368e-05
13 *2659:C *2677:A 0.000194019
14 *2661:B1 *2677:A 6.62607e-05
15 *2664:B1 *2677:A 0.000253973
16 *2824:A3 *2643:A1 1.18258e-05
17 *2824:A3 *2677:A 7.24836e-05
18 *2824:B2 *2643:A1 2.5657e-05
19 *2870:A1 *2677:A 4.66967e-05
20 *3145:D *2677:A 0
21 *3285:D *2677:A 2.65792e-05
22 *159:12 *2677:A 0.000199245
23 *159:20 *2677:A 0
24 *323:10 *2677:A 0.00010635
*RES
1 *3369:X *695:4 1.6 
2 *695:4 *2677:A 29.27 
3 *695:4 *2643:A1 3.445 
*END

*D_NET *696 0.000366115
*CONN
*I *2998:A0 I *D sky130_fd_sc_hd__mux2_1
*I *3370:X O *D sky130_fd_sc_hd__dlygate4sd3_1
*CAP
1 *2998:A0 9.04076e-05
2 *3370:X 9.04076e-05
3 *2752:C1 *2998:A0 0.000124007
4 *2998:A1 *2998:A0 4.66108e-05
5 *177:24 *2998:A0 1.46828e-05
*RES
1 *3370:X *2998:A0 5.03 
*END

*D_NET *697 0.000270705
*CONN
*I *3010:A0 I *D sky130_fd_sc_hd__mux2_1
*I *3371:X O *D sky130_fd_sc_hd__dlygate4sd3_1
*CAP
1 *3010:A0 0.000110076
2 *3371:X 0.000110076
3 *3010:S *3010:A0 5.05521e-05
*RES
1 *3371:X *3010:A0 5.03 
*END

*D_NET *698 0.000350501
*CONN
*I *2663:A1 I *D sky130_fd_sc_hd__a221o_1
*I *3372:X O *D sky130_fd_sc_hd__dlygate4sd3_1
*CAP
1 *2663:A1 3.35112e-05
2 *3372:X 3.35112e-05
3 *2663:A1 *2675:B 1.43388e-05
4 *2663:A2 *2663:A1 0.000104854
5 *2676:A *2663:A1 3.64998e-06
6 *11:43 *2663:A1 0.000160635
*RES
1 *3372:X *2663:A1 4.685 
*END

*D_NET *699 0.00032411
*CONN
*I *2593:A1 I *D sky130_fd_sc_hd__mux2_1
*I *3373:X O *D sky130_fd_sc_hd__dlygate4sd3_1
*CAP
1 *2593:A1 0.000123593
2 *3373:X 0.000123593
3 *2784:B *2593:A1 6.81888e-05
4 *174:83 *2593:A1 8.73389e-06
*RES
1 *3373:X *2593:A1 4.685 
*END

*D_NET *700 0.000401005
*CONN
*I *3007:A0 I *D sky130_fd_sc_hd__mux2_1
*I *3375:X O *D sky130_fd_sc_hd__dlygate4sd3_1
*CAP
1 *3007:A0 0.000101871
2 *3375:X 0.000101871
3 *3007:A0 *2795:A 0.000110668
4 *3007:A0 *874:8 8.65961e-05
*RES
1 *3375:X *3007:A0 5.03 
*END

*D_NET *701 0.000453529
*CONN
*I *3068:A1 I *D sky130_fd_sc_hd__mux2_1
*I *3376:X O *D sky130_fd_sc_hd__dlygate4sd3_1
*CAP
1 *3068:A1 9.02627e-05
2 *3376:X 9.02627e-05
3 *3068:A1 *3066:A1 0.000198051
4 *3068:A0 *3068:A1 2.49909e-05
5 *3069:A *3068:A1 4.99619e-05
*RES
1 *3376:X *3068:A1 5.375 
*END

*D_NET *702 0.000737459
*CONN
*I *2548:A1 I *D sky130_fd_sc_hd__mux2_1
*I *3377:X O *D sky130_fd_sc_hd__dlygate4sd3_1
*CAP
1 *2548:A1 0.000198174
2 *3377:X 0.000198174
3 *2548:A1 *2787:A 7.23602e-05
4 *2553:A0 *2548:A1 3.83194e-05
5 *2753:C *2548:A1 0.000158072
6 *176:44 *2548:A1 7.23602e-05
*RES
1 *3377:X *2548:A1 10.245 
*END

*D_NET *703 0.000923745
*CONN
*I *3125:A0 I *D sky130_fd_sc_hd__mux2_1
*I *3378:X O *D sky130_fd_sc_hd__dlygate4sd3_1
*CAP
1 *3125:A0 0.000136291
2 *3378:X 0.000136291
3 *3125:A0 *3123:A0 4.77719e-05
4 *3125:A0 *759:28 0.000322968
5 *2791:C *3125:A0 0.00011379
6 *3125:S *3125:A0 4.77719e-05
7 *187:64 *3125:A0 9.99955e-05
8 *590:14 *3125:A0 1.88656e-05
*RES
1 *3378:X *3125:A0 11.58 
*END

*D_NET *704 0.00301157
*CONN
*I *3474:A I *D sky130_fd_sc_hd__buf_2
*I *3368:A I *D sky130_fd_sc_hd__dlygate4sd3_1
*I *3288:Q O *D sky130_fd_sc_hd__dfrtp_1
*CAP
1 *3474:A 0.00118149
2 *3368:A 0.000280157
3 *3288:Q 4.41382e-05
4 *704:8 0.00150578
5 *3474:A *778:10 0
6 *3137:D *3474:A 0
*RES
1 *3288:Q *704:8 4.05 
2 *704:8 *3368:A 8.295 
3 *704:8 *3474:A 23.34 
*END

*D_NET *705 0.000730261
*CONN
*I *2595:A1 I *D sky130_fd_sc_hd__mux2_1
*I *3379:X O *D sky130_fd_sc_hd__dlygate4sd3_1
*CAP
1 *2595:A1 0.000138937
2 *3379:X 0.000138937
3 *2595:A1 *2784:A 5.74016e-05
4 *2595:A1 *3379:A 3.4222e-05
5 *2595:A1 *737:36 2.72505e-05
6 *231:98 *2595:A1 0.000247054
7 *419:61 *2595:A1 8.64599e-05
*RES
1 *3379:X *2595:A1 10.905 
*END

*D_NET *706 0.000721083
*CONN
*I *2987:A1 I *D sky130_fd_sc_hd__mux2_1
*I *3380:X O *D sky130_fd_sc_hd__dlygate4sd3_1
*CAP
1 *2987:A1 0.000140937
2 *3380:X 0.000140937
3 *2987:A1 *2781:A 9.37731e-05
4 *2987:A1 *774:92 0.00012297
5 *3238:CLK *2987:A1 4.66108e-05
6 *419:14 *2987:A1 0.000175855
*RES
1 *3380:X *2987:A1 11.325 
*END

*D_NET *707 0.00051668
*CONN
*I *2886:A1 I *D sky130_fd_sc_hd__mux2_1
*I *3381:X O *D sky130_fd_sc_hd__dlygate4sd3_1
*CAP
1 *2886:A1 4.67505e-05
2 *3381:X 4.67505e-05
3 *2886:A0 *2886:A1 0.000124895
4 *322:31 *2886:A1 6.27114e-05
5 *362:6 *2886:A1 0.000235573
*RES
1 *3381:X *2886:A1 5.375 
*END

*D_NET *708 0.000629614
*CONN
*I *3093:A0 I *D sky130_fd_sc_hd__mux2_1
*I *3382:X O *D sky130_fd_sc_hd__dlygate4sd3_1
*CAP
1 *3093:A0 0.000130069
2 *3382:X 0.000130069
3 *3093:A0 *3325:A 1.0129e-05
4 *2800:C1 *3093:A0 6.1357e-05
5 *3093:A1 *3093:A0 4.66108e-05
6 *3093:S *3093:A0 0.000115464
7 *384:43 *3093:A0 0.000135916
*RES
1 *3382:X *3093:A0 10.32 
*END

*D_NET *709 0.000393237
*CONN
*I *2551:A1 I *D sky130_fd_sc_hd__mux2_1
*I *3383:X O *D sky130_fd_sc_hd__dlygate4sd3_1
*CAP
1 *2551:A1 0.00011887
2 *3383:X 0.00011887
3 *2551:A1 *3383:A 0.000155497
*RES
1 *3383:X *2551:A1 4.685 
*END

*D_NET *710 0.000390497
*CONN
*I *3109:A0 I *D sky130_fd_sc_hd__mux2_1
*I *3384:X O *D sky130_fd_sc_hd__dlygate4sd3_1
*CAP
1 *3109:A0 0.000104841
2 *3384:X 0.000104841
3 *2730:D1 *3109:A0 6.50881e-05
4 *2770:C1 *3109:A0 4.89295e-05
5 *358:114 *3109:A0 6.67962e-05
*RES
1 *3384:X *3109:A0 9.285 
*END

*D_NET *711 0.0015755
*CONN
*I *3112:A0 I *D sky130_fd_sc_hd__mux2_1
*I *3386:X O *D sky130_fd_sc_hd__dlygate4sd3_1
*CAP
1 *3112:A0 0.000211748
2 *3386:X 0.000211748
3 *3112:A0 *830:8 7.40016e-05
4 *2768:C *3112:A0 7.49197e-05
5 *3107:S *3112:A0 0
6 *3108:A *3112:A0 3.0807e-05
7 *192:57 *3112:A0 6.45236e-05
8 *350:85 *3112:A0 0.000533422
9 *395:57 *3112:A0 0.000137082
10 *399:34 *3112:A0 0.000237249
*RES
1 *3386:X *3112:A0 14.475 
*END

*D_NET *712 0.000436305
*CONN
*I *2553:A1 I *D sky130_fd_sc_hd__mux2_1
*I *3387:X O *D sky130_fd_sc_hd__dlygate4sd3_1
*CAP
1 *2553:A1 0.000182441
2 *3387:X 0.000182441
3 *2554:A *2553:A1 0
4 *2989:A *2553:A1 7.14241e-05
5 *524:10 *2553:A1 0
*RES
1 *3387:X *2553:A1 9.555 
*END

*D_NET *713 0.000485914
*CONN
*I *2932:A0 I *D sky130_fd_sc_hd__mux2_1
*I *3388:X O *D sky130_fd_sc_hd__dlygate4sd3_1
*CAP
1 *2932:A0 4.11432e-05
2 *3388:X 4.11432e-05
3 *2932:A0 *902:8 0.000196376
4 *374:76 *2932:A0 0.000160641
5 *374:90 *2932:A0 4.66108e-05
*RES
1 *3388:X *2932:A0 5.03 
*END

*D_NET *714 0.000338378
*CONN
*I *3104:A0 I *D sky130_fd_sc_hd__mux2_1
*I *3389:X O *D sky130_fd_sc_hd__dlygate4sd3_1
*CAP
1 *3104:A0 9.26338e-05
2 *3389:X 9.26338e-05
3 *3104:A0 *2714:A1 8.64599e-05
4 *3102:S *3104:A0 5.31158e-06
5 *3104:S *3104:A0 3.72081e-05
6 *442:16 *3104:A0 2.41307e-05
*RES
1 *3389:X *3104:A0 8.865 
*END

*D_NET *715 0.0158349
*CONN
*I *2708:C I *D sky130_fd_sc_hd__and3_1
*I *2813:B1 I *D sky130_fd_sc_hd__a22o_1
*I *2733:B1 I *D sky130_fd_sc_hd__a22o_1
*I *2756:C I *D sky130_fd_sc_hd__and3_1
*I *2784:C I *D sky130_fd_sc_hd__and3_1
*I *3468:X O *D sky130_fd_sc_hd__clkbuf_2
*CAP
1 *2708:C 0.00021961
2 *2813:B1 0.000328949
3 *2733:B1 0.000308765
4 *2756:C 0
5 *2784:C 1.88658e-05
6 *3468:X 0.000461878
7 *715:58 0.00205956
8 *715:47 0.00184164
9 *715:30 0.00116459
10 *715:20 0.00140741
11 *2733:B1 *2733:A1 8.8266e-05
12 *2733:B1 *2733:B2 1.61831e-05
13 *2733:B1 *2812:B2 0
14 *2813:B1 *2813:A1 3.24035e-05
15 *715:30 *3419:A 0.000114649
16 *715:30 *737:36 0.00158703
17 *715:30 *759:28 0.000303285
18 *715:47 *737:36 0.000163579
19 *715:58 *2811:B2 0.000157595
20 *715:58 *2812:B2 0
21 *2595:S *715:47 8.99419e-05
22 *2708:B *2708:C 1.87786e-05
23 *2708:B *715:30 0.000233887
24 *2709:A3 *715:30 0.000357634
25 *2734:A2 *2813:B1 9.39742e-05
26 *2734:A2 *715:58 0
27 *2740:A2 *2813:B1 0.000121659
28 *2784:B *715:30 5.03222e-05
29 *2784:B *715:47 0.000317014
30 *2788:A *715:30 0.000175254
31 *2811:B1 *715:58 0.000200055
32 *2812:C1 *715:58 0
33 *2813:A2 *2813:B1 0.000119873
34 *2816:B *715:58 4.61196e-05
35 *2951:A *2733:B1 1.85674e-05
36 *2996:A1 *2784:C 5.39916e-05
37 *3059:A *715:20 7.01359e-05
38 *3148:D *715:58 4.79946e-05
39 *3168:D *715:58 4.93336e-05
40 *3299:A *715:20 5.83121e-06
41 *3468:A *715:20 2.68526e-05
42 *187:64 *715:30 1.0397e-05
43 *193:14 *715:30 0.000237467
44 *194:26 *2708:C 7.94288e-05
45 *194:26 *715:30 0.000630662
46 *202:14 *715:58 0
47 *231:98 *715:58 0.000556712
48 *231:116 *715:58 9.02804e-05
49 *316:46 *715:47 0.000132985
50 *350:62 *715:30 0.000101764
51 *350:83 *715:30 0.000130714
52 *351:114 *715:58 0
53 *355:10 *715:20 2.12738e-05
54 *361:54 *715:47 5.46101e-05
55 *370:54 *715:30 1.43805e-05
56 *370:64 *715:20 0.000453364
57 *388:8 *2733:B1 0.000119176
58 *388:8 *715:58 3.12983e-05
59 *403:49 *2708:C 9.58678e-06
60 *432:14 *715:30 2.0187e-05
61 *436:14 *2784:C 1.77285e-05
62 *447:12 *2708:C 0.000253871
63 *476:12 *715:20 0.000145127
64 *693:32 *2813:B1 0.000352365
*RES
1 *3468:X *715:20 16.39 
2 *715:20 *715:30 30.28 
3 *715:30 *2784:C 4.11 
4 *715:30 *715:47 9.89 
5 *715:47 *2756:C 1.6 
6 *715:47 *715:58 26.84 
7 *715:58 *2733:B1 9.03 
8 *715:58 *2813:B1 11.79 
9 *715:20 *2708:C 7.485 
*END

*D_NET *716 0.00112604
*CONN
*I *3114:A0 I *D sky130_fd_sc_hd__mux2_1
*I *3390:X O *D sky130_fd_sc_hd__dlygate4sd3_1
*CAP
1 *3114:A0 0.000203985
2 *3390:X 0.000203985
3 *3114:A0 *830:8 4.82863e-05
4 *3112:S *3114:A0 0.000264564
5 *3227:D *3114:A0 0.000138961
6 *358:96 *3114:A0 4.66108e-05
7 *399:34 *3114:A0 6.32598e-05
8 *476:66 *3114:A0 0.00015639
*RES
1 *3390:X *3114:A0 12.3 
*END

*D_NET *717 0.000384252
*CONN
*I *2907:A0 I *D sky130_fd_sc_hd__mux2_1
*I *3391:X O *D sky130_fd_sc_hd__dlygate4sd3_1
*CAP
1 *2907:A0 0.000105424
2 *3391:X 0.000105424
3 *2907:A0 *3391:A 1.58534e-05
4 *2907:A1 *2907:A0 0.000157551
*RES
1 *3391:X *2907:A0 5.03 
*END

*D_NET *718 0.00053064
*CONN
*I *2930:A0 I *D sky130_fd_sc_hd__mux2_1
*I *3392:X O *D sky130_fd_sc_hd__dlygate4sd3_1
*CAP
1 *2930:A0 0.000169371
2 *3392:X 0.000169371
3 *2602:A *2930:A0 8.40269e-05
4 *2930:S *2930:A0 5.30673e-05
5 *325:57 *2930:A0 2.75145e-05
6 *511:24 *2930:A0 2.7289e-05
*RES
1 *3392:X *2930:A0 6.065 
*END

*D_NET *719 0.00123041
*CONN
*I *2630:A1 I *D sky130_fd_sc_hd__mux2_1
*I *3393:X O *D sky130_fd_sc_hd__dlygate4sd3_1
*CAP
1 *2630:A1 0.000386494
2 *3393:X 0.000386494
3 *2978:B *2630:A1 7.58382e-05
4 *2980:A *2630:A1 3.72081e-05
5 *3268:CLK *2630:A1 0.000344372
*RES
1 *3393:X *2630:A1 13.32 
*END

*D_NET *720 0.000448021
*CONN
*I *3018:A0 I *D sky130_fd_sc_hd__mux2_1
*I *3394:X O *D sky130_fd_sc_hd__dlygate4sd3_1
*CAP
1 *3018:A0 2.49896e-05
2 *3394:X 2.49896e-05
3 *3018:A0 *3394:A 0.000199021
4 *474:49 *3018:A0 0.000199021
*RES
1 *3394:X *3018:A0 5.03 
*END

*D_NET *721 0.000391695
*CONN
*I *2948:A0 I *D sky130_fd_sc_hd__mux2_1
*I *3395:X O *D sky130_fd_sc_hd__dlygate4sd3_1
*CAP
1 *2948:A0 9.78077e-05
2 *3395:X 9.78077e-05
3 *2948:A0 *3395:A 0.00019608
*RES
1 *3395:X *2948:A0 5.03 
*END

*D_NET *722 0.000650338
*CONN
*I *2909:A0 I *D sky130_fd_sc_hd__mux2_1
*I *3397:X O *D sky130_fd_sc_hd__dlygate4sd3_1
*CAP
1 *2909:A0 0.00016559
2 *3397:X 0.00016559
3 *2912:B *2909:A0 7.23602e-05
4 *2998:A1 *2909:A0 0.000159851
5 *374:113 *2909:A0 4.82863e-05
6 *391:43 *2909:A0 3.86607e-05
*RES
1 *3397:X *2909:A0 9.9 
*END

*D_NET *723 0.000565472
*CONN
*I *3015:A1 I *D sky130_fd_sc_hd__mux2_1
*I *3398:X O *D sky130_fd_sc_hd__dlygate4sd3_1
*CAP
1 *3015:A1 0.000115137
2 *3398:X 0.000115137
3 *3015:A1 *2771:A 0.000116927
4 *3015:A1 *759:12 5.88217e-05
5 *2905:A *3015:A1 8.7152e-06
6 *340:88 *3015:A1 0.000150734
*RES
1 *3398:X *3015:A1 10.08 
*END

*D_NET *724 0.000422739
*CONN
*I *3086:A0 I *D sky130_fd_sc_hd__mux2_1
*I *3399:X O *D sky130_fd_sc_hd__dlygate4sd3_1
*CAP
1 *3086:A0 0.000150018
2 *3399:X 0.000150018
3 *3086:A0 *2793:B2 1.47347e-05
4 *3086:A1 *3086:A0 4.66108e-05
5 *3086:S *3086:A0 6.1357e-05
*RES
1 *3399:X *3086:A0 5.03 
*END

*D_NET *725 0.00107282
*CONN
*I *3096:A1 I *D sky130_fd_sc_hd__mux2_1
*I *3400:X O *D sky130_fd_sc_hd__dlygate4sd3_1
*CAP
1 *3096:A1 0.000241117
2 *3400:X 0.000241117
3 *3096:A1 *726:26 8.23457e-05
4 *3090:B *3096:A1 0.000235644
5 *3099:A1 *3096:A1 3.8253e-05
6 *384:43 *3096:A1 0.000234342
*RES
1 *3400:X *3096:A1 11.94 
*END

*D_NET *726 0.0136029
*CONN
*I *2714:A2 I *D sky130_fd_sc_hd__a22o_1
*I *2776:A2 I *D sky130_fd_sc_hd__a22o_1
*I *2802:A2 I *D sky130_fd_sc_hd__a21o_1
*I *2721:A2 I *D sky130_fd_sc_hd__a22o_1
*I *3469:X O *D sky130_fd_sc_hd__clkbuf_2
*CAP
1 *2714:A2 0
2 *2776:A2 7.45582e-05
3 *2802:A2 0.00073252
4 *2721:A2 0
5 *3469:X 0.00229424
6 *726:38 0.00130549
7 *726:28 0.000705255
8 *726:26 0.00235196
9 *2776:A2 *835:8 0
10 *2802:A2 *2721:B2 0.000154393
11 *2802:A2 *2802:A1 0.000236623
12 *2802:A2 *3452:A 0.000114649
13 *726:26 *2772:A1 0.000156771
14 *726:26 *3457:A 3.63576e-05
15 *726:38 *2721:B2 8.60799e-05
16 *2582:A *2802:A2 9.09055e-05
17 *2612:A *2802:A2 0
18 *2622:B *2802:A2 2.72203e-05
19 *2718:B1 *726:26 0.000411123
20 *2772:B1 *726:26 3.64998e-06
21 *2777:B1 *2776:A2 0
22 *2801:A2 *2802:A2 5.0706e-05
23 *2801:A2 *726:38 8.77498e-05
24 *2805:A2 *2802:A2 0
25 *2807:B1 *2802:A2 0
26 *3008:A *2802:A2 0
27 *3096:A1 *726:26 8.23457e-05
28 *3099:A0 *726:26 0.000132453
29 *3099:A1 *726:26 0.000164919
30 *3115:A *2776:A2 4.66108e-05
31 *3115:A *726:28 2.07184e-05
32 *3115:A *726:38 0.000176647
33 *3189:CLK *2802:A2 0.000107361
34 *3229:CLK *726:38 3.06494e-05
35 *3229:D *726:38 0.00013646
36 *3267:CLK *2802:A2 0.000254785
37 *177:100 *726:26 0.000799702
38 *177:106 *726:26 7.24756e-05
39 *194:41 *726:26 3.81175e-05
40 *202:77 *726:26 7.71692e-05
41 *202:77 *726:28 5.31158e-06
42 *212:91 *2802:A2 7.67415e-06
43 *212:91 *726:38 0
44 *345:30 *726:26 0.000390144
45 *350:120 *726:38 0.000362378
46 *358:79 *726:38 0
47 *376:84 *726:26 0.000108871
48 *384:43 *726:26 0.000110153
49 *430:24 *726:38 7.23533e-05
50 *430:64 *726:26 0.000392707
51 *430:64 *726:28 0.000181452
52 *430:64 *726:38 0.000575594
53 *445:8 *726:28 5.43416e-05
54 *445:8 *726:38 0.000119388
55 *445:21 *726:26 9.46613e-05
56 *518:10 *2776:A2 6.71882e-05
*RES
1 *3469:X *726:26 45.34 
2 *726:26 *726:28 2.145 
3 *726:28 *726:38 16.295 
4 *726:38 *2721:A2 1.6 
5 *726:38 *2802:A2 20.885 
6 *726:28 *2776:A2 5.1 
7 *726:26 *2714:A2 3.6 
*END

*D_NET *727 0.000378861
*CONN
*I *2950:A0 I *D sky130_fd_sc_hd__mux2_1
*I *3401:X O *D sky130_fd_sc_hd__dlygate4sd3_1
*CAP
1 *2950:A0 0.000103019
2 *3401:X 0.000103019
3 *2938:A1 *2950:A0 1.42598e-05
4 *374:18 *2950:A0 3.69049e-05
5 *374:20 *2950:A0 0.000121659
*RES
1 *3401:X *2950:A0 5.03 
*END

*D_NET *728 0.000473939
*CONN
*I *3013:A1 I *D sky130_fd_sc_hd__mux2_1
*I *3402:X O *D sky130_fd_sc_hd__dlygate4sd3_1
*CAP
1 *3013:A1 0.000120753
2 *3402:X 0.000120753
3 *447:12 *3013:A1 0.000232434
*RES
1 *3402:X *3013:A1 5.375 
*END

*D_NET *729 0.000468404
*CONN
*I *2984:A1 I *D sky130_fd_sc_hd__mux2_1
*I *3403:X O *D sky130_fd_sc_hd__dlygate4sd3_1
*CAP
1 *2984:A1 0.000152928
2 *3403:X 0.000152928
3 *2984:A1 *2755:A1 9.22206e-05
4 *2984:A0 *2984:A1 7.03276e-05
*RES
1 *3403:X *2984:A1 9.555 
*END

*D_NET *730 0.0011468
*CONN
*I *2580:A0 I *D sky130_fd_sc_hd__mux2_1
*I *3404:X O *D sky130_fd_sc_hd__dlygate4sd3_1
*CAP
1 *2580:A0 0.000262727
2 *3404:X 0.000262727
3 *2580:A0 *808:6 4.66108e-05
4 *2622:B *2580:A0 4.15546e-05
5 *3243:CLK *2580:A0 0.000198051
6 *197:134 *2580:A0 0
7 *591:10 *2580:A0 9.30787e-05
8 *598:29 *2580:A0 0.000242054
*RES
1 *3404:X *2580:A0 12.39 
*END

*D_NET *731 0.000849224
*CONN
*I *2598:A0 I *D sky130_fd_sc_hd__mux2_1
*I *3405:X O *D sky130_fd_sc_hd__dlygate4sd3_1
*CAP
1 *2598:A0 0.000248236
2 *3405:X 0.000248236
3 *2598:A0 *2578:A0 7.03276e-05
4 *2578:S *2598:A0 0.000117825
5 *2598:A1 *2598:A0 7.29122e-05
6 *2598:S *2598:A0 2.88357e-05
7 *3473:A *2598:A0 4.40693e-06
8 *350:120 *2598:A0 5.84456e-05
*RES
1 *3405:X *2598:A0 11.94 
*END

*D_NET *732 0.000187427
*CONN
*I *2578:A0 I *D sky130_fd_sc_hd__mux2_1
*I *3406:X O *D sky130_fd_sc_hd__dlygate4sd3_1
*CAP
1 *2578:A0 2.27376e-05
2 *3406:X 2.27376e-05
3 *2598:A0 *2578:A0 7.03276e-05
4 *2598:A1 *2578:A0 7.1624e-05
*RES
1 *3406:X *2578:A0 8.07 
*END

*D_NET *733 0.000630825
*CONN
*I *2996:A0 I *D sky130_fd_sc_hd__mux2_1
*I *3408:X O *D sky130_fd_sc_hd__dlygate4sd3_1
*CAP
1 *2996:A0 5.76957e-05
2 *3408:X 5.76957e-05
3 *2996:A0 *3408:A 0.000271597
4 *2996:A1 *2996:A0 4.77757e-05
5 *419:61 *2996:A0 0.000196061
*RES
1 *3408:X *2996:A0 5.72 
*END

*D_NET *734 0.00085461
*CONN
*I *3102:A0 I *D sky130_fd_sc_hd__mux2_1
*I *3409:X O *D sky130_fd_sc_hd__dlygate4sd3_1
*CAP
1 *3102:A0 0.000263992
2 *3409:X 0.000263992
3 *3102:A0 *2776:A1 0.000102324
4 *3102:A0 *835:8 4.99619e-05
5 *3105:A *3102:A0 7.1624e-05
6 *197:128 *3102:A0 9.25934e-05
7 *518:10 *3102:A0 1.0124e-05
*RES
1 *3409:X *3102:A0 11.595 
*END

*D_NET *735 0.000541638
*CONN
*I *2600:A0 I *D sky130_fd_sc_hd__mux2_1
*I *3410:X O *D sky130_fd_sc_hd__dlygate4sd3_1
*CAP
1 *2600:A0 0.000176483
2 *3410:X 0.000176483
3 *2578:S *2600:A0 7.23602e-05
4 *2600:S *2600:A0 2.75229e-05
5 *350:120 *2600:A0 3.86607e-05
6 *358:28 *2600:A0 3.54025e-05
7 *358:36 *2600:A0 1.47256e-05
*RES
1 *3410:X *2600:A0 9.9 
*END

*D_NET *736 0.000301734
*CONN
*I *2900:A0 I *D sky130_fd_sc_hd__mux2_1
*I *3411:X O *D sky130_fd_sc_hd__dlygate4sd3_1
*CAP
1 *2900:A0 0.000114372
2 *3411:X 0.000114372
3 *2900:A1 *2900:A0 4.99619e-05
4 *2900:S *2900:A0 2.30292e-05
*RES
1 *3411:X *2900:A0 5.03 
*END

*D_NET *737 0.0202828
*CONN
*I *3469:A I *D sky130_fd_sc_hd__clkbuf_2
*I *2810:B1 I *D sky130_fd_sc_hd__a221o_1
*I *2731:A2 I *D sky130_fd_sc_hd__a22o_1
*I *3470:X O *D sky130_fd_sc_hd__clkbuf_2
*CAP
1 *3469:A 7.87372e-05
2 *2810:B1 4.01171e-05
3 *2731:A2 0.000308205
4 *3470:X 0.00234181
5 *737:46 0.00224805
6 *737:36 0.00347611
7 *737:24 0.00399693
8 *2731:A2 *2731:A1 8.46818e-05
9 *2810:B1 *2810:A1 5.83121e-06
10 *2810:B1 *2810:B2 5.4155e-06
11 *3469:A *3457:A 3.38946e-05
12 *737:24 *759:12 0.000263453
13 *737:36 *2756:A 7.78166e-05
14 *737:36 *2760:A1 0
15 *737:36 *2784:A 9.78082e-05
16 *737:36 *3379:A 0.000116158
17 *737:36 *748:14 0
18 *737:36 *759:12 9.95896e-06
19 *737:36 *759:34 0
20 *737:46 *3351:A 2.87797e-05
21 *737:46 *3361:A 0.000227734
22 *2567:A *737:36 4.02362e-05
23 *2595:A1 *737:36 2.72505e-05
24 *2595:S *737:36 8.99419e-05
25 *2709:A3 *737:36 1.11262e-05
26 *2713:C *737:36 0.000208712
27 *2763:B1 *737:24 0
28 *2809:B1 *2731:A2 2.06566e-05
29 *2810:C1 *2731:A2 0.000120655
30 *2811:A2 *737:36 2.96553e-05
31 *2811:B1 *737:36 0.000260551
32 *2812:C1 *737:36 7.4027e-05
33 *2819:A1 *737:36 0
34 *2945:A *737:46 0.000232099
35 *2962:A0 *2810:B1 5.4155e-06
36 *2963:A *2731:A2 0.000121043
37 *3124:A *737:36 0
38 *3166:CLK *737:36 4.40899e-05
39 *3166:D *737:46 3.93697e-05
40 *3233:D *737:36 0.000362991
41 *3466:A *737:24 1.79536e-05
42 *3466:A *737:36 0.000110733
43 *174:61 *737:36 0
44 *202:14 *737:36 0
45 *211:47 *2731:A2 0.000133543
46 *215:86 *737:36 8.25758e-05
47 *215:130 *737:36 0.000278143
48 *231:98 *737:36 4.51332e-05
49 *359:96 *2810:B1 4.66108e-05
50 *359:111 *2731:A2 0.000383324
51 *359:111 *737:46 2.07184e-05
52 *359:119 *2731:A2 3.54721e-05
53 *361:54 *737:36 4.34315e-05
54 *370:16 *737:36 0.000151962
55 *371:57 *737:24 0
56 *403:49 *737:24 2.87203e-05
57 *403:53 *737:36 0.000108412
58 *432:73 *737:24 0.000258631
59 *474:18 *737:24 0
60 *528:18 *737:36 7.23602e-05
61 *590:92 *737:46 0.00048947
62 *590:208 *737:24 0
63 *592:24 *2731:A2 0.000170484
64 *592:24 *737:46 0.000274636
65 *592:26 *2731:A2 0.000172838
66 *592:28 *2731:A2 8.53113e-06
67 *619:62 *737:46 0.000469217
68 *715:30 *737:36 0.00158703
69 *715:47 *737:36 0.000163579
*RES
1 *3470:X *737:24 12.3736 
2 *737:24 *737:36 41.3 
3 *737:36 *737:46 28.37 
4 *737:46 *2731:A2 16.315 
5 *737:46 *2810:B1 4.41 
6 *737:24 *3469:A 4.74 
*END

*D_NET *738 0.00040523
*CONN
*I *2924:A0 I *D sky130_fd_sc_hd__mux2_1
*I *3412:X O *D sky130_fd_sc_hd__dlygate4sd3_1
*CAP
1 *2924:A0 0.000138751
2 *3412:X 0.000138751
3 *2924:A0 *2812:B2 0
4 *2924:S *2924:A0 4.82863e-05
5 *2925:A *2924:A0 5.4155e-06
6 *388:8 *2924:A0 7.4027e-05
*RES
1 *3412:X *2924:A0 9.735 
*END

*D_NET *739 0.000372715
*CONN
*I *3118:A1 I *D sky130_fd_sc_hd__mux2_1
*I *3413:X O *D sky130_fd_sc_hd__dlygate4sd3_1
*CAP
1 *3118:A1 8.7996e-05
2 *3413:X 8.7996e-05
3 *3118:A1 *828:16 8.57024e-05
4 *500:10 *3118:A1 3.86607e-05
5 *511:100 *3118:A1 7.23602e-05
*RES
1 *3413:X *3118:A1 8.865 
*END

*D_NET *740 0.00124397
*CONN
*I *3123:A0 I *D sky130_fd_sc_hd__mux2_1
*I *3414:X O *D sky130_fd_sc_hd__dlygate4sd3_1
*CAP
1 *3123:A0 0.000459262
2 *3414:X 0.000459262
3 *3123:A0 *2786:A 8.71161e-05
4 *3123:A1 *3123:A0 1.56428e-05
5 *3123:S *3123:A0 4.41506e-05
6 *3125:A0 *3123:A0 4.77719e-05
7 *3125:S *3123:A0 0.000115955
8 *3126:A *3123:A0 1.48096e-05
*RES
1 *3414:X *3123:A0 8.48 
*END

*D_NET *741 0.000383784
*CONN
*I *3048:A1 I *D sky130_fd_sc_hd__mux2_1
*I *3415:X O *D sky130_fd_sc_hd__dlygate4sd3_1
*CAP
1 *3048:A1 9.925e-05
2 *3415:X 9.925e-05
3 *3048:A1 *3415:A 2.88357e-05
4 *3048:A1 *857:12 0.000134123
5 *432:115 *3048:A1 2.23253e-05
*RES
1 *3415:X *3048:A1 9.285 
*END

*D_NET *742 0.00100912
*CONN
*I *3045:A1 I *D sky130_fd_sc_hd__mux2_1
*I *3416:X O *D sky130_fd_sc_hd__dlygate4sd3_1
*CAP
1 *3045:A1 0.000250363
2 *3416:X 0.000250363
3 *3043:A0 *3045:A1 4.82919e-05
4 *3043:A1 *3045:A1 0.000160626
5 *3043:S *3045:A1 0.000149604
6 *3044:A *3045:A1 8.65961e-05
7 *3055:A0 *3045:A1 6.32751e-05
*RES
1 *3416:X *3045:A1 12.675 
*END

*D_NET *743 0.000319742
*CONN
*I *2938:A0 I *D sky130_fd_sc_hd__mux2_1
*I *3417:X O *D sky130_fd_sc_hd__dlygate4sd3_1
*CAP
1 *2938:A0 0.000110047
2 *3417:X 0.000110047
3 *2938:A0 *900:12 4.77807e-05
4 *2938:A1 *2938:A0 3.07842e-05
5 *2938:S *2938:A0 2.10841e-05
*RES
1 *3417:X *2938:A0 5.03 
*END

*D_NET *744 0.000988794
*CONN
*I *3133:A1 I *D sky130_fd_sc_hd__mux2_1
*I *3419:X O *D sky130_fd_sc_hd__dlygate4sd3_1
*CAP
1 *3133:A1 0.000195013
2 *3419:X 0.000195013
3 *3236:D *3133:A1 0.000156916
4 *212:20 *3133:A1 4.1588e-05
5 *432:14 *3133:A1 0.000158564
6 *476:12 *3133:A1 0.000241701
*RES
1 *3419:X *3133:A1 11.595 
*END

*D_NET *745 0.000375137
*CONN
*I *3061:A0 I *D sky130_fd_sc_hd__mux2_1
*I *3420:X O *D sky130_fd_sc_hd__dlygate4sd3_1
*CAP
1 *3061:A0 5.22665e-05
2 *3420:X 5.22665e-05
3 *3061:A0 *852:10 4.85494e-05
4 *3061:A1 *3061:A0 8.65905e-05
5 *3061:S *3061:A0 5.05437e-05
6 *442:108 *3061:A0 8.49205e-05
*RES
1 *3420:X *3061:A0 5.03 
*END

*D_NET *746 0.00109809
*CONN
*I *3066:A1 I *D sky130_fd_sc_hd__mux2_1
*I *3421:X O *D sky130_fd_sc_hd__dlygate4sd3_1
*CAP
1 *3066:A1 0.000267787
2 *3421:X 0.000267787
3 *3066:A1 *774:92 4.56221e-05
4 *3068:A1 *3066:A1 0.000198051
5 *3068:S *3066:A1 0.000153217
6 *419:14 *3066:A1 0.000117331
7 *480:14 *3066:A1 4.82919e-05
*RES
1 *3421:X *3066:A1 13.29 
*END

*D_NET *747 0.000986517
*CONN
*I *2842:A0 I *D sky130_fd_sc_hd__mux2_1
*I *3422:X O *D sky130_fd_sc_hd__dlygate4sd3_1
*CAP
1 *2842:A0 0.000327932
2 *3422:X 0.000327932
3 *2842:A0 *922:10 4.99619e-05
4 *2839:A0 *2842:A0 0
5 *2842:S *2842:A0 3.64998e-06
6 *2896:A *2842:A0 0.000117092
7 *2921:A0 *2842:A0 0
8 *2923:B *2842:A0 9.0421e-05
9 *3151:CLK *2842:A0 2.50166e-05
10 *187:112 *2842:A0 1.87913e-05
11 *328:20 *2842:A0 7.96104e-06
12 *328:30 *2842:A0 1.77595e-05
*RES
1 *3422:X *2842:A0 12.93 
*END

*D_NET *748 0.0130545
*CONN
*I *2773:B I *D sky130_fd_sc_hd__and3_1
*I *2711:B I *D sky130_fd_sc_hd__and3_1
*I *2804:A2 I *D sky130_fd_sc_hd__a21o_1
*I *3471:X O *D sky130_fd_sc_hd__clkbuf_2
*CAP
1 *2773:B 0
2 *2711:B 0.000115414
3 *2804:A2 0.00154869
4 *3471:X 0.00204442
5 *748:39 0.000420663
6 *748:14 0.00389835
7 *2804:A2 *2805:B2 0
8 *2587:A *2804:A2 0
9 *2611:A *2804:A2 2.49909e-05
10 *2612:A *2804:A2 0.000680962
11 *2711:C *2711:B 6.98629e-05
12 *2712:B1 *748:39 6.98629e-05
13 *2713:C *748:14 7.13082e-05
14 *2718:A2 *2711:B 1.56428e-05
15 *2718:A2 *748:39 7.40564e-05
16 *3010:A1 *2804:A2 0
17 *3112:S *2804:A2 7.77918e-05
18 *3112:S *748:39 3.03154e-05
19 *3115:A *2711:B 4.99619e-05
20 *3188:D *2804:A2 6.10014e-05
21 *3189:D *2804:A2 0.000139245
22 *3227:D *2804:A2 0
23 *3260:D *2804:A2 3.95347e-05
24 *3261:D *2804:A2 0.000139231
25 *3263:CLK *2804:A2 5.83121e-06
26 *202:14 *748:14 0
27 *235:18 *2804:A2 0
28 *285:16 *748:39 7.51561e-05
29 *316:70 *2804:A2 0
30 *316:72 *2804:A2 0
31 *316:78 *2804:A2 0
32 *328:44 *2804:A2 1.16578e-05
33 *350:93 *2804:A2 0.000313477
34 *358:96 *2804:A2 0.000348592
35 *358:96 *748:39 9.3233e-05
36 *358:114 *748:39 8.55211e-05
37 *399:34 *748:39 0
38 *407:20 *748:14 0.000960125
39 *476:98 *2711:B 0
40 *500:131 *748:14 0.000793403
41 *527:40 *2804:A2 0.000186335
42 *527:89 *2804:A2 0.000122758
43 *599:10 *2804:A2 0.000331128
44 *599:12 *2804:A2 0.000155928
45 *737:36 *748:14 0
*RES
1 *3471:X *748:14 12.2642 
2 *748:14 *2804:A2 37.8225 
3 *748:14 *748:39 7.6775 
4 *748:39 *2711:B 7.37 
5 *748:39 *2773:B 1.6 
*END

*D_NET *749 0.000781513
*CONN
*I *2915:A0 I *D sky130_fd_sc_hd__mux2_1
*I *3423:X O *D sky130_fd_sc_hd__dlygate4sd3_1
*CAP
1 *2915:A0 0.000310601
2 *3423:X 0.000310601
3 *2915:A0 *2747:A1 0
4 *2747:B1 *2915:A0 0
5 *174:83 *2915:A0 0.00016031
6 *183:75 *2915:A0 0
*RES
1 *3423:X *2915:A0 11.85 
*END

*D_NET *750 0.000381842
*CONN
*I *2942:A1 I *D sky130_fd_sc_hd__mux2_1
*I *3424:X O *D sky130_fd_sc_hd__dlygate4sd3_1
*CAP
1 *2942:A1 0.000111048
2 *3424:X 0.000111048
3 *2942:A1 *2812:A1 0.000159747
*RES
1 *3424:X *2942:A1 4.685 
*END

*D_NET *751 0.000251864
*CONN
*I *2991:A1 I *D sky130_fd_sc_hd__mux2_1
*I *3425:X O *D sky130_fd_sc_hd__dlygate4sd3_1
*CAP
1 *2991:A1 8.53289e-05
2 *3425:X 8.53289e-05
3 *2991:A1 *2717:B2 6.83659e-05
4 *197:108 *2991:A1 7.00889e-06
5 *208:139 *2991:A1 5.83121e-06
*RES
1 *3425:X *2991:A1 4.685 
*END

*D_NET *752 0.000601617
*CONN
*I *3078:A1 I *D sky130_fd_sc_hd__mux2_1
*I *3426:X O *D sky130_fd_sc_hd__dlygate4sd3_1
*CAP
1 *3078:A1 0.000223506
2 *3426:X 0.000223506
3 *3073:A0 *3078:A1 7.23602e-05
4 *3078:S *3078:A1 2.7919e-05
5 *442:108 *3078:A1 5.43256e-05
*RES
1 *3426:X *3078:A1 10.515 
*END

*D_NET *753 0.000327728
*CONN
*I *3033:A1 I *D sky130_fd_sc_hd__mux2_1
*I *3427:X O *D sky130_fd_sc_hd__dlygate4sd3_1
*CAP
1 *3033:A1 9.63638e-05
2 *3427:X 9.63638e-05
3 *3022:B *3033:A1 2.11084e-05
4 *453:12 *3033:A1 0.000113891
*RES
1 *3427:X *3033:A1 9.03 
*END

*D_NET *754 0.000428605
*CONN
*I *3107:A0 I *D sky130_fd_sc_hd__mux2_1
*I *3428:X O *D sky130_fd_sc_hd__dlygate4sd3_1
*CAP
1 *3107:A0 5.18249e-05
2 *3428:X 5.18249e-05
3 *3107:S *3107:A0 8.40269e-05
4 *192:36 *3107:A0 3.37941e-05
5 *350:83 *3107:A0 0.000157172
6 *350:85 *3107:A0 4.99619e-05
*RES
1 *3428:X *3107:A0 5.03 
*END

*D_NET *755 0.000293916
*CONN
*I *2588:A1 I *D sky130_fd_sc_hd__mux2_1
*I *3430:X O *D sky130_fd_sc_hd__dlygate4sd3_1
*CAP
1 *2588:A1 0.000112736
2 *3430:X 0.000112736
3 *2588:A1 *931:8 2.66586e-05
4 *2588:S *2588:A1 3.09088e-05
5 *2801:A2 *2588:A1 1.08758e-05
*RES
1 *3430:X *2588:A1 4.685 
*END

*D_NET *756 0.000904935
*CONN
*I *3063:A0 I *D sky130_fd_sc_hd__mux2_1
*I *3431:X O *D sky130_fd_sc_hd__dlygate4sd3_1
*CAP
1 *3063:A0 0.000384598
2 *3431:X 0.000384598
3 *3062:A *3063:A0 6.95421e-05
4 *3063:A1 *3063:A0 6.61959e-05
5 *442:77 *3063:A0 0
*RES
1 *3431:X *3063:A0 12.735 
*END

*D_NET *757 0.00105825
*CONN
*I *2903:A0 I *D sky130_fd_sc_hd__mux2_1
*I *3432:X O *D sky130_fd_sc_hd__dlygate4sd3_1
*CAP
1 *2903:A0 0.000300227
2 *3432:X 0.000300227
3 *2903:A0 *2815:B2 0.0001471
4 *2903:A0 *3432:A 4.82919e-05
5 *2901:A *2903:A0 0.00015896
6 *2926:A1 *2903:A0 0.00010344
*RES
1 *3432:X *2903:A0 12.99 
*END

*D_NET *758 0.000488306
*CONN
*I *3055:A1 I *D sky130_fd_sc_hd__mux2_1
*I *3433:X O *D sky130_fd_sc_hd__dlygate4sd3_1
*CAP
1 *3055:A1 0.000235273
2 *3433:X 0.000235273
3 *3055:A1 *3433:A 0
4 *3055:S *3055:A1 1.77595e-05
*RES
1 *3433:X *3055:A1 9.9 
*END

*D_NET *759 0.0144851
*CONN
*I *3471:A I *D sky130_fd_sc_hd__clkbuf_2
*I *2760:A2 I *D sky130_fd_sc_hd__a311o_1
*I *2736:A2 I *D sky130_fd_sc_hd__a22o_1
*I *2812:A2 I *D sky130_fd_sc_hd__a221o_1
*I *3472:X O *D sky130_fd_sc_hd__clkbuf_2
*CAP
1 *3471:A 0
2 *2760:A2 0
3 *2736:A2 0.000106725
4 *2812:A2 1.5597e-05
5 *3472:X 0.000875967
6 *759:34 0.000518903
7 *759:28 0.00175054
8 *759:12 0.00222992
9 *2736:A2 *2736:B2 2.97004e-06
10 *2736:A2 *2812:A1 0.000151267
11 *2812:A2 *2812:A1 0.00010611
12 *759:12 *2771:A 0.000175509
13 *759:12 *3457:A 5.76956e-05
14 *759:28 *2751:A 5.06699e-05
15 *759:28 *824:10 6.436e-05
16 *759:34 *2760:A1 9.33942e-05
17 *2690:B *759:12 0.00013521
18 *2713:C *759:12 0.000110791
19 *2751:B *759:28 7.06865e-05
20 *2761:A *759:28 0.00149577
21 *2761:C *759:28 0.000252372
22 *2761:D *759:28 0.00028349
23 *2812:C1 *759:34 0
24 *2816:A *2736:A2 0
25 *2819:A1 *759:34 9.21068e-05
26 *2905:A *759:12 0.000198515
27 *2943:A *759:34 2.66935e-05
28 *2945:A *759:34 8.53177e-05
29 *2997:A *759:28 5.63387e-05
30 *2999:A *759:28 1.73877e-05
31 *3015:A0 *759:12 7.37934e-05
32 *3015:A1 *759:12 5.88217e-05
33 *3125:A0 *759:28 0.000322968
34 *3133:S *759:28 3.88334e-05
35 *3166:CLK *759:34 0.000155928
36 *3167:D *759:34 0.000174279
37 *3184:D *759:28 1.08879e-05
38 *3190:D *759:12 0.000359803
39 *3466:A *759:12 2.59398e-05
40 *174:43 *759:28 0.000109947
41 *174:61 *759:28 2.49909e-05
42 *176:54 *759:12 1.42598e-05
43 *176:54 *759:28 0.000191343
44 *182:10 *759:12 0.000505647
45 *187:64 *759:28 5.30799e-05
46 *187:98 *759:28 0.000213106
47 *192:22 *759:28 3.57846e-05
48 *194:26 *759:12 4.66108e-05
49 *194:26 *759:28 6.41207e-05
50 *202:8 *759:12 0
51 *212:42 *759:28 0
52 *218:108 *759:28 0.000134824
53 *231:116 *759:34 0
54 *317:66 *759:12 1.79098e-05
55 *351:114 *2736:A2 0.000161529
56 *351:114 *2812:A2 0.000104953
57 *351:114 *759:34 0
58 *359:12 *759:28 0.00023468
59 *372:14 *2736:A2 0.000159964
60 *372:14 *759:28 0.000137205
61 *372:14 *759:34 0
62 *432:14 *759:28 3.81493e-05
63 *432:46 *759:12 0.000188586
64 *432:73 *759:12 0.000665554
65 *619:14 *759:28 0.000560559
66 *715:30 *759:28 0.000303285
67 *737:24 *759:12 0.000263453
68 *737:36 *759:12 9.95896e-06
69 *737:36 *759:34 0
*RES
1 *3472:X *759:12 30.125 
2 *759:12 *759:28 42.64 
3 *759:28 *759:34 12.01 
4 *759:34 *2812:A2 2.5675 
5 *759:34 *2736:A2 8.975 
6 *759:28 *2760:A2 1.6 
7 *759:12 *3471:A 1.6 
*END

*D_NET *760 0.00136415
*CONN
*I *3023:A0 I *D sky130_fd_sc_hd__mux2_1
*I *3434:X O *D sky130_fd_sc_hd__dlygate4sd3_1
*CAP
1 *3023:A0 0.000224795
2 *3434:X 0.000224795
3 *3023:A0 *3434:A 9.29751e-06
4 *3024:A *3023:A0 0
5 *3025:A0 *3023:A0 0.000165068
6 *3025:S *3023:A0 5.72287e-05
7 *3031:A *3023:A0 0.000533595
8 *3197:D *3023:A0 0.000122331
9 *442:108 *3023:A0 9.12494e-06
10 *445:106 *3023:A0 1.79165e-05
*RES
1 *3434:X *3023:A0 14.565 
*END

*D_NET *761 0.0010682
*CONN
*I *2892:A1 I *D sky130_fd_sc_hd__mux2_1
*I *3435:X O *D sky130_fd_sc_hd__dlygate4sd3_1
*CAP
1 *2892:A1 0.000284638
2 *3435:X 0.000284638
3 *2892:A1 *2812:B2 3.86607e-05
4 *2816:A *2892:A1 7.23602e-05
5 *325:32 *2892:A1 0.000387902
*RES
1 *3435:X *2892:A1 11.625 
*END

*D_NET *762 0.00143052
*CONN
*I *3028:A0 I *D sky130_fd_sc_hd__mux2_1
*I *3436:X O *D sky130_fd_sc_hd__dlygate4sd3_1
*CAP
1 *3028:A0 0.000438239
2 *3436:X 0.000438239
3 *3028:A0 *2698:A1 0.000265031
4 *3028:A0 *3320:A 0
5 *3028:A0 *3436:A 0.000145453
6 *3030:A0 *3028:A0 0
7 *604:126 *3028:A0 2.68526e-05
8 *604:143 *3028:A0 0.000116703
*RES
1 *3436:X *3028:A0 14.775 
*END

*D_NET *763 0.000616684
*CONN
*I *2913:A0 I *D sky130_fd_sc_hd__mux2_1
*I *3437:X O *D sky130_fd_sc_hd__dlygate4sd3_1
*CAP
1 *2913:A0 0.000174301
2 *3437:X 0.000174301
3 *316:60 *2913:A0 0.000193666
4 *365:22 *2913:A0 3.72081e-05
5 *391:43 *2913:A0 3.72081e-05
*RES
1 *3437:X *2913:A0 9.9 
*END

*D_NET *764 0.00110304
*CONN
*I *3076:A1 I *D sky130_fd_sc_hd__mux2_1
*I *3438:X O *D sky130_fd_sc_hd__dlygate4sd3_1
*CAP
1 *3076:A1 0.000227398
2 *3438:X 0.000227398
3 *2743:B1 *3076:A1 0.000106724
4 *3077:A *3076:A1 0.000245886
5 *3214:D *3076:A1 0.000139245
6 *215:38 *3076:A1 0.00015639
*RES
1 *3438:X *3076:A1 12.045 
*END

*D_NET *765 0.000283107
*CONN
*I *2560:A1 I *D sky130_fd_sc_hd__mux2_1
*I *3439:X O *D sky130_fd_sc_hd__dlygate4sd3_1
*CAP
1 *2560:A1 3.72626e-05
2 *3439:X 3.72626e-05
3 *2560:A1 *2724:A1 4.47209e-05
4 *2560:A0 *2560:A1 8.52845e-05
5 *2560:S *2560:A1 5.05521e-05
6 *511:55 *2560:A1 2.80247e-05
*RES
1 *3439:X *2560:A1 4.685 
*END

*D_NET *766 0.000319923
*CONN
*I *2570:A1 I *D sky130_fd_sc_hd__mux2_1
*I *3441:X O *D sky130_fd_sc_hd__dlygate4sd3_1
*CAP
1 *2570:A1 4.54468e-05
2 *3441:X 4.54468e-05
3 *2570:A1 *812:8 5.97201e-05
4 *2570:A0 *2570:A1 4.82863e-05
5 *500:54 *2570:A1 0.000121023
*RES
1 *3441:X *2570:A1 4.685 
*END

*D_NET *767 0.000381857
*CONN
*I *2558:A1 I *D sky130_fd_sc_hd__mux2_1
*I *3442:X O *D sky130_fd_sc_hd__dlygate4sd3_1
*CAP
1 *2558:A1 0.000111058
2 *3442:X 0.000111058
3 *511:30 *2558:A1 0.000159741
*RES
1 *3442:X *2558:A1 4.685 
*END

*D_NET *768 0.000723803
*CONN
*I *2993:A1 I *D sky130_fd_sc_hd__mux2_1
*I *3443:X O *D sky130_fd_sc_hd__dlygate4sd3_1
*CAP
1 *2993:A1 0.000128538
2 *3443:X 0.000128538
3 *2993:A1 *2775:B2 0.000117832
4 *2993:A1 *3443:A 0.000189426
5 *2993:S *2993:A1 4.82919e-05
6 *3186:D *2993:A1 6.28843e-05
7 *181:134 *2993:A1 0
8 *604:14 *2993:A1 4.82919e-05
*RES
1 *3443:X *2993:A1 11.07 
*END

*D_NET *769 0.000542899
*CONN
*I *2575:A1 I *D sky130_fd_sc_hd__mux2_1
*I *3444:X O *D sky130_fd_sc_hd__dlygate4sd3_1
*CAP
1 *2575:A1 0.000224914
2 *3444:X 0.000224914
3 *2573:A0 *2575:A1 0
4 *2573:S *2575:A1 9.30717e-05
5 *358:36 *2575:A1 0
*RES
1 *3444:X *2575:A1 10.56 
*END

*D_NET *770 0.00452479
*CONN
*I *3385:A I *D sky130_fd_sc_hd__dlygate4sd3_1
*I *2822:A I *D sky130_fd_sc_hd__and4_1
*I *2830:A I *D sky130_fd_sc_hd__buf_2
*I *2873:A I *D sky130_fd_sc_hd__or2b_1
*I *3138:Q O *D sky130_fd_sc_hd__dfrtp_1
*CAP
1 *3385:A 0.000200222
2 *2822:A 0
3 *2830:A 0
4 *2873:A 0.000411212
5 *3138:Q 3.89769e-05
6 *770:38 0.000265006
7 *770:14 0.00104651
8 *770:6 0.000739058
9 *2873:A *2964:C 0
10 *2873:A *772:48 0.000153474
11 *2873:A *773:39 0.000306144
12 *3385:A *3418:A 0.000122101
13 *3385:A *772:12 2.97204e-05
14 *770:14 *772:48 1.37328e-05
15 *770:38 *772:12 1.01661e-05
16 *770:38 *773:14 7.17811e-05
17 *2859:A *770:14 0.000338601
18 *2862:A *2873:A 8.41149e-05
19 *3138:CLK *770:14 5.3203e-05
20 *3274:CLK *3385:A 0.000175058
21 *3274:CLK *770:38 8.71001e-05
22 *3274:D *3385:A 0.00011852
23 *318:10 *2873:A 0.000154098
24 *318:10 *770:14 7.67415e-06
25 *607:22 *2873:A 9.83207e-05
*RES
1 *3138:Q *770:6 2.05 
2 *770:6 *770:14 8.775 
3 *770:14 *2873:A 14.675 
4 *770:14 *2830:A 1.6 
5 *770:6 *770:38 3.89 
6 *770:38 *2822:A 3.6 
7 *770:38 *3385:A 9.315 
*END

*D_NET *771 0.00304781
*CONN
*I *3317:A I *D sky130_fd_sc_hd__dlygate4sd3_1
*I *2822:B I *D sky130_fd_sc_hd__and4_1
*I *2831:A I *D sky130_fd_sc_hd__clkbuf_2
*I *3139:Q O *D sky130_fd_sc_hd__dfrtp_1
*CAP
1 *3317:A 0.000455234
2 *2822:B 0
3 *2831:A 0.00062945
4 *3139:Q 0
5 *771:19 0.000545202
6 *771:4 0.000719418
7 *2831:A *2822:C 2.75229e-05
8 *2831:A *773:18 0.000248599
9 *2831:A *773:24 4.9253e-06
10 *3317:A *2822:C 2.16917e-05
11 *3317:A *2822:D 5.062e-06
12 *771:19 *2822:C 6.27029e-05
13 *3139:CLK *2831:A 2.49909e-05
14 *3139:D *2831:A 4.99619e-05
15 *3139:RESET_B *2831:A 7.8198e-05
16 *211:14 *2831:A 9.47454e-05
17 *312:10 *3317:A 3.06697e-05
18 *595:36 *2831:A 4.94404e-05
*RES
1 *3139:Q *771:4 1.6 
2 *771:4 *2831:A 14.42 
3 *771:4 *771:19 1.14 
4 *771:19 *2822:B 1.6 
5 *771:19 *3317:A 11.225 
*END

*D_NET *772 0.0103488
*CONN
*I *3418:A I *D sky130_fd_sc_hd__dlygate4sd3_1
*I *2822:D I *D sky130_fd_sc_hd__and4_1
*I *2917:C I *D sky130_fd_sc_hd__or4b_2
*I *2874:B I *D sky130_fd_sc_hd__nand2_1
*I *2861:C_N I *D sky130_fd_sc_hd__or3b_1
*I *2940:D_N I *D sky130_fd_sc_hd__or4b_4
*I *2832:C I *D sky130_fd_sc_hd__and3_1
*I *2856:A I *D sky130_fd_sc_hd__buf_2
*I *3140:Q O *D sky130_fd_sc_hd__dfrtp_2
*CAP
1 *3418:A 0.000298185
2 *2822:D 0.000253179
3 *2917:C 7.56683e-05
4 *2874:B 0.000115458
5 *2861:C_N 2.01995e-05
6 *2940:D_N 0
7 *2832:C 8.34788e-05
8 *2856:A 0.000168735
9 *3140:Q 0.000172237
10 *772:82 0.000279372
11 *772:67 0.000376981
12 *772:48 0.000758929
13 *772:20 0.000313956
14 *772:18 0.00117896
15 *772:12 0.000987216
16 *772:8 0.000577635
17 *2822:D *2822:C 7.11048e-05
18 *2822:D *773:18 2.49909e-05
19 *2874:B *2874:A 4.82863e-05
20 *2874:B *773:59 8.35106e-05
21 *2917:C *773:59 3.6355e-05
22 *772:12 *773:14 7.47284e-05
23 *772:18 *773:18 0.000442599
24 *772:18 *773:24 4.66826e-05
25 *772:48 *773:39 0.00060616
26 *772:48 *773:41 8.6076e-05
27 *772:67 *2940:C 1.49184e-05
28 *772:67 *773:41 5.83281e-05
29 *772:67 *773:49 0.000176776
30 *772:82 *773:49 1.52541e-05
31 *772:82 *773:59 7.4027e-05
32 *2851:A *2856:A 0.000286635
33 *2861:A *2861:C_N 8.40213e-05
34 *2861:A *772:67 3.68999e-05
35 *2863:A1_N *2856:A 6.83659e-05
36 *2863:B1 *2856:A 0.000119762
37 *2873:A *772:48 0.000153474
38 *2917:A *2917:C 6.04482e-05
39 *2917:B *2917:C 4.89295e-05
40 *2917:B *772:82 1.23763e-05
41 *3047:A *772:67 1.23331e-05
42 *3047:A *772:82 0.000134134
43 *3052:A *772:67 0.000178569
44 *3273:D *3418:A 4.99619e-05
45 *3274:D *3418:A 6.74079e-05
46 *3274:D *772:8 1.3582e-05
47 *3274:RESET_B *3418:A 0
48 *3317:A *2822:D 5.062e-06
49 *3385:A *3418:A 0.000122101
50 *3385:A *772:12 2.97204e-05
51 *211:14 *2856:A 0.000371884
52 *211:14 *772:18 0.000116158
53 *211:14 *772:20 0.000159269
54 *317:48 *2874:B 2.0514e-05
55 *317:48 *2917:C 1.05984e-05
56 *317:52 *2874:B 3.65496e-05
57 *318:62 *772:67 2.20014e-05
58 *319:10 *2856:A 3.09233e-05
59 *319:10 *772:18 0.000108329
60 *319:10 *772:20 0.000149766
61 *319:12 *2856:A 7.30547e-05
62 *319:44 *2832:C 2.35094e-05
63 *319:128 *2832:C 3.04064e-05
64 *321:28 *2861:C_N 8.40213e-05
65 *321:28 *772:67 8.41307e-05
66 *663:30 *3418:A 0
67 *663:30 *772:12 0
68 *770:14 *772:48 1.37328e-05
69 *770:38 *772:12 1.01661e-05
*RES
1 *3140:Q *772:8 5.43 
2 *772:8 *772:12 4.145 
3 *772:12 *772:18 11.075 
4 *772:18 *772:20 1.89 
5 *772:20 *2856:A 9.18 
6 *772:20 *2832:C 4.695 
7 *772:18 *772:48 11.09 
8 *772:48 *2940:D_N 1.6 
9 *772:48 *772:67 9.4 
10 *772:67 *2861:C_N 2.395 
11 *772:67 *772:82 6.25 
12 *772:82 *2874:B 3.79 
13 *772:82 *2917:C 3.445 
14 *772:12 *2822:D 4.99 
15 *772:8 *3418:A 9.78 
*END

*D_NET *773 0.00753296
*CONN
*I *2822:C I *D sky130_fd_sc_hd__and4_1
*I *3429:A I *D sky130_fd_sc_hd__dlygate4sd3_1
*I *2964:C I *D sky130_fd_sc_hd__or4_2
*I *2940:C I *D sky130_fd_sc_hd__or4b_4
*I *2861:B I *D sky130_fd_sc_hd__or3b_1
*I *2917:D_N I *D sky130_fd_sc_hd__or4b_2
*I *2874:A I *D sky130_fd_sc_hd__nand2_1
*I *2829:A I *D sky130_fd_sc_hd__buf_2
*I *3141:Q O *D sky130_fd_sc_hd__dfrtp_4
*CAP
1 *2822:C 5.95153e-05
2 *3429:A 0
3 *2964:C 0.000154025
4 *2940:C 6.32564e-05
5 *2861:B 0
6 *2917:D_N 0
7 *2874:A 9.73191e-06
8 *2829:A 0.000101336
9 *3141:Q 0.000342082
10 *773:59 0.000174067
11 *773:49 0.000335456
12 *773:41 0.000316231
13 *773:39 0.000422563
14 *773:24 0.000578543
15 *773:18 0.000503807
16 *773:14 0.000614883
17 *2822:D *2822:C 7.11048e-05
18 *2822:D *773:18 2.49909e-05
19 *2831:A *2822:C 2.75229e-05
20 *2831:A *773:18 0.000248599
21 *2831:A *773:24 4.9253e-06
22 *2833:B *2829:A 4.82919e-05
23 *2850:B1 *773:14 5.42303e-05
24 *2851:B_N *2829:A 4.61701e-06
25 *2854:B2 *773:14 2.24336e-05
26 *2858:A *773:14 0.000187064
27 *2859:A *773:14 0
28 *2873:A *2964:C 0
29 *2873:A *773:39 0.000306144
30 *2874:B *2874:A 4.82863e-05
31 *2874:B *773:59 8.35106e-05
32 *2917:C *773:59 3.6355e-05
33 *2940:B *2940:C 2.15973e-05
34 *2964:D *2964:C 1.18236e-05
35 *3047:A *773:59 2.98989e-05
36 *3139:CLK *773:18 4.66108e-05
37 *3139:D *773:18 3.00381e-05
38 *3139:RESET_B *773:18 4.70477e-05
39 *3274:CLK *773:14 0
40 *3276:CLK *773:24 0
41 *3276:D *773:24 3.45679e-05
42 *3317:A *2822:C 2.16917e-05
43 *215:68 *2829:A 0.000179032
44 *215:68 *773:24 0.00010596
45 *317:48 *2874:A 4.82863e-05
46 *317:48 *773:59 0.000110147
47 *318:10 *2829:A 3.5813e-05
48 *318:50 *2964:C 1.87328e-05
49 *318:62 *773:49 4.75959e-05
50 *318:62 *773:59 4.75991e-05
51 *318:84 *773:49 2.03074e-05
52 *319:10 *2829:A 0
53 *319:10 *773:24 0
54 *319:44 *2829:A 4.66108e-05
55 *340:41 *773:59 0
56 *415:27 *2964:C 5.59909e-05
57 *607:22 *2964:C 0
58 *770:38 *773:14 7.17811e-05
59 *771:19 *2822:C 6.27029e-05
60 *772:12 *773:14 7.47284e-05
61 *772:18 *773:18 0.000442599
62 *772:18 *773:24 4.66826e-05
63 *772:48 *773:39 0.00060616
64 *772:48 *773:41 8.6076e-05
65 *772:67 *2940:C 1.49184e-05
66 *772:67 *773:41 5.83281e-05
67 *772:67 *773:49 0.000176776
68 *772:82 *773:49 1.52541e-05
69 *772:82 *773:59 7.4027e-05
*RES
1 *3141:Q *773:14 12.38 
2 *773:14 *773:18 7.71 
3 *773:18 *773:24 7.1 
4 *773:24 *2829:A 6.195 
5 *773:24 *773:39 7.625 
6 *773:39 *773:41 1.83 
7 *773:41 *773:49 7.36 
8 *773:49 *773:59 7.225 
9 *773:59 *2874:A 2.05 
10 *773:59 *2917:D_N 1.6 
11 *773:49 *2861:B 1.6 
12 *773:41 *2940:C 2.77 
13 *773:39 *2964:C 8.555 
14 *773:18 *3429:A 1.6 
15 *773:14 *2822:C 3.43 
*END

*D_NET *774 0.0139862
*CONN
*I *2970:A_N I *D sky130_fd_sc_hd__nand3b_4
*I *3057:C I *D sky130_fd_sc_hd__nand3b_4
*I *2834:A I *D sky130_fd_sc_hd__nand3_4
*I *2555:A I *D sky130_fd_sc_hd__or3b_4
*I *2846:A I *D sky130_fd_sc_hd__nand2_1
*I *2865:B1 I *D sky130_fd_sc_hd__a21o_1
*I *2823:A I *D sky130_fd_sc_hd__and4_1
*I *3318:A I *D sky130_fd_sc_hd__dlygate4sd3_1
*I *3142:Q O *D sky130_fd_sc_hd__dfrtp_4
*CAP
1 *2970:A_N 0
2 *3057:C 2.40321e-05
3 *2834:A 7.2861e-05
4 *2555:A 5.16698e-05
5 *2846:A 0
6 *2865:B1 0.000229723
7 *2823:A 6.35322e-05
8 *3318:A 0.000457924
9 *3142:Q 0.000241941
10 *774:124 0.000282395
11 *774:92 0.00112102
12 *774:76 0.00202808
13 *774:48 0.00142703
14 *774:12 0.00072605
15 *774:10 0.000870611
16 *2555:A *2555:B 8.23457e-05
17 *2823:A *780:20 4.77719e-05
18 *2834:A *2834:B 8.71001e-05
19 *2834:A *775:61 1.52184e-05
20 *3057:C *775:57 0.000160338
21 *3318:A *2642:A1 0.000121643
22 *3318:A *2821:B 0.000121023
23 *3318:A *779:14 1.22676e-05
24 *3318:A *780:12 4.4952e-05
25 *3318:A *780:30 4.77757e-05
26 *3318:A *780:37 0.000235238
27 *774:76 *3421:A 0.000122821
28 *774:92 *2699:B 5.39718e-05
29 *774:92 *2739:A 0.000277223
30 *774:92 *2739:B 4.35432e-05
31 *774:92 *2781:A 0.000379656
32 *774:92 *3376:A 0.000114492
33 *774:92 *803:8 0
34 *774:92 *803:10 1.16578e-05
35 *774:124 *775:51 3.63576e-05
36 *774:124 *775:57 0.000231819
37 *2643:A2 *3318:A 0.000159964
38 *2783:A *2834:A 0.000139245
39 *2825:A *3318:A 4.59313e-05
40 *2826:A *3318:A 8.46717e-05
41 *2844:B *2823:A 4.30228e-05
42 *2846:B *774:76 4.66108e-05
43 *2864:A1 *774:76 8.52972e-05
44 *2864:B1_N *774:76 8.53011e-05
45 *2867:A *2865:B1 0.000231815
46 *2987:A1 *774:92 0.00012297
47 *2987:S *774:92 0.000203905
48 *3057:B *3057:C 0.000160338
49 *3057:B *774:124 8.41384e-05
50 *3066:A1 *774:92 4.56221e-05
51 *3316:A *2865:B1 0.000159722
52 *159:20 *3318:A 5.56629e-05
53 *176:8 *774:92 2.11518e-05
54 *211:14 *774:124 2.68037e-05
55 *231:14 *2555:A 0.000192497
56 *231:14 *774:92 0.000307043
57 *310:12 *3318:A 1.05984e-05
58 *310:14 *3318:A 1.58534e-05
59 *310:57 *3318:A 0
60 *312:27 *2865:B1 0.000485494
61 *323:62 *774:92 0
62 *330:18 *2823:A 8.52845e-05
63 *330:18 *774:12 0.000163012
64 *332:8 *774:76 3.24882e-05
65 *337:16 *774:48 8.73421e-05
66 *337:16 *774:76 9.56017e-06
67 *415:52 *2834:A 1.73877e-05
68 *419:14 *774:92 5.92849e-05
69 *419:14 *774:124 4.87939e-05
70 *596:44 *3318:A 0.000139245
71 *597:8 *774:76 8.53011e-05
72 *652:23 *2555:A 6.2187e-05
73 *652:23 *774:92 0.000126584
74 *674:10 *2865:B1 0.000191355
75 *674:16 *2865:B1 0.000150732
76 *674:20 *2865:B1 6.98623e-05
*RES
1 *3142:Q *774:10 7.065 
2 *774:10 *774:12 3.93 
3 *774:12 *3318:A 17.995 
4 *774:12 *2823:A 5.085 
5 *774:10 *774:48 8.315 
6 *774:48 *2865:B1 13.745 
7 *774:48 *2846:A 1.6 
8 *774:48 *774:76 14.66 
9 *774:76 *774:92 24.26 
10 *774:92 *2555:A 3.43 
11 *774:92 *2834:A 7.745 
12 *774:76 *774:124 10.62 
13 *774:124 *3057:C 3.085 
14 *774:124 *2970:A_N 1.6 
*END

*D_NET *775 0.0120073
*CONN
*I *2868:A I *D sky130_fd_sc_hd__or2_1
*I *2970:B I *D sky130_fd_sc_hd__nand3b_4
*I *2869:B2 I *D sky130_fd_sc_hd__a2bb2o_1
*I *3057:A_N I *D sky130_fd_sc_hd__nand3b_4
*I *2555:B I *D sky130_fd_sc_hd__or3b_4
*I *2834:B I *D sky130_fd_sc_hd__nand3_4
*I *2823:B I *D sky130_fd_sc_hd__and4_1
*I *2845:A I *D sky130_fd_sc_hd__inv_2
*I *3329:A I *D sky130_fd_sc_hd__dlygate4sd3_1
*I *3143:Q O *D sky130_fd_sc_hd__dfrtp_4
*CAP
1 *2868:A 0
2 *2970:B 0
3 *2869:B2 0.000351634
4 *3057:A_N 0
5 *2555:B 2.4121e-05
6 *2834:B 0.0001594
7 *2823:B 0
8 *2845:A 0.000103278
9 *3329:A 0
10 *3143:Q 0.000125094
11 *775:92 0.000370271
12 *775:61 0.000684137
13 *775:57 0.000871818
14 *775:51 0.000850424
15 *775:49 0.00117092
16 *775:21 0.000171727
17 *775:14 0.000308426
18 *775:8 0.0010754
19 *2845:A *2852:A 0.000112284
20 *2845:A *780:20 8.30853e-06
21 *2555:A *2555:B 8.23457e-05
22 *2750:B1 *2834:B 0
23 *2783:A *2834:B 1.16578e-05
24 *2783:A *775:61 6.57118e-05
25 *2791:A *775:61 0.000116158
26 *2823:C *775:14 0.000112717
27 *2823:C *775:21 0.000158532
28 *2834:A *2834:B 8.71001e-05
29 *2834:A *775:61 1.52184e-05
30 *2844:B *775:21 8.35106e-05
31 *2847:B1 *775:14 4.66108e-05
32 *2852:B *775:14 0
33 *2853:A *775:51 0.000121039
34 *2853:B *775:51 4.23008e-05
35 *2869:A2_N *775:51 1.19028e-05
36 *2869:B1 *2869:B2 2.01737e-05
37 *2953:B *775:61 0.000122587
38 *2970:C *775:92 3.5678e-06
39 *2983:A *2834:B 8.29071e-05
40 *3057:B *775:51 7.30505e-05
41 *3057:B *775:57 0.000153185
42 *3057:C *775:57 0.000160338
43 *3067:A *775:61 0.000391228
44 *3133:A0 *775:61 0.00014365
45 *3210:CLK *775:57 4.66108e-05
46 *3210:CLK *775:61 0.000132946
47 *3210:D *775:57 5.74791e-05
48 *3314:A *2834:B 4.9968e-05
49 *3314:A *775:61 0.00109806
50 *159:20 *775:14 2.92496e-05
51 *313:10 *775:14 9.35665e-05
52 *313:10 *775:21 2.20014e-05
53 *334:21 *775:49 3.93775e-05
54 *337:16 *775:14 0.000113433
55 *338:10 *775:51 5.71963e-05
56 *361:36 *2834:B 5.71e-05
57 *361:36 *775:57 0.000156774
58 *361:36 *775:61 0.000376016
59 *415:52 *775:61 0
60 *419:8 *775:57 8.53011e-05
61 *419:14 *2869:B2 2.69443e-06
62 *419:136 *2869:B2 6.71425e-05
63 *474:6 *775:57 1.32102e-05
64 *597:45 *775:49 2.23107e-05
65 *652:23 *2555:B 8.23457e-05
66 *663:40 *775:51 2.21074e-05
67 *674:10 *775:8 1.64141e-05
68 *674:16 *775:8 0.000126162
69 *674:20 *775:8 3.24563e-05
70 *674:20 *775:14 0.000446499
71 *774:124 *775:51 3.63576e-05
72 *774:124 *775:57 0.000231819
*RES
1 *3143:Q *775:8 6.3825 
2 *775:8 *775:14 8.8175 
3 *775:14 *3329:A 1.6 
4 *775:14 *775:21 1.83 
5 *775:21 *2845:A 7.595 
6 *775:21 *2823:B 1.6 
7 *775:8 *775:49 4.45777 
8 *775:49 *775:51 7.695 
9 *775:51 *775:57 8.16 
10 *775:57 *775:61 18.425 
11 *775:61 *2834:B 7.35 
12 *775:61 *2555:B 4.395 
13 *775:57 *3057:A_N 1.6 
14 *775:51 *775:92 0.36 
15 *775:92 *2869:B2 11.315 
16 *775:92 *2970:B 1.6 
17 *775:49 *2868:A 1.6 
*END

*D_NET *776 0.00384639
*CONN
*I *3369:A I *D sky130_fd_sc_hd__dlygate4sd3_1
*I *2835:D_N I *D sky130_fd_sc_hd__or4b_2
*I *3285:Q O *D sky130_fd_sc_hd__dfrtp_1
*CAP
1 *3369:A 0.000236827
2 *2835:D_N 0.000596083
3 *3285:Q 0.000178488
4 *776:6 0.0010114
5 *2835:D_N *795:62 0
6 *2660:A_N *2835:D_N 0.000181715
7 *2673:B1 *2835:D_N 0.000109218
8 *2677:A *2835:D_N 7.63499e-05
9 *2824:A2 *2835:D_N 0.000133657
10 *2870:B1_N *2835:D_N 0.000227623
11 *159:20 *2835:D_N 0.000839802
12 *159:20 *3369:A 0.000130846
13 *323:10 *2835:D_N 0.000124384
*RES
1 *3285:Q *776:6 3.43 
2 *776:6 *2835:D_N 22.505 
3 *776:6 *3369:A 9.395 
*END

*D_NET *777 0.000694028
*CONN
*I *3396:A I *D sky130_fd_sc_hd__dlygate4sd3_1
*I *3144:Q O *D sky130_fd_sc_hd__dfrtp_1
*CAP
1 *3396:A 0.000248914
2 *3144:Q 0.000248914
3 *2677:A *3396:A 0.000196201
*RES
1 *3144:Q *3396:A 11.43 
*END

*D_NET *778 0.00144942
*CONN
*I *3365:A I *D sky130_fd_sc_hd__dlygate4sd3_1
*I *2820:A I *D sky130_fd_sc_hd__inv_2
*I *3292:Q O *D sky130_fd_sc_hd__dfrtp_1
*CAP
1 *3365:A 0
2 *2820:A 0.000360272
3 *3292:Q 0.000345415
4 *778:10 0.000705687
5 *2643:A2 *2820:A 4.00541e-06
6 *2643:B2 *2820:A 4.00541e-06
7 *2668:B *2820:A 3.00381e-05
8 *3474:A *778:10 0
*RES
1 *3292:Q *778:10 11.315 
2 *778:10 *2820:A 7.24 
3 *778:10 *3365:A 1.6 
*END

*D_NET *779 0.00191053
*CONN
*I *2642:A1 I *D sky130_fd_sc_hd__o21ai_1
*I *2821:B I *D sky130_fd_sc_hd__or2_1
*I *2825:B I *D sky130_fd_sc_hd__and2_1
*I *3136:Q O *D sky130_fd_sc_hd__dfstp_1
*CAP
1 *2642:A1 0.000428645
2 *2821:B 2.55915e-05
3 *2825:B 0
4 *3136:Q 0.00011965
5 *779:14 5.08396e-05
6 *779:10 0.000573542
7 *2642:A2 *2642:A1 1.56428e-05
8 *2642:B1 *2642:A1 8.5841e-05
9 *2825:A *2821:B 4.77719e-05
10 *3137:RESET_B *779:10 0.000101998
11 *3277:D *2642:A1 1.9415e-05
12 *3318:A *2642:A1 0.000121643
13 *3318:A *2821:B 0.000121023
14 *3318:A *779:14 1.22676e-05
15 *159:20 *779:14 0
16 *310:12 *2821:B 4.40028e-05
17 *310:14 *2642:A1 2.51519e-05
18 *310:57 *779:10 6.88421e-05
19 *310:57 *779:14 4.86642e-05
*RES
1 *3136:Q *779:10 5.4375 
2 *779:10 *779:14 2.615 
3 *779:14 *2825:B 1.6 
4 *779:14 *2821:B 2.74 
5 *779:10 *2642:A1 9.15 
*END

*D_NET *780 0.00304679
*CONN
*I *2844:A I *D sky130_fd_sc_hd__nand2_1
*I *2852:A I *D sky130_fd_sc_hd__and2_1
*I *2668:A I *D sky130_fd_sc_hd__or2_1
*I *3362:A I *D sky130_fd_sc_hd__dlygate4sd3_1
*I *2821:A I *D sky130_fd_sc_hd__or2_1
*I *3137:Q O *D sky130_fd_sc_hd__dfrtp_1
*CAP
1 *2844:A 0
2 *2852:A 7.06355e-05
3 *2668:A 7.49979e-05
4 *3362:A 0
5 *2821:A 0
6 *3137:Q 0.000147449
7 *780:37 0.000244429
8 *780:30 0.000364427
9 *780:20 0.000364125
10 *780:12 0.000245944
11 *2643:A2 *780:12 0.000124473
12 *2669:A *2668:A 8.8266e-05
13 *2823:A *780:20 4.77719e-05
14 *2826:A *780:30 0.000112284
15 *2844:B *780:20 8.41307e-05
16 *2845:A *2852:A 0.000112284
17 *2845:A *780:20 8.30853e-06
18 *2852:B *2852:A 0.000175221
19 *2852:B *780:30 4.17805e-05
20 *3318:A *780:12 4.4952e-05
21 *3318:A *780:30 4.77757e-05
22 *3318:A *780:37 0.000235238
23 *310:12 *780:30 2.86975e-05
24 *310:12 *780:37 0.000192551
25 *310:57 *780:30 0.000191048
*RES
1 *3137:Q *780:12 8.375 
2 *780:12 *780:20 4.0775 
3 *780:20 *780:30 6.8075 
4 *780:30 *2821:A 1.6 
5 *780:30 *780:37 4.245 
6 *780:37 *3362:A 1.6 
7 *780:37 *2668:A 3.085 
8 *780:20 *2852:A 5.8725 
9 *780:12 *2844:A 1.6 
*END

*D_NET *781 0.000811442
*CONN
*I *2646:A1 I *D sky130_fd_sc_hd__a221o_1
*I *3340:A I *D sky130_fd_sc_hd__dlygate4sd3_1
*I *3286:Q O *D sky130_fd_sc_hd__dfrtp_1
*CAP
1 *2646:A1 0
2 *3340:A 0.000110675
3 *3286:Q 0.000157475
4 *781:16 0.000268149
5 *781:16 *2647:A 8.83921e-05
6 *781:16 *787:16 3.26889e-05
7 *2645:A *3340:A 4.43871e-06
8 *2646:A2 *3340:A 8.53113e-06
9 *2646:A2 *781:16 2.2984e-05
10 *2646:B2 *3340:A 4.40812e-05
11 *2648:A1 *3340:A 0
12 *3451:A *781:16 7.4027e-05
*RES
1 *3286:Q *781:16 8.93 
2 *781:16 *3340:A 7.49 
3 *781:16 *2646:A1 1.6 
*END

*D_NET *782 0.00140528
*CONN
*I *3286:D I *D sky130_fd_sc_hd__dfrtp_1
*I *2654:S I *D sky130_fd_sc_hd__mux2_1
*I *2676:X O *D sky130_fd_sc_hd__clkbuf_1
*CAP
1 *3286:D 4.64165e-05
2 *2654:S 0.000337123
3 *2676:X 4.03266e-05
4 *782:8 0.000423866
5 *2654:S *2654:A0 0.000271597
6 *2654:A1 *2654:S 3.7837e-05
7 *3286:CLK *2654:S 0.000139245
8 *3286:CLK *3286:D 8.53856e-06
9 *3287:D *2654:S 0
10 *630:73 *2654:S 2.77665e-05
11 *630:73 *3286:D 8.73389e-06
12 *630:73 *782:8 6.38291e-05
13 *630:81 *2654:S 0
*RES
1 *2676:X *782:8 4.47 
2 *782:8 *2654:S 10.14 
3 *782:8 *3286:D 4.09875 
*END

*D_NET *783 0.00105103
*CONN
*I *2644:A I *D sky130_fd_sc_hd__inv_2
*I *2654:A0 I *D sky130_fd_sc_hd__mux2_1
*I *3293:Q O *D sky130_fd_sc_hd__dfstp_1
*CAP
1 *2644:A 0
2 *2654:A0 0.000102831
3 *3293:Q 0.000155164
4 *783:12 0.000257995
5 *2654:S *2654:A0 0.000271597
6 *2655:A *2654:A0 2.93447e-05
7 *2655:A *783:12 7.23533e-05
8 *3286:CLK *783:12 1.52184e-05
9 *3287:CLK *2654:A0 8.49205e-05
10 *3293:SET_B *783:12 3.738e-05
11 *592:139 *783:12 2.42236e-05
12 *630:83 *783:12 0
*RES
1 *3293:Q *783:12 8.2025 
2 *783:12 *2654:A0 4.465 
3 *783:12 *2644:A 1.6 
*END

*D_NET *784 0.000590732
*CONN
*I *2651:B I *D sky130_fd_sc_hd__xnor2_1
*I *3281:Q O *D sky130_fd_sc_hd__dfrtp_1
*CAP
1 *2651:B 0.000147485
2 *3281:Q 0.000147485
3 *2651:B *2650:A 0.000141606
4 *2651:B *2651:A 3.26889e-05
5 *2640:A0 *2651:B 4.43871e-06
6 *2652:A1 *2651:B 0
7 *2652:B1 *2651:B 4.00541e-06
8 *316:22 *2651:B 0
9 *584:12 *2651:B 4.05358e-05
10 *630:12 *2651:B 7.24866e-05
*RES
1 *3281:Q *2651:B 10.98 
*END

*D_NET *785 0.000661088
*CONN
*I *2650:A I *D sky130_fd_sc_hd__inv_2
*I *3280:Q O *D sky130_fd_sc_hd__dfrtp_1
*CAP
1 *2650:A 0.000259741
2 *3280:Q 0.000259741
3 *2651:B *2650:A 0.000141606
4 *3281:RESET_B *2650:A 0
5 *316:22 *2650:A 0
6 *630:12 *2650:A 0
*RES
1 *3280:Q *2650:A 11.67 
*END

*D_NET *786 0.00127594
*CONN
*I *2672:A I *D sky130_fd_sc_hd__inv_2
*I *2661:A1 I *D sky130_fd_sc_hd__a21o_1
*I *3145:Q O *D sky130_fd_sc_hd__dfrtp_1
*CAP
1 *2672:A 0
2 *2661:A1 0.000138834
3 *3145:Q 0.000204259
4 *786:12 0.000343092
5 *2661:B1 *2661:A1 4.77757e-05
6 *2662:A *786:12 0.000136809
7 *2673:A1 *786:12 0.000134133
8 *2870:A1 *2661:A1 4.10688e-05
9 *2870:A1 *786:12 2.86975e-05
10 *3292:D *786:12 0.00014131
11 *593:95 *786:12 5.99655e-05
*RES
1 *3145:Q *786:12 11.105 
2 *786:12 *2661:A1 3.79 
3 *786:12 *2672:A 1.6 
*END

*D_NET *787 0.00115801
*CONN
*I *2647:A I *D sky130_fd_sc_hd__inv_2
*I *2646:B1 I *D sky130_fd_sc_hd__a221o_1
*I *3287:Q O *D sky130_fd_sc_hd__dfrtp_1
*CAP
1 *2647:A 0.000135394
2 *2646:B1 0
3 *3287:Q 0.000237819
4 *787:16 0.000373213
5 *2646:A2 *2647:A 1.2818e-05
6 *2646:A2 *787:16 0
7 *2646:B2 *787:16 1.20741e-05
8 *2646:C1 *787:16 0.000265607
9 *781:16 *2647:A 8.83921e-05
10 *781:16 *787:16 3.26889e-05
*RES
1 *3287:Q *787:16 10.625 
2 *787:16 *2646:B1 1.6 
3 *787:16 *2647:A 4.15 
*END

*D_NET *788 0.000996103
*CONN
*I *3289:D I *D sky130_fd_sc_hd__dfrtp_2
*I *2674:X O *D sky130_fd_sc_hd__a31o_1
*CAP
1 *3289:D 0.000255436
2 *2674:X 0.000255436
3 *3289:D *2658:A 5.83121e-06
4 *3289:D *2674:A1 0
5 *3289:D *793:16 4.41506e-05
6 *3289:D *795:12 7.81221e-05
7 *3289:D *795:54 0.000115208
8 *2670:C *3289:D 3.09164e-05
9 *11:29 *3289:D 0.000178314
10 *11:43 *3289:D 3.26889e-05
*RES
1 *2674:X *3289:D 12.825 
*END

*D_NET *789 0.000540572
*CONN
*I *3290:D I *D sky130_fd_sc_hd__dfrtp_1
*I *2667:X O *D sky130_fd_sc_hd__clkbuf_1
*CAP
1 *3290:D 0.000228181
2 *2667:X 0.000228181
3 *2667:A *3290:D 2.75229e-05
4 *2670:B *3290:D 1.29367e-05
5 *3290:CLK *3290:D 4.375e-05
*RES
1 *2667:X *3290:D 6.08 
*END

*D_NET *790 0.000675437
*CONN
*I *3291:D I *D sky130_fd_sc_hd__dfrtp_4
*I *2663:X O *D sky130_fd_sc_hd__a221o_1
*CAP
1 *3291:D 0.000164167
2 *2663:X 0.000164167
3 *3291:D *2657:B 2.23922e-05
4 *3291:D *2675:B 2.75145e-05
5 *3291:D *794:33 7.06865e-05
6 *3291:D *794:46 0.000175207
7 *3289:CLK *3291:D 5.13029e-05
*RES
1 *2663:X *3291:D 10.815 
*END

*D_NET *791 0.000273008
*CONN
*I *3440:A I *D sky130_fd_sc_hd__dlygate4sd3_1
*I *3272:Q O *D sky130_fd_sc_hd__dfrtp_1
*CAP
1 *3440:A 0.000136504
2 *3272:Q 0.000136504
3 *3272:RESET_B *3440:A 0
*RES
1 *3272:Q *3440:A 9.03 
*END

*D_NET *792 0.00298541
*CONN
*I *2675:B I *D sky130_fd_sc_hd__and3_1
*I *3372:A I *D sky130_fd_sc_hd__dlygate4sd3_1
*I *2664:A2 I *D sky130_fd_sc_hd__a211oi_1
*I *3284:Q O *D sky130_fd_sc_hd__dfrtp_1
*CAP
1 *2675:B 0.000595014
2 *3372:A 0
3 *2664:A2 0.000151906
4 *3284:Q 0
5 *792:19 0.000652684
6 *792:4 0.000209576
7 *2664:A2 *2664:A1 7.23602e-05
8 *2664:A2 *793:24 0
9 *2664:A2 *795:62 4.18603e-06
10 *2660:A_N *2664:A2 4.19797e-05
11 *2663:A1 *2675:B 1.43388e-05
12 *2663:A2 *2675:B 0.000130428
13 *2675:C *2675:B 2.04339e-05
14 *2676:A *2675:B 0.000444845
15 *2677:A *2664:A2 0
16 *2677:B *2664:A2 0.000114858
17 *2677:B *2675:B 0.000187988
18 *2677:B *792:19 0.000137795
19 *3291:D *2675:B 2.75145e-05
20 *157:27 *2675:B 4.00541e-06
21 *630:54 *2664:A2 9.70228e-05
22 *630:54 *792:19 7.84785e-05
*RES
1 *3284:Q *792:4 1.6 
2 *792:4 *2664:A2 9.575 
3 *792:4 *792:19 1.83 
4 *792:19 *3372:A 1.6 
5 *792:19 *2675:B 10.705 
*END

*D_NET *793 0.00720554
*CONN
*I *2665:C_N I *D sky130_fd_sc_hd__or3b_2
*I *2656:B I *D sky130_fd_sc_hd__and3b_1
*I *2835:B I *D sky130_fd_sc_hd__or4b_2
*I *2664:A1 I *D sky130_fd_sc_hd__a211oi_1
*I *2657:A I *D sky130_fd_sc_hd__nor2_1
*I *2659:B I *D sky130_fd_sc_hd__and3_1
*I *2660:B_N I *D sky130_fd_sc_hd__and4bb_1
*I *3289:Q O *D sky130_fd_sc_hd__dfrtp_2
*CAP
1 *2665:C_N 4.03725e-05
2 *2656:B 3.55506e-05
3 *2835:B 0
4 *2664:A1 0.000227762
5 *2657:A 0.000336318
6 *2659:B 0
7 *2660:B_N 2.7313e-05
8 *3289:Q 0.000438742
9 *793:67 0.000237588
10 *793:47 0.000464569
11 *793:32 0.000327042
12 *793:24 0.000552583
13 *793:18 0.000471735
14 *793:16 0.000544019
15 *2657:A *2657:B 4.77807e-05
16 *2660:B_N *795:81 4.77757e-05
17 *2665:C_N *2665:B 0.000167891
18 *2665:C_N *795:18 0.000163204
19 *2665:C_N *795:109 7.23635e-05
20 *793:16 *795:16 0
21 *793:16 *795:29 0.000158297
22 *793:16 *795:54 0.000132842
23 *793:18 *2656:A_N 4.99619e-05
24 *793:18 *2665:B 0.000160635
25 *793:18 *794:29 5.05437e-05
26 *793:18 *795:18 3.66286e-05
27 *793:24 *794:29 7.00889e-06
28 *793:47 *2659:A 6.97358e-05
29 *793:47 *795:81 0.000121019
30 *2645:A *793:16 9.94353e-05
31 *2659:C *793:32 5.88634e-05
32 *2659:C *793:47 7.47038e-05
33 *2660:A_N *2664:A1 4.13171e-05
34 *2660:A_N *793:24 0
35 *2661:B1 *793:47 7.01359e-05
36 *2664:A2 *2664:A1 7.23602e-05
37 *2664:A2 *793:24 0
38 *2664:B1 *2664:A1 0.000267175
39 *2670:C *793:16 4.19884e-05
40 *2671:A *2665:C_N 4.66108e-05
41 *2671:A *793:16 4.82919e-05
42 *2673:A2 *2657:A 0.000410367
43 *2674:B1 *2657:A 3.12916e-05
44 *2676:A *793:16 8.09021e-06
45 *2677:A *793:32 0.000134379
46 *2677:B *793:24 2.54824e-05
47 *3289:D *793:16 4.41506e-05
48 *10:29 *2657:A 5.40088e-05
49 *11:29 *793:16 0.000134509
50 *11:43 *793:24 0.000135002
51 *163:18 *793:18 2.88568e-05
52 *163:18 *793:24 0.000311688
53 *163:32 *793:24 7.75559e-05
*RES
1 *3289:Q *793:16 13.55 
2 *793:16 *793:18 2.175 
3 *793:18 *793:24 9.4475 
4 *793:24 *793:32 5.0825 
5 *793:32 *2660:B_N 2.05 
6 *793:32 *793:47 7.03 
7 *793:47 *2659:B 1.6 
8 *793:47 *2657:A 7.165 
9 *793:24 *793:67 2.2325 
10 *793:67 *2664:A1 8.99 
11 *793:67 *2835:B 1.6 
12 *793:18 *2656:B 2.215 
13 *793:16 *2665:C_N 3.775 
*END

*D_NET *794 0.0047794
*CONN
*I *2656:C I *D sky130_fd_sc_hd__and3b_1
*I *2657:B I *D sky130_fd_sc_hd__nor2_1
*I *2660:C I *D sky130_fd_sc_hd__and4bb_1
*I *2658:A I *D sky130_fd_sc_hd__inv_2
*I *2665:B I *D sky130_fd_sc_hd__or3b_2
*I *3290:Q O *D sky130_fd_sc_hd__dfrtp_1
*CAP
1 *2656:C 0
2 *2657:B 0.000291196
3 *2660:C 0.000286602
4 *2658:A 0.000197998
5 *2665:B 0.000305165
6 *3290:Q 0.00010042
7 *794:46 0.000648027
8 *794:33 0.000438357
9 *794:29 0.000237015
10 *794:10 0.000472471
11 *2658:A *795:54 4.19981e-05
12 *2660:C *795:81 2.79137e-05
13 *2665:B *795:109 1.61831e-05
14 *794:33 *795:54 8.53113e-06
15 *794:46 *795:54 9.61414e-05
16 *2657:A *2657:B 4.77807e-05
17 *2661:B1 *2660:C 7.8726e-06
18 *2665:C_N *2665:B 0.000167891
19 *2670:B *2665:B 8.65961e-05
20 *2670:B *794:10 4.82863e-05
21 *2671:A *2665:B 0.000158072
22 *2674:B1 *2657:B 0.000121043
23 *2676:A *794:10 9.37731e-05
24 *2676:A *794:29 7.30547e-05
25 *2676:A *794:33 5.97969e-05
26 *3289:CLK *2657:B 0
27 *3289:CLK *2658:A 2.11084e-05
28 *3289:D *2658:A 5.83121e-06
29 *3291:D *2657:B 2.23922e-05
30 *3291:D *794:33 7.06865e-05
31 *3291:D *794:46 0.000175207
32 *10:29 *2657:B 2.747e-05
33 *156:10 *794:33 6.28765e-05
34 *157:18 *2657:B 0
35 *157:18 *794:33 0
36 *157:18 *794:46 0
37 *163:18 *794:29 8.49205e-05
38 *630:54 *794:10 0
39 *630:54 *794:29 0
40 *630:54 *794:33 0
41 *641:22 *2657:B 5.85317e-05
42 *793:18 *2665:B 0.000160635
43 *793:18 *794:29 5.05437e-05
44 *793:24 *794:29 7.00889e-06
*RES
1 *3290:Q *794:10 5.175 
2 *794:10 *2665:B 9 
3 *794:10 *794:29 3.665 
4 *794:29 *794:33 5.165 
5 *794:33 *2658:A 6.3 
6 *794:33 *794:46 2.145 
7 *794:46 *2660:C 6.825 
8 *794:46 *2657:B 9 
9 *794:29 *2656:C 1.6 
*END

*D_NET *795 0.0077597
*CONN
*I *2674:A1 I *D sky130_fd_sc_hd__a31o_1
*I *2675:A I *D sky130_fd_sc_hd__and3_1
*I *2665:A I *D sky130_fd_sc_hd__or3b_2
*I *2670:A_N I *D sky130_fd_sc_hd__and3b_1
*I *2835:A I *D sky130_fd_sc_hd__or4b_2
*I *2660:D I *D sky130_fd_sc_hd__and4bb_1
*I *2659:A I *D sky130_fd_sc_hd__and3_1
*I *2664:C1 I *D sky130_fd_sc_hd__a211oi_1
*I *2663:B2 I *D sky130_fd_sc_hd__a221o_1
*I *2656:A_N I *D sky130_fd_sc_hd__and3b_1
*I *3291:Q O *D sky130_fd_sc_hd__dfrtp_4
*CAP
1 *2674:A1 7.04616e-05
2 *2675:A 0.000169271
3 *2665:A 1.85694e-05
4 *2670:A_N 0
5 *2835:A 0
6 *2660:D 0
7 *2659:A 0.000108019
8 *2664:C1 0.000301531
9 *2663:B2 7.28181e-06
10 *2656:A_N 7.77117e-06
11 *3291:Q 0.000421092
12 *795:109 0.000270928
13 *795:81 0.000217078
14 *795:62 0.000536511
15 *795:54 0.000622244
16 *795:29 0.000575664
17 *795:18 0.000114296
18 *795:16 0.000177864
19 *795:12 0.000551865
20 *2648:A1 *795:12 0.000164987
21 *2658:A *795:54 4.19981e-05
22 *2660:A_N *2664:C1 0.000134222
23 *2660:A_N *795:62 0
24 *2660:A_N *795:81 2.49909e-05
25 *2660:B_N *795:81 4.77757e-05
26 *2660:C *795:81 2.79137e-05
27 *2661:B1 *2659:A 3.06256e-05
28 *2661:B1 *795:81 4.28819e-05
29 *2664:A2 *795:62 4.18603e-06
30 *2664:B1 *795:54 2.98446e-05
31 *2664:B1 *795:62 2.01504e-05
32 *2665:B *795:109 1.61831e-05
33 *2665:C_N *795:18 0.000163204
34 *2665:C_N *795:109 7.23635e-05
35 *2670:C *795:12 4.44927e-05
36 *2670:C *795:16 9.71067e-05
37 *2671:A *2665:A 9.53428e-06
38 *2671:A *2675:A 5.51245e-05
39 *2671:A *795:109 6.3889e-05
40 *2673:B1 *2664:C1 0.000136884
41 *2674:A2 *795:12 3.09233e-05
42 *2674:A2 *795:16 0.00013521
43 *2675:C *2674:A1 5.68868e-05
44 *2676:A *795:29 7.81221e-05
45 *2677:A *2664:C1 4.66108e-05
46 *2677:A *795:62 0.000202828
47 *2677:B *2664:C1 1.70935e-05
48 *2835:D_N *795:62 0
49 *3289:CLK *2659:A 1.0555e-05
50 *3289:CLK *795:54 4.82919e-05
51 *3289:D *2674:A1 0
52 *3289:D *795:12 7.81221e-05
53 *3289:D *795:54 0.000115208
54 *3301:A *2664:C1 0
55 *11:29 *795:12 7.08931e-05
56 *11:43 *2663:B2 2.48591e-05
57 *157:18 *795:29 9.50342e-06
58 *157:18 *795:54 0.000162751
59 *157:27 *2663:B2 2.48591e-05
60 *157:40 *2674:A1 5.83121e-06
61 *158:6 *795:54 0.000160314
62 *163:18 *2656:A_N 4.82863e-05
63 *163:18 *795:18 0.000197264
64 *163:18 *795:109 9.13926e-05
65 *323:10 *795:62 5.83121e-06
66 *593:95 *2659:A 6.61068e-05
67 *793:16 *795:16 0
68 *793:16 *795:29 0.000158297
69 *793:16 *795:54 0.000132842
70 *793:18 *2656:A_N 4.99619e-05
71 *793:18 *795:18 3.66286e-05
72 *793:47 *2659:A 6.97358e-05
73 *793:47 *795:81 0.000121019
74 *794:33 *795:54 8.53113e-06
75 *794:46 *795:54 9.61414e-05
*RES
1 *3291:Q *795:12 10.755 
2 *795:12 *795:16 3.635 
3 *795:16 *795:18 1.83 
4 *795:18 *2656:A_N 2.05 
5 *795:18 *795:29 3.89 
6 *795:29 *2663:B2 3.84 
7 *795:29 *795:54 15.195 
8 *795:54 *795:62 6.685 
9 *795:62 *2664:C1 11.165 
10 *795:62 *795:81 2.52 
11 *795:81 *2659:A 8.255 
12 *795:81 *2660:D 1.6 
13 *795:54 *2835:A 1.6 
14 *795:18 *2670:A_N 1.6 
15 *795:16 *795:109 2.175 
16 *795:109 *2665:A 1.96 
17 *795:109 *2675:A 8.48 
18 *795:12 *2674:A1 4.755 
*END

*D_NET *796 0.00646642
*CONN
*I *2827:A I *D sky130_fd_sc_hd__xor2_2
*I *2651:A I *D sky130_fd_sc_hd__xnor2_1
*I *2841:A I *D sky130_fd_sc_hd__buf_2
*I *2880:A I *D sky130_fd_sc_hd__clkbuf_4
*I *3282:Q O *D sky130_fd_sc_hd__dfrtp_4
*CAP
1 *2827:A 7.31778e-05
2 *2651:A 4.26087e-05
3 *2841:A 0
4 *2880:A 9.20904e-05
5 *3282:Q 0
6 *796:30 0.00144959
7 *796:16 0.00203429
8 *796:4 0.00070736
9 *2827:A *2827:B 0.000118178
10 *796:16 *2640:A1 4.28396e-05
11 *796:16 *2827:B 0.000201508
12 *796:16 *797:10 4.18603e-06
13 *2640:A0 *796:30 2.91291e-05
14 *2651:B *2651:A 3.26889e-05
15 *2652:B1 *2651:A 0
16 *2652:B1 *796:16 8.57321e-05
17 *2654:A1 *796:16 4.82863e-05
18 *2817:A1 *796:30 0.000285889
19 *2817:A2 *2880:A 3.99501e-05
20 *2962:A0 *796:30 3.9385e-05
21 *2962:A1 *796:30 1.79882e-05
22 *3116:A *796:30 0.000109845
23 *315:22 *796:16 3.86529e-05
24 *315:39 *796:30 1.34503e-05
25 *316:22 *796:30 4.40325e-06
26 *325:101 *2880:A 0.000134124
27 *325:118 *2880:A 0.000122797
28 *328:20 *2880:A 0.000103515
29 *328:20 *796:30 4.203e-05
30 *328:133 *796:30 8.84166e-05
31 *351:18 *796:30 8.53113e-06
32 *351:95 *796:30 6.21553e-05
33 *412:6 *2880:A 8.6076e-05
34 *412:6 *796:30 0.000196669
35 *511:10 *796:30 3.4124e-05
36 *584:12 *796:16 4.39911e-06
37 *608:37 *796:30 7.23602e-05
38 *630:12 *796:16 0
39 *630:16 *796:16 0
40 *682:14 *796:16 0
*RES
1 *3282:Q *796:4 1.6 
2 *796:4 *796:16 13.855 
3 *796:16 *796:30 22.615 
4 *796:30 *2880:A 4.81 
5 *796:30 *2841:A 1.6 
6 *796:16 *2651:A 2.47 
7 *796:4 *2827:A 3.085 
*END

*D_NET *797 0.00228999
*CONN
*I *2640:A1 I *D sky130_fd_sc_hd__mux2_1
*I *2827:B I *D sky130_fd_sc_hd__xor2_2
*I *3283:Q O *D sky130_fd_sc_hd__dfrtp_1
*CAP
1 *2640:A1 0.000386178
2 *2827:B 0.000125603
3 *3283:Q 0.000264548
4 *797:10 0.000776329
5 *2827:A *2827:B 0.000118178
6 *3294:RESET_B *797:10 9.75063e-05
7 *592:102 *2640:A1 0.000273114
8 *630:16 *797:10 0
9 *682:14 *2640:A1 0
10 *682:14 *797:10 0
11 *796:16 *2640:A1 4.28396e-05
12 *796:16 *2827:B 0.000201508
13 *796:16 *797:10 4.18603e-06
*RES
1 *3283:Q *797:10 7.41 
2 *797:10 *2827:B 4.8125 
3 *797:10 *2640:A1 9.225 
*END

*D_NET *798 0.00637639
*CONN
*I *2719:A_N I *D sky130_fd_sc_hd__and4b_4
*I *2723:D I *D sky130_fd_sc_hd__and4b_4
*I *2694:D_N I *D sky130_fd_sc_hd__nor4b_2
*I *2702:A I *D sky130_fd_sc_hd__nor4b_2
*I *2680:A I *D sky130_fd_sc_hd__nor4_1
*I *2688:A I *D sky130_fd_sc_hd__buf_2
*I *2720:D I *D sky130_fd_sc_hd__and4bb_4
*I *3273:Q O *D sky130_fd_sc_hd__dfrtp_4
*CAP
1 *2719:A_N 0.000461921
2 *2723:D 0.000175768
3 *2694:D_N 0.000147392
4 *2702:A 1.58383e-05
5 *2680:A 0
6 *2688:A 0.000182038
7 *2720:D 4.99433e-05
8 *3273:Q 0
9 *798:69 0.000839023
10 *798:27 0.00035299
11 *798:21 0.000260547
12 *798:10 0.000586833
13 *798:8 0.000658568
14 *798:4 0.000249377
15 *2688:A *2680:C 5.05521e-05
16 *2702:A *2702:D_N 4.66108e-05
17 *2719:A_N *2719:B 2.56629e-05
18 *2719:A_N *2719:C 4.08199e-05
19 *2719:A_N *2719:D 4.99619e-05
20 *2719:A_N *801:93 2.68464e-05
21 *2720:D *2687:A 4.82863e-05
22 *2720:D *2720:A_N 0.00015896
23 *2720:D *801:14 0.00015896
24 *2723:D *2723:B 5.12969e-06
25 *2723:D *2723:C 3.11592e-05
26 *2723:D *801:93 0.000141094
27 *798:10 *2720:A_N 4.82919e-05
28 *798:10 *801:14 0.000148089
29 *798:27 *2680:C 6.90876e-05
30 *798:69 *2694:C 2.0474e-05
31 *798:69 *800:75 6.72196e-05
32 *798:69 *801:57 3.97748e-05
33 *798:69 *801:93 2.85764e-05
34 *2702:B *2702:A 1.08758e-05
35 *3042:A *2694:D_N 4.82863e-05
36 *3042:A *798:69 1.58858e-05
37 *3276:CLK *2719:A_N 3.24029e-05
38 *3276:RESET_B *2723:D 3.6227e-05
39 *3276:RESET_B *798:69 2.55219e-05
40 *172:10 *2688:A 0.000121437
41 *172:10 *798:27 0.000158953
42 *172:14 *798:21 5.13593e-05
43 *172:14 *798:27 9.32656e-05
44 *178:6 *2702:A 1.91597e-05
45 *211:14 *2719:A_N 2.75145e-05
46 *212:20 *798:21 0.000112123
47 *212:20 *798:27 0.000333496
48 *215:24 *2688:A 8.25258e-05
49 *421:12 *798:21 2.15594e-05
*RES
1 *3273:Q *798:4 1.6 
2 *798:4 *798:8 0.81 
3 *798:8 *798:10 7.35 
4 *798:10 *2720:D 3.43 
5 *798:10 *798:21 3.89 
6 *798:21 *798:27 7.07 
7 *798:27 *2688:A 5.17 
8 *798:27 *2680:A 1.6 
9 *798:21 *2702:A 4.05 
10 *798:8 *2694:D_N 7.94 
11 *798:4 *798:69 5.54 
12 *798:69 *2723:D 7.125 
13 *798:69 *2719:A_N 10.05 
*END

*D_NET *799 0.00899832
*CONN
*I *2719:B I *D sky130_fd_sc_hd__and4b_4
*I *2694:A I *D sky130_fd_sc_hd__nor4b_2
*I *2686:A I *D sky130_fd_sc_hd__buf_2
*I *2720:A_N I *D sky130_fd_sc_hd__and4bb_4
*I *2726:C I *D sky130_fd_sc_hd__and4b_4
*I *2680:B I *D sky130_fd_sc_hd__nor4_1
*I *2723:A_N I *D sky130_fd_sc_hd__and4b_4
*I *3274:Q O *D sky130_fd_sc_hd__dfrtp_4
*CAP
1 *2719:B 0.000141122
2 *2694:A 0
3 *2686:A 3.30244e-05
4 *2720:A_N 0.000169915
5 *2726:C 8.69829e-05
6 *2680:B 5.50945e-05
7 *2723:A_N 3.14574e-05
8 *3274:Q 0.000601924
9 *799:53 0.000238714
10 *799:51 0.000544743
11 *799:45 0.00107652
12 *799:20 0.000999146
13 *799:14 0.000281529
14 *799:12 0.000822186
15 *2686:A *801:6 8.65961e-05
16 *2719:B *2719:C 5.2446e-05
17 *2720:A_N *2720:B_N 0
18 *799:20 *2694:B 0.000175016
19 *799:45 *800:6 0.000577137
20 *799:45 *800:19 3.26889e-05
21 *799:45 *800:48 4.82863e-05
22 *799:45 *801:14 3.09233e-05
23 *799:51 *2702:D_N 0.000337163
24 *799:51 *801:6 8.34281e-06
25 *2719:A_N *2719:B 2.56629e-05
26 *2720:D *2720:A_N 0.00015896
27 *2726:B *2726:C 4.66108e-05
28 *2726:D *2726:C 2.16917e-05
29 *3042:A *2723:A_N 9.30717e-05
30 *3042:A *799:20 0.000265504
31 *3047:A *799:45 0
32 *3273:RESET_B *2719:B 0.000113797
33 *3274:RESET_B *799:12 0
34 *3276:CLK *2719:B 4.40519e-06
35 *3276:RESET_B *799:45 2.54616e-05
36 *172:10 *2680:B 2.16389e-05
37 *172:14 *2680:B 8.53113e-06
38 *172:14 *2720:A_N 0.000132842
39 *172:14 *799:53 0.000287337
40 *187:64 *799:53 0
41 *194:8 *2680:B 0.000115464
42 *194:8 *799:53 0.00021665
43 *211:14 *799:12 0
44 *212:20 *2680:B 0
45 *421:12 *799:45 3.99039e-05
46 *595:55 *2719:B 0
47 *595:55 *799:12 0
48 *595:65 *2719:B 0.000105841
49 *607:12 *2719:B 0.000136891
50 *607:12 *2723:A_N 9.30717e-05
51 *607:12 *799:20 0.000605738
52 *678:12 *2720:A_N 0
53 *798:10 *2720:A_N 4.82919e-05
*RES
1 *3274:Q *799:12 14.72 
2 *799:12 *799:14 1.14 
3 *799:14 *799:20 9.44 
4 *799:20 *2723:A_N 4.725 
5 *799:20 *799:45 17.955 
6 *799:45 *799:51 5.825 
7 *799:51 *799:53 3.42 
8 *799:53 *2680:B 4.98 
9 *799:53 *2726:C 4.755 
10 *799:51 *2720:A_N 7.065 
11 *799:45 *2686:A 2.395 
12 *799:14 *2694:A 1.6 
13 *799:12 *2719:B 10.2725 
*END

*D_NET *800 0.00710836
*CONN
*I *2694:C I *D sky130_fd_sc_hd__nor4b_2
*I *2719:D I *D sky130_fd_sc_hd__and4b_4
*I *2723:C I *D sky130_fd_sc_hd__and4b_4
*I *2720:B_N I *D sky130_fd_sc_hd__and4bb_4
*I *2679:A I *D sky130_fd_sc_hd__buf_2
*I *2691:C I *D sky130_fd_sc_hd__and4bb_4
*I *2726:A_N I *D sky130_fd_sc_hd__and4b_4
*I *3275:Q O *D sky130_fd_sc_hd__dfrtp_4
*CAP
1 *2694:C 0.000147053
2 *2719:D 0.000452487
3 *2723:C 0.00027377
4 *2720:B_N 7.25155e-05
5 *2679:A 0
6 *2691:C 8.35371e-05
7 *2726:A_N 0
8 *3275:Q 0
9 *800:75 0.000935141
10 *800:48 0.000628318
11 *800:23 0.000146698
12 *800:19 0.000649725
13 *800:6 0.000739572
14 *800:4 0.00024447
15 *2694:C *2694:B 1.01155e-05
16 *2723:C *2680:C 5.09607e-05
17 *2723:C *801:93 1.9872e-05
18 *800:75 *801:43 4.28819e-05
19 *800:75 *801:93 2.97593e-05
20 *2691:A_N *2691:C 0.000158965
21 *2719:A_N *2719:D 4.99619e-05
22 *2720:A_N *2720:B_N 0
23 *2723:D *2723:C 3.11592e-05
24 *2726:D *800:19 8.30885e-05
25 *3037:A *800:19 4.43871e-06
26 *3042:A *2694:C 0.000271029
27 *3042:A *800:75 6.74266e-05
28 *3273:RESET_B *2719:D 6.28687e-05
29 *3275:D *2719:D 6.36578e-05
30 *3276:RESET_B *800:75 8.57469e-05
31 *3464:A *800:6 3.72916e-05
32 *3464:A *800:19 1.54874e-05
33 *171:23 *800:19 0.000122331
34 *178:8 *2691:C 5.83121e-06
35 *178:8 *800:23 0.000126584
36 *178:10 *2691:C 5.16479e-05
37 *178:29 *2691:C 1.08758e-05
38 *187:12 *2691:C 4.66826e-05
39 *187:64 *2691:C 0.000102884
40 *187:64 *2720:B_N 5.23362e-05
41 *187:64 *800:19 0.00013521
42 *187:64 *800:23 0.00013427
43 *595:65 *2719:D 1.83756e-05
44 *678:12 *2720:B_N 5.12859e-05
45 *678:12 *800:19 4.62396e-05
46 *798:69 *2694:C 2.0474e-05
47 *798:69 *800:75 6.72196e-05
48 *799:45 *800:6 0.000577137
49 *799:45 *800:19 3.26889e-05
50 *799:45 *800:48 4.82863e-05
*RES
1 *3275:Q *800:4 1.6 
2 *800:4 *800:6 5.625 
3 *800:6 *2726:A_N 1.6 
4 *800:6 *800:19 9.185 
5 *800:19 *800:23 4.175 
6 *800:23 *2691:C 4.12 
7 *800:23 *2679:A 1.6 
8 *800:19 *2720:B_N 5.235 
9 *800:4 *800:48 2.45 
10 *800:48 *2723:C 7.635 
11 *800:48 *800:75 9.355 
12 *800:75 *2719:D 13.33 
13 *800:75 *2694:C 6.96 
*END

*D_NET *801 0.00839921
*CONN
*I *2723:B I *D sky130_fd_sc_hd__and4b_4
*I *2680:C I *D sky130_fd_sc_hd__nor4_1
*I *2694:B I *D sky130_fd_sc_hd__nor4b_2
*I *2719:C I *D sky130_fd_sc_hd__and4b_4
*I *2702:D_N I *D sky130_fd_sc_hd__nor4b_2
*I *2720:C I *D sky130_fd_sc_hd__and4bb_4
*I *2687:A I *D sky130_fd_sc_hd__buf_2
*I *3276:Q O *D sky130_fd_sc_hd__dfrtp_4
*CAP
1 *2723:B 1.55146e-05
2 *2680:C 0.000393279
3 *2694:B 9.77105e-05
4 *2719:C 0.000254958
5 *2702:D_N 0.000201737
6 *2720:C 0
7 *2687:A 0.000156088
8 *3276:Q 0
9 *801:93 0.000668283
10 *801:57 0.000626194
11 *801:43 0.000899475
12 *801:14 0.000371471
13 *801:6 0.000506906
14 *801:4 0.000456246
15 *2686:A *801:6 8.65961e-05
16 *2688:A *2680:C 5.05521e-05
17 *2694:C *2694:B 1.01155e-05
18 *2702:A *2702:D_N 4.66108e-05
19 *2702:B *2702:D_N 2.16833e-05
20 *2702:C *2702:D_N 0.000134429
21 *2719:A_N *2719:C 4.08199e-05
22 *2719:A_N *801:93 2.68464e-05
23 *2719:B *2719:C 5.2446e-05
24 *2720:D *2687:A 4.82863e-05
25 *2720:D *801:14 0.00015896
26 *2723:C *2680:C 5.09607e-05
27 *2723:C *801:93 1.9872e-05
28 *2723:D *2723:B 5.12969e-06
29 *2723:D *801:93 0.000141094
30 *3042:A *2694:B 0.000293301
31 *3042:A *801:93 1.34361e-05
32 *3047:A *801:14 0
33 *3276:CLK *2719:C 2.49909e-05
34 *3276:D *801:93 0.000291358
35 *3276:RESET_B *801:57 4.08276e-05
36 *178:6 *2702:D_N 3.79854e-05
37 *178:6 *801:6 4.82863e-05
38 *178:8 *2702:D_N 5.2711e-05
39 *212:20 *2687:A 0.000159684
40 *212:20 *801:14 0.000183819
41 *215:8 *801:93 9.53428e-06
42 *215:24 *2680:C 0.00061563
43 *215:24 *801:93 8.86782e-05
44 *421:12 *801:14 8.70923e-05
45 *798:10 *801:14 0.000148089
46 *798:27 *2680:C 6.90876e-05
47 *798:69 *801:57 3.97748e-05
48 *798:69 *801:93 2.85764e-05
49 *799:20 *2694:B 0.000175016
50 *799:45 *801:14 3.09233e-05
51 *799:51 *2702:D_N 0.000337163
52 *799:51 *801:6 8.34281e-06
53 *800:75 *801:43 4.28819e-05
54 *800:75 *801:93 2.97593e-05
*RES
1 *3276:Q *801:4 1.6 
2 *801:4 *801:6 1.83 
3 *801:6 *801:14 8.755 
4 *801:14 *2687:A 4.93 
5 *801:14 *2720:C 1.6 
6 *801:6 *2702:D_N 6.82 
7 *801:4 *801:43 5.28 
8 *801:43 *801:57 3.9207 
9 *801:57 *2719:C 6.735 
10 *801:57 *2694:B 7.275 
11 *801:43 *801:93 10.915 
12 *801:93 *2680:C 11.365 
13 *801:93 *2723:B 1.96 
*END

*D_NET *802 0.00167346
*CONN
*I *2699:B I *D sky130_fd_sc_hd__and2b_1
*I *2681:B I *D sky130_fd_sc_hd__nor2_1
*I *2684:A I *D sky130_fd_sc_hd__nor2b_2
*I *2739:B I *D sky130_fd_sc_hd__and2_2
*I *3277:Q O *D sky130_fd_sc_hd__dfrtp_1
*CAP
1 *2699:B 9.46834e-05
2 *2681:B 8.47581e-06
3 *2684:A 0
4 *2739:B 2.95435e-05
5 *3277:Q 8.45552e-05
6 *802:18 0.000169421
7 *802:14 0.000173495
8 *802:12 0.000204381
9 *2681:B *2681:A 5.4155e-06
10 *2739:B *2739:A 8.8266e-05
11 *802:12 *803:8 1.91597e-05
12 *802:12 *803:10 2.49909e-05
13 *802:14 *803:10 2.49909e-05
14 *802:18 *2739:A 0.000111285
15 *802:18 *803:10 2.05056e-05
16 *2984:S *802:12 9.50342e-06
17 *2987:S *2699:B 0.000183745
18 *2987:S *802:12 9.54399e-05
19 *173:12 *2699:B 7.47284e-05
20 *176:8 *2739:B 8.96017e-05
21 *176:8 *802:18 1.16578e-05
22 *323:62 *802:12 5.20968e-05
23 *419:14 *2699:B 0
24 *774:92 *2699:B 5.39718e-05
25 *774:92 *2739:B 4.35432e-05
*RES
1 *3277:Q *802:12 7.52 
2 *802:12 *802:14 0.45 
3 *802:14 *802:18 2.535 
4 *802:18 *2739:B 3.085 
5 *802:18 *2684:A 1.6 
6 *802:14 *2681:B 1.96 
7 *802:12 *2699:B 8.195 
*END

*D_NET *803 0.0012149
*CONN
*I *2699:A_N I *D sky130_fd_sc_hd__and2b_1
*I *2681:A I *D sky130_fd_sc_hd__nor2_1
*I *2684:B_N I *D sky130_fd_sc_hd__nor2b_2
*I *2739:A I *D sky130_fd_sc_hd__and2_2
*I *3278:Q O *D sky130_fd_sc_hd__dfrtp_1
*CAP
1 *2699:A_N 3.42061e-05
2 *2681:A 1.66402e-05
3 *2684:B_N 0
4 *2739:A 4.43785e-05
5 *3278:Q 0
6 *803:10 0.00011372
7 *803:8 0.000143323
8 *803:4 9.15472e-05
9 *2681:B *2681:A 5.4155e-06
10 *2739:B *2739:A 8.8266e-05
11 *2987:S *2699:A_N 0.000120186
12 *323:62 *2699:A_N 6.74079e-05
13 *774:92 *2739:A 0.000277223
14 *774:92 *803:8 0
15 *774:92 *803:10 1.16578e-05
16 *802:12 *803:8 1.91597e-05
17 *802:12 *803:10 2.49909e-05
18 *802:14 *803:10 2.49909e-05
19 *802:18 *2739:A 0.000111285
20 *802:18 *803:10 2.05056e-05
*RES
1 *3278:Q *803:4 1.6 
2 *803:4 *803:8 1.065 
3 *803:8 *803:10 1.14 
4 *803:10 *2739:A 4.12 
5 *803:10 *2684:B_N 1.6 
6 *803:8 *2681:A 1.96 
7 *803:4 *2699:A_N 6.98 
*END

*D_NET *804 0.000787557
*CONN
*I *3361:A I *D sky130_fd_sc_hd__dlygate4sd3_1
*I *3271:Q O *D sky130_fd_sc_hd__dfxtp_1
*CAP
1 *3361:A 0.000115319
2 *3271:Q 0.000115319
3 *2634:A *3361:A 8.65905e-05
4 *2818:A1 *3361:A 4.80285e-05
5 *3271:CLK *3361:A 5.88217e-05
6 *592:24 *3361:A 0.000101523
7 *619:62 *3361:A 3.4222e-05
8 *737:46 *3361:A 0.000227734
*RES
1 *3271:Q *3361:A 11.415 
*END

*D_NET *805 0.0018968
*CONN
*I *3351:A I *D sky130_fd_sc_hd__dlygate4sd3_1
*I *3270:Q O *D sky130_fd_sc_hd__dfxtp_1
*CAP
1 *3351:A 0.00044249
2 *3270:Q 0.00044249
3 *2633:S *3351:A 4.58101e-05
4 *2634:A *3351:A 0.000355115
5 *2635:S *3351:A 6.67193e-05
6 *2819:B1 *3351:A 0.000157968
7 *3281:D *3351:A 0.000272984
8 *211:47 *3351:A 2.15594e-05
9 *316:22 *3351:A 6.28843e-05
10 *737:46 *3351:A 2.87797e-05
*RES
1 *3270:Q *3351:A 16.935 
*END

*D_NET *806 0.00522797
*CONN
*I *2805:A1 I *D sky130_fd_sc_hd__a22o_1
*I *3364:A I *D sky130_fd_sc_hd__dlygate4sd3_1
*I *3251:Q O *D sky130_fd_sc_hd__dfxtp_1
*CAP
1 *2805:A1 0.00131004
2 *3364:A 0
3 *3251:Q 0.000344103
4 *806:10 0.00165414
5 *2805:A1 *2722:A1 0.000160133
6 *2805:A1 *2722:B2 0.000300337
7 *806:10 *2722:B2 0.000199411
8 *2585:A0 *806:10 2.49909e-05
9 *2585:A1 *806:10 7.99594e-05
10 *2585:S *806:10 0.00023701
11 *2622:A *2805:A1 7.25495e-05
12 *2624:A *2805:A1 0.000142421
13 *2802:B1 *2805:A1 0.000521885
14 *2805:A2 *2805:A1 1.56428e-05
15 *2805:B1 *2805:A1 3.97604e-06
16 *3251:D *806:10 1.83756e-05
17 *197:134 *2805:A1 0
18 *568:6 *2805:A1 0.000142992
*RES
1 *3251:Q *806:10 8.635 
2 *806:10 *3364:A 1.6 
3 *806:10 *2805:A1 24.935 
*END

*D_NET *807 0.00284248
*CONN
*I *2722:A1 I *D sky130_fd_sc_hd__a221o_1
*I *3459:A I *D sky130_fd_sc_hd__dlygate4sd3_1
*I *3250:Q O *D sky130_fd_sc_hd__dfxtp_1
*CAP
1 *2722:A1 0.00035306
2 *3459:A 0.000252086
3 *3250:Q 0.000207865
4 *807:6 0.00081301
5 *2722:A1 *2722:B2 9.80943e-06
6 *2583:A1 *3459:A 0.000142026
7 *2585:S *2722:A1 0
8 *2585:S *3459:A 4.9968e-05
9 *2591:A *2722:A1 0.000206373
10 *2722:B1 *2722:A1 2.19028e-05
11 *2722:C1 *2722:A1 0.000109553
12 *2805:A1 *2722:A1 0.000160133
13 *3252:D *3459:A 5.72091e-05
14 *197:134 *2722:A1 2.99731e-05
15 *197:134 *3459:A 0
16 *500:31 *2722:A1 0.000121643
17 *500:31 *807:6 0.000307867
18 *511:79 *3459:A 0
19 *511:96 *3459:A 0
*RES
1 *3250:Q *807:6 4.465 
2 *807:6 *3459:A 10.745 
3 *807:6 *2722:A1 12.8 
*END

*D_NET *808 0.00105289
*CONN
*I *3404:A I *D sky130_fd_sc_hd__dlygate4sd3_1
*I *2801:B2 I *D sky130_fd_sc_hd__a22o_1
*I *3249:Q O *D sky130_fd_sc_hd__dfxtp_1
*CAP
1 *3404:A 0.00013881
2 *2801:B2 5.37895e-05
3 *3249:Q 6.35239e-05
4 *808:6 0.000256124
5 *2580:A0 *808:6 4.66108e-05
6 *2801:B1 *3404:A 5.11067e-05
7 *3249:CLK *808:6 3.33763e-05
8 *358:57 *2801:B2 0.000201237
9 *598:29 *2801:B2 5.20249e-05
10 *598:44 *2801:B2 0.000156284
*RES
1 *3249:Q *808:6 2.74 
2 *808:6 *2801:B2 8 
3 *808:6 *3404:A 3.79 
*END

*D_NET *809 0.00130113
*CONN
*I *3406:A I *D sky130_fd_sc_hd__dlygate4sd3_1
*I *2727:B2 I *D sky130_fd_sc_hd__a22o_1
*I *3248:Q O *D sky130_fd_sc_hd__dfxtp_1
*CAP
1 *3406:A 0
2 *2727:B2 0.000159462
3 *3248:Q 0.000240242
4 *809:12 0.000399703
5 *2727:B2 *2725:B2 1.89685e-05
6 *2727:B2 *2727:A1 2.30657e-05
7 *2727:B2 *871:10 1.56261e-05
8 *2727:B2 *927:10 6.28843e-05
9 *2579:A *2727:B2 4.23417e-05
10 *2598:A1 *2727:B2 0
11 *2598:A1 *809:12 5.67804e-05
12 *2923:B *2727:B2 7.81954e-05
13 *3264:D *2727:B2 0.000114524
14 *3473:A *809:12 8.9336e-05
15 *350:120 *2727:B2 0
*RES
1 *3248:Q *809:12 9.755 
2 *809:12 *2727:B2 9.785 
3 *809:12 *3406:A 1.6 
*END

*D_NET *810 0.00116998
*CONN
*I *2803:A1 I *D sky130_fd_sc_hd__a22o_1
*I *3444:A I *D sky130_fd_sc_hd__dlygate4sd3_1
*I *3247:Q O *D sky130_fd_sc_hd__dfxtp_1
*CAP
1 *2803:A1 0.000256119
2 *3444:A 0
3 *3247:Q 0.000207295
4 *810:8 0.000463415
5 *2803:A1 *2725:A1 4.60584e-05
6 *2803:A1 *3334:A 0
7 *2803:A1 *3410:A 0.000160641
8 *2578:S *2803:A1 0
9 *2728:A *2803:A1 5.53249e-06
10 *553:10 *2803:A1 3.09233e-05
*RES
1 *3247:Q *810:8 4.48 
2 *810:8 *3444:A 1.6 
3 *810:8 *2803:A1 10.265 
*END

*D_NET *811 0.00259554
*CONN
*I *3334:A I *D sky130_fd_sc_hd__dlygate4sd3_1
*I *2725:A1 I *D sky130_fd_sc_hd__a22o_1
*I *3246:Q O *D sky130_fd_sc_hd__dfxtp_1
*CAP
1 *3334:A 0.000236507
2 *2725:A1 0.000269422
3 *3246:Q 0.000423981
4 *811:10 0.000929911
5 *2725:A1 *2725:B2 8.59878e-05
6 *2725:A1 *3410:A 8.65961e-05
7 *3334:A *2803:B2 0.000114753
8 *3334:A *926:8 1.1561e-05
9 *811:10 *926:8 5.20968e-05
10 *2599:A *811:10 9.2741e-05
11 *2728:A *3334:A 0
12 *2803:A1 *2725:A1 4.60584e-05
13 *2803:A1 *3334:A 0
14 *3256:D *811:10 5.36384e-06
15 *208:58 *2725:A1 9.53428e-06
16 *358:36 *3334:A 0
17 *358:36 *811:10 1.34594e-05
18 *553:10 *2725:A1 0.000217569
19 *553:10 *811:10 0
*RES
1 *3246:Q *811:10 8.97 
2 *811:10 *2725:A1 9.27 
3 *811:10 *3334:A 8.04 
*END

*D_NET *812 0.00152175
*CONN
*I *2806:A1 I *D sky130_fd_sc_hd__a22o_1
*I *3441:A I *D sky130_fd_sc_hd__dlygate4sd3_1
*I *3245:Q O *D sky130_fd_sc_hd__dfxtp_1
*CAP
1 *2806:A1 6.34342e-05
2 *3441:A 0
3 *3245:Q 0.000289579
4 *812:8 0.000353014
5 *2806:A1 *2806:B2 5.42004e-05
6 *812:8 *2806:B2 1.31297e-05
7 *2570:A0 *812:8 1.03423e-05
8 *2570:A1 *812:8 5.97201e-05
9 *2571:A *812:8 8.8266e-05
10 *2806:B1 *2806:A1 3.00381e-05
11 *500:54 *812:8 3.31348e-05
12 *535:14 *2806:A1 0.000178082
13 *535:14 *812:8 0.000321088
14 *591:92 *812:8 2.77183e-05
*RES
1 *3245:Q *812:8 7.93 
2 *812:8 *3441:A 1.6 
3 *812:8 *2806:A1 3.79 
*END

*D_NET *813 0.00362919
*CONN
*I *2724:A1 I *D sky130_fd_sc_hd__a22o_1
*I *3345:A I *D sky130_fd_sc_hd__dlygate4sd3_1
*I *3244:Q O *D sky130_fd_sc_hd__dfxtp_1
*CAP
1 *2724:A1 0.000753778
2 *3345:A 0.000136059
3 *3244:Q 0.00022057
4 *813:10 0.00111041
5 *2724:A1 *3439:A 8.02756e-05
6 *2560:A0 *2724:A1 0.000122797
7 *2560:A1 *2724:A1 4.47209e-05
8 *2560:S *2724:A1 1.69467e-05
9 *2568:A0 *2724:A1 2.05056e-05
10 *2568:A0 *813:10 0.000200615
11 *2568:A1 *3345:A 0
12 *2568:A1 *813:10 0.00012657
13 *2571:A *3345:A 0
14 *2577:B *2724:A1 0
15 *2614:A *2724:A1 1.61831e-05
16 *2724:B1 *2724:A1 0.000349598
17 *511:55 *2724:A1 0.000107384
18 *511:66 *3345:A 0.000296088
19 *591:92 *3345:A 2.66935e-05
*RES
1 *3244:Q *813:10 5.875 
2 *813:10 *3345:A 9.02 
3 *813:10 *2724:A1 11.725 
*END

*D_NET *814 0.00316659
*CONN
*I *3347:A I *D sky130_fd_sc_hd__dlygate4sd3_1
*I *2807:A1 I *D sky130_fd_sc_hd__a211o_1
*I *3243:Q O *D sky130_fd_sc_hd__dfxtp_1
*CAP
1 *3347:A 0.000351688
2 *2807:A1 0.000494396
3 *3243:Q 3.67885e-05
4 *814:8 0.000882872
5 *2565:A1 *3347:A 2.30258e-05
6 *2580:S *2807:A1 0.000452737
7 *2581:A *2807:A1 2.937e-05
8 *2581:A *3347:A 0
9 *2807:B1 *2807:A1 5.47597e-05
10 *2807:C1 *2807:A1 0.000308724
11 *2808:A3 *2807:A1 0.000167995
12 *3243:CLK *2807:A1 0.000263278
13 *3243:CLK *814:8 2.64607e-05
14 *3249:D *3347:A 5.14627e-05
15 *197:134 *2807:A1 0
16 *197:134 *3347:A 0
17 *500:41 *2807:A1 0
18 *500:41 *3347:A 0
19 *598:6 *2807:A1 2.30292e-05
*RES
1 *3243:Q *814:8 4.05 
2 *814:8 *2807:A1 15.57 
3 *814:8 *3347:A 9.435 
*END

*D_NET *815 0.00226423
*CONN
*I *2722:B2 I *D sky130_fd_sc_hd__a221o_1
*I *3338:A I *D sky130_fd_sc_hd__dlygate4sd3_1
*I *3242:Q O *D sky130_fd_sc_hd__dfxtp_1
*CAP
1 *2722:B2 0.000398017
2 *3338:A 5.64916e-05
3 *3242:Q 0.000326183
4 *815:8 0.000780692
5 *2563:A1 *815:8 6.81824e-05
6 *2586:A *815:8 4.77807e-05
7 *2722:A1 *2722:B2 9.80943e-06
8 *2722:C1 *2722:B2 7.73266e-05
9 *2805:A1 *2722:B2 0.000300337
10 *500:37 *2722:B2 0
11 *806:10 *2722:B2 0.000199411
*RES
1 *3242:Q *815:8 6.55 
2 *815:8 *3338:A 2.755 
3 *815:8 *2722:B2 12.8337 
*END

*D_NET *816 0.00130075
*CONN
*I *2806:B2 I *D sky130_fd_sc_hd__a22o_1
*I *3439:A I *D sky130_fd_sc_hd__dlygate4sd3_1
*I *3241:Q O *D sky130_fd_sc_hd__dfxtp_1
*CAP
1 *2806:B2 0.000267388
2 *3439:A 4.06605e-05
3 *3241:Q 8.46344e-05
4 *816:8 0.000392683
5 *2560:S *3439:A 0.000199136
6 *2575:A0 *2806:B2 1.67205e-05
7 *2575:A0 *816:8 1.42229e-05
8 *2724:A1 *3439:A 8.02756e-05
9 *2724:B1 *2806:B2 0
10 *2806:A1 *2806:B2 5.42004e-05
11 *197:134 *2806:B2 0
12 *358:36 *2806:B2 0
13 *500:54 *2806:B2 4.46271e-05
14 *511:55 *816:8 9.30717e-05
15 *812:8 *2806:B2 1.31297e-05
*RES
1 *3241:Q *816:8 5.235 
2 *816:8 *3439:A 5.43 
3 *816:8 *2806:B2 8.16 
*END

*D_NET *817 0.00216888
*CONN
*I *2724:B2 I *D sky130_fd_sc_hd__a22o_1
*I *3442:A I *D sky130_fd_sc_hd__dlygate4sd3_1
*I *3240:Q O *D sky130_fd_sc_hd__dfxtp_1
*CAP
1 *2724:B2 0.000198466
2 *3442:A 0
3 *3240:Q 0.000654656
4 *817:10 0.000853122
5 *2557:A *817:10 0
6 *2557:B *817:10 0.000119631
7 *2614:A *2724:B2 4.82863e-05
8 *2724:B1 *2724:B2 4.82863e-05
9 *2728:A *817:10 7.76237e-05
10 *3262:D *2724:B2 0.000139238
11 *3262:D *817:10 9.50342e-06
12 *202:115 *2724:B2 3.57804e-06
13 *358:36 *2724:B2 0
14 *358:36 *817:10 0
15 *591:10 *2724:B2 1.64907e-05
*RES
1 *3240:Q *817:10 13.35 
2 *817:10 *3442:A 3.6 
3 *817:10 *2724:B2 7.35 
*END

*D_NET *818 0.00302593
*CONN
*I *3387:A I *D sky130_fd_sc_hd__dlygate4sd3_1
*I *2780:A I *D sky130_fd_sc_hd__and3_1
*I *3239:Q O *D sky130_fd_sc_hd__dfxtp_1
*CAP
1 *3387:A 4.49036e-05
2 *2780:A 0.000427223
3 *3239:Q 0.000146027
4 *818:8 0.000618154
5 *818:8 *2753:A 0.000191335
6 *2781:B *2780:A 6.77501e-05
7 *2783:B *2780:A 3.25068e-05
8 *2783:C *2780:A 6.24604e-05
9 *2953:B *2780:A 0.000101216
10 *3238:CLK *2780:A 0.000278727
11 *3238:D *2780:A 0.000126084
12 *3314:A *2780:A 0.000392603
13 *3314:A *3387:A 0.000104362
14 *211:37 *2780:A 0.000158072
15 *407:14 *3387:A 1.92979e-05
16 *415:52 *2780:A 0.000206466
17 *415:52 *3387:A 4.87478e-05
*RES
1 *3239:Q *818:8 5.43 
2 *818:8 *2780:A 14.76 
3 *818:8 *3387:A 4.98 
*END

*D_NET *819 0.00223217
*CONN
*I *3383:A I *D sky130_fd_sc_hd__dlygate4sd3_1
*I *2749:A I *D sky130_fd_sc_hd__and3_1
*I *3238:Q O *D sky130_fd_sc_hd__dfxtp_1
*CAP
1 *3383:A 0.00042427
2 *2749:A 0.00014632
3 *3238:Q 3.16606e-05
4 *819:6 0.000602251
5 *2551:A1 *3383:A 0.000155497
6 *2551:S *3383:A 4.01749e-05
7 *2552:A *3383:A 0.000116624
8 *2749:B *2749:A 3.90873e-06
9 *2749:C *2749:A 5.28255e-05
10 *2989:A *3383:A 3.44672e-05
11 *3133:A0 *3383:A 0
12 *3238:CLK *3383:A 0
13 *3238:D *2749:A 5.17934e-05
14 *3238:D *3383:A 7.06865e-05
15 *3238:D *819:6 3.77879e-05
16 *3465:A *3383:A 0.000234358
17 *361:36 *3383:A 0.000229541
18 *511:150 *3383:A 0
*RES
1 *3238:Q *819:6 2.05 
2 *819:6 *2749:A 3.445 
3 *819:6 *3383:A 14.285 
*END

*D_NET *820 0.00137589
*CONN
*I *3377:A I *D sky130_fd_sc_hd__dlygate4sd3_1
*I *2787:A I *D sky130_fd_sc_hd__and3_1
*I *3237:Q O *D sky130_fd_sc_hd__dfxtp_1
*CAP
1 *3377:A 0.000205339
2 *2787:A 0.000168473
3 *3237:Q 0
4 *820:4 0.000373812
5 *2548:A1 *2787:A 7.23602e-05
6 *176:44 *2787:A 0.000192456
7 *176:44 *3377:A 8.49205e-05
8 *192:10 *2787:A 4.99619e-05
9 *212:20 *2787:A 0.0001846
10 *619:39 *2787:A 4.39656e-05
*RES
1 *3237:Q *820:4 1.6 
2 *820:4 *2787:A 11 
3 *820:4 *3377:A 4.48 
*END

*D_NET *821 0.000872816
*CONN
*I *3419:A I *D sky130_fd_sc_hd__dlygate4sd3_1
*I *2709:A1 I *D sky130_fd_sc_hd__a31o_1
*I *3236:Q O *D sky130_fd_sc_hd__dfxtp_1
*CAP
1 *3419:A 0.000203667
2 *2709:A1 9.31693e-05
3 *3236:Q 0
4 *821:4 0.000296836
5 *2708:B *3419:A 6.30072e-05
6 *2709:A3 *2709:A1 5.83121e-06
7 *2709:B1 *2709:A1 4.90227e-05
8 *2709:B1 *3419:A 4.66345e-05
9 *715:30 *3419:A 0.000114649
*RES
1 *3236:Q *821:4 1.6 
2 *821:4 *2709:A1 3.355 
3 *821:4 *3419:A 8.81 
*END

*D_NET *822 0.00378155
*CONN
*I *2776:A1 I *D sky130_fd_sc_hd__a22o_1
*I *3323:A I *D sky130_fd_sc_hd__dlygate4sd3_1
*I *3235:Q O *D sky130_fd_sc_hd__dfxtp_1
*CAP
1 *2776:A1 0.000626849
2 *3323:A 0
3 *3235:Q 0.000301738
4 *822:12 0.000928587
5 *2776:A1 *2714:B2 6.38806e-05
6 *2776:A1 *2776:B2 4.82919e-05
7 *2776:A1 *835:8 0.000129465
8 *3102:A0 *2776:A1 0.000102324
9 *3102:A1 *2776:A1 6.97168e-05
10 *3103:A *2776:A1 8.36629e-05
11 *3105:A *2776:A1 0.000343076
12 *3130:A0 *2776:A1 2.97004e-06
13 *3224:D *2776:A1 4.66108e-05
14 *3225:D *2776:A1 4.75991e-05
15 *197:128 *2776:A1 0
16 *442:16 *2776:A1 0
17 *518:10 *2776:A1 0.000504484
18 *601:10 *822:12 0.000135002
19 *601:99 *822:12 0.00034729
*RES
1 *3235:Q *822:12 10.445 
2 *822:12 *3323:A 1.6 
3 *822:12 *2776:A1 20.3 
*END

*D_NET *823 0.00324148
*CONN
*I *2714:A1 I *D sky130_fd_sc_hd__a22o_1
*I *3355:A I *D sky130_fd_sc_hd__dlygate4sd3_1
*I *3234:Q O *D sky130_fd_sc_hd__dfxtp_1
*CAP
1 *2714:A1 0.000703348
2 *3355:A 3.63992e-05
3 *3234:Q 0.000432321
4 *823:14 0.00117207
5 *2714:A1 *834:8 4.29258e-05
6 *3104:A0 *2714:A1 8.64599e-05
7 *3104:A1 *2714:A1 0.000194921
8 *3104:S *2714:A1 0.000135538
9 *3105:A *2714:A1 0.00019608
10 *3128:S *823:14 3.1562e-06
11 *3130:A1 *823:14 6.53916e-05
12 *3130:S *823:14 2.96426e-05
13 *3225:D *2714:A1 4.78698e-06
14 *202:87 *2714:A1 6.52411e-05
15 *601:12 *823:14 0
16 *601:88 *2714:A1 1.73351e-05
17 *601:99 *2714:A1 1.07285e-05
18 *601:99 *823:14 4.51414e-05
*RES
1 *3234:Q *823:14 10.82 
2 *823:14 *3355:A 2.215 
3 *823:14 *2714:A1 13.285 
*END

*D_NET *824 0.00142469
*CONN
*I *3378:A I *D sky130_fd_sc_hd__dlygate4sd3_1
*I *2789:A I *D sky130_fd_sc_hd__and3_1
*I *3233:Q O *D sky130_fd_sc_hd__dfxtp_1
*CAP
1 *3378:A 0.000113513
2 *2789:A 7.85165e-05
3 *3233:Q 9.14337e-05
4 *824:10 0.000283464
5 *824:10 *2751:A 5.19573e-05
6 *2751:B *824:10 7.23533e-05
7 *2751:C *824:10 2.97386e-05
8 *2788:A *2789:A 0.000156762
9 *2788:A *3378:A 0.000256975
10 *2788:D *3378:A 4.99619e-05
11 *2789:C *2789:A 2.48477e-05
12 *187:64 *824:10 7.30547e-05
13 *193:131 *2789:A 2.68464e-05
14 *212:42 *824:10 5.09097e-05
15 *759:28 *824:10 6.436e-05
*RES
1 *3233:Q *824:10 8.51 
2 *824:10 *2789:A 3.445 
3 *824:10 *3378:A 4.12 
*END

*D_NET *825 0.00311019
*CONN
*I *3414:A I *D sky130_fd_sc_hd__dlygate4sd3_1
*I *2751:A I *D sky130_fd_sc_hd__and3_1
*I *3232:Q O *D sky130_fd_sc_hd__dfxtp_1
*CAP
1 *3414:A 8.6212e-05
2 *2751:A 0.00026475
3 *3232:Q 0.000247579
4 *825:8 0.00059854
5 *3414:A *2786:A 2.75229e-05
6 *2751:C *2751:A 0.00010106
7 *2782:B *2751:A 3.89528e-05
8 *2786:B *3414:A 4.82919e-05
9 *2788:C *2751:A 0.000118513
10 *2788:C *3414:A 0.000177939
11 *2800:C1 *825:8 0.000339793
12 *176:44 *2751:A 1.32017e-05
13 *176:44 *3414:A 1.52945e-05
14 *212:42 *2751:A 0.000132763
15 *218:108 *2751:A 8.88799e-05
16 *231:14 *2751:A 6.16148e-05
17 *411:14 *2751:A 0
18 *527:12 *2751:A 0.000120655
19 *619:39 *2751:A 0.000312097
20 *619:39 *3414:A 0.000213908
21 *759:28 *2751:A 5.06699e-05
22 *824:10 *2751:A 5.19573e-05
*RES
1 *3232:Q *825:8 6.81 
2 *825:8 *2751:A 15.565 
3 *825:8 *3414:A 6.705 
*END

*D_NET *826 0.00208217
*CONN
*I *2779:A I *D sky130_fd_sc_hd__and3_1
*I *3393:A I *D sky130_fd_sc_hd__dlygate4sd3_1
*I *3269:Q O *D sky130_fd_sc_hd__dfxtp_1
*CAP
1 *2779:A 0.00014985
2 *3393:A 0.000245434
3 *3269:Q 4.9318e-05
4 *826:8 0.000444602
5 *3393:A *2755:A1 0.000324024
6 *2682:A *2779:A 9.15582e-05
7 *2755:B1 *2779:A 0.000221721
8 *2779:C *2779:A 4.82919e-05
9 *3277:RESET_B *2779:A 4.82919e-05
10 *211:41 *2779:A 4.76659e-05
11 *619:62 *2779:A 0.00031763
12 *619:62 *826:8 9.37846e-05
*RES
1 *3269:Q *826:8 4.725 
2 *826:8 *3393:A 8.31 
3 *826:8 *2779:A 9 
*END

*D_NET *827 0.00264026
*CONN
*I *2750:A1 I *D sky130_fd_sc_hd__a31o_1
*I *3337:A I *D sky130_fd_sc_hd__dlygate4sd3_1
*I *3268:Q O *D sky130_fd_sc_hd__dfxtp_1
*CAP
1 *2750:A1 0.000135733
2 *3337:A 6.34179e-05
3 *3268:Q 0.000569663
4 *827:10 0.000768814
5 *827:10 *2790:A1 6.19133e-05
6 *2629:A *827:10 0.000105887
7 *2630:S *3337:A 0.000119873
8 *2750:A2 *2750:A1 9.50342e-06
9 *2755:A2 *3337:A 0.000112414
10 *2877:B *827:10 1.91597e-05
11 *3268:D *827:10 7.70216e-05
12 *3269:D *827:10 6.02846e-05
13 *174:18 *2750:A1 1.23543e-05
14 *174:18 *827:10 1.38207e-05
15 *316:46 *827:10 0.000119873
16 *415:52 *2750:A1 0.000160233
17 *415:52 *827:10 0.000200539
18 *571:18 *827:10 2.97593e-05
*RES
1 *3268:Q *827:10 12.885 
2 *827:10 *3337:A 5.43 
3 *827:10 *2750:A1 6.3 
*END

*D_NET *828 0.00365021
*CONN
*I *2773:A I *D sky130_fd_sc_hd__and3_1
*I *3460:A I *D sky130_fd_sc_hd__dlygate4sd3_1
*I *3231:Q O *D sky130_fd_sc_hd__dfxtp_1
*CAP
1 *2773:A 0.000602907
2 *3460:A 0
3 *3231:Q 0.000395943
4 *828:16 0.00099885
5 *828:16 *3413:A 7.00889e-06
6 *2622:A *2773:A 4.87677e-05
7 *2718:A2 *2773:A 0.000271111
8 *3115:A *2773:A 8.40269e-05
9 *3117:B *2773:A 0.000105339
10 *3118:A1 *828:16 8.57024e-05
11 *3227:CLK *2773:A 3.51721e-05
12 *3228:D *2773:A 0.000118632
13 *202:115 *828:16 0.000292738
14 *358:96 *828:16 4.00541e-06
15 *407:20 *2773:A 9.5799e-06
16 *430:64 *2773:A 8.99944e-05
17 *442:16 *828:16 0.000292051
18 *476:98 *2773:A 0.000126524
19 *601:42 *2773:A 6.1357e-05
20 *601:55 *2773:A 2.05056e-05
*RES
1 *3231:Q *828:16 13.64 
2 *828:16 *3460:A 1.6 
3 *828:16 *2773:A 17.6 
*END

*D_NET *829 0.00376613
*CONN
*I *2711:A I *D sky130_fd_sc_hd__and3_1
*I *3413:A I *D sky130_fd_sc_hd__dlygate4sd3_1
*I *3230:Q O *D sky130_fd_sc_hd__dfxtp_1
*CAP
1 *2711:A 0.000197291
2 *3413:A 0.000433728
3 *3230:Q 0.000703175
4 *829:14 0.00133419
5 *3113:A *2711:A 0
6 *3117:A *829:14 0.00015028
7 *3117:B *2711:A 0.000107912
8 *3117:B *3413:A 3.98213e-05
9 *3119:A *829:14 4.99619e-05
10 *3120:S *829:14 0.000274659
11 *3229:D *829:14 2.50284e-05
12 *285:16 *2711:A 0
13 *285:16 *3413:A 0
14 *358:79 *3413:A 4.66108e-05
15 *358:96 *3413:A 0.000263173
16 *430:8 *3413:A 2.49909e-05
17 *430:64 *3413:A 0
18 *476:98 *2711:A 2.0851e-06
19 *512:6 *829:14 0.000106208
20 *828:16 *3413:A 7.00889e-06
*RES
1 *3230:Q *829:14 13.5 
2 *829:14 *3413:A 11.64 
3 *829:14 *2711:A 7.02 
*END

*D_NET *830 0.0018497
*CONN
*I *3390:A I *D sky130_fd_sc_hd__dlygate4sd3_1
*I *2768:A I *D sky130_fd_sc_hd__and3_1
*I *3229:Q O *D sky130_fd_sc_hd__dfxtp_1
*CAP
1 *3390:A 0
2 *2768:A 0.000191899
3 *3229:Q 0.000327658
4 *830:8 0.000519558
5 *3108:A *830:8 0.000124007
6 *3110:A *2768:A 9.14035e-05
7 *3112:A0 *830:8 7.40016e-05
8 *3114:A0 *830:8 4.82863e-05
9 *3117:A *830:8 8.58866e-05
10 *181:34 *2768:A 0.000136877
11 *235:18 *2768:A 7.55313e-05
12 *399:34 *830:8 0.000174595
*RES
1 *3229:Q *830:8 7.93 
2 *830:8 *2768:A 9.08 
3 *830:8 *3390:A 1.6 
*END

*D_NET *831 0.00321733
*CONN
*I *3386:A I *D sky130_fd_sc_hd__dlygate4sd3_1
*I *2706:A I *D sky130_fd_sc_hd__and3_1
*I *3228:Q O *D sky130_fd_sc_hd__dfxtp_1
*CAP
1 *3386:A 0.000280251
2 *2706:A 0.000110863
3 *3228:Q 0.000384426
4 *831:6 0.000775541
5 *3386:A *832:10 0.000232999
6 *3111:A *3386:A 0.000148977
7 *3111:A *831:6 0.000119762
8 *3226:CLK *2706:A 0.000220675
9 *181:34 *2706:A 5.42833e-05
10 *181:34 *3386:A 6.59587e-06
11 *192:57 *3386:A 6.79508e-05
12 *235:18 *2706:A 0.000325912
13 *395:26 *3386:A 4.66108e-05
14 *395:57 *3386:A 4.92861e-05
15 *500:131 *831:6 0.000393202
*RES
1 *3228:Q *831:6 6.535 
2 *831:6 *2706:A 9.53 
3 *831:6 *3386:A 10.475 
*END

*D_NET *832 0.00257435
*CONN
*I *2769:A I *D sky130_fd_sc_hd__and3_1
*I *3384:A I *D sky130_fd_sc_hd__dlygate4sd3_1
*I *3227:Q O *D sky130_fd_sc_hd__dfxtp_1
*CAP
1 *2769:A 0
2 *3384:A 0.000164598
3 *3227:Q 0.000331067
4 *832:10 0.000495665
5 *3384:A *3428:A 0
6 *2713:D *3384:A 0.000119609
7 *2769:C *832:10 1.70906e-05
8 *2770:C1 *832:10 0.000268356
9 *2800:B1 *3384:A 0.000112407
10 *3109:A1 *832:10 0.000159156
11 *3109:S *832:10 2.49909e-05
12 *3111:A *832:10 1.08758e-05
13 *3386:A *832:10 0.000232999
14 *369:74 *3384:A 9.17261e-05
15 *395:26 *832:10 0.00014719
16 *476:31 *832:10 9.03508e-06
17 *476:56 *3384:A 2.56752e-06
18 *476:56 *832:10 0.000200946
19 *500:131 *832:10 5.49879e-05
20 *505:6 *832:10 0.000131079
*RES
1 *3227:Q *832:10 10.615 
2 *832:10 *3384:A 12.48 
3 *832:10 *2769:A 1.6 
*END

*D_NET *833 0.00222997
*CONN
*I *2704:A1 I *D sky130_fd_sc_hd__a31o_1
*I *3428:A I *D sky130_fd_sc_hd__dlygate4sd3_1
*I *3226:Q O *D sky130_fd_sc_hd__dfxtp_1
*CAP
1 *2704:A1 0.000164817
2 *3428:A 0.000203234
3 *3226:Q 5.77271e-05
4 *833:8 0.000425778
5 *2704:A2 *2704:A1 1.88536e-05
6 *2713:A *2704:A1 4.26113e-05
7 *2713:A *3428:A 6.60257e-06
8 *2713:B *833:8 0.000194267
9 *2713:D *833:8 7.11079e-05
10 *2730:A2 *2704:A1 4.77757e-05
11 *2730:A2 *3428:A 0
12 *2730:B1 *2704:A1 0.000112098
13 *2730:D1 *2704:A1 0.000114088
14 *2730:D1 *3428:A 0.000371702
15 *2769:C *3428:A 0
16 *3107:S *3428:A 0.000134098
17 *3384:A *3428:A 0
18 *476:56 *3428:A 9.17261e-05
19 *603:68 *2704:A1 0.000173489
*RES
1 *3226:Q *833:8 5.43 
2 *833:8 *3428:A 8.49 
3 *833:8 *2704:A1 7.875 
*END

*D_NET *834 0.00166157
*CONN
*I *3389:A I *D sky130_fd_sc_hd__dlygate4sd3_1
*I *2776:B2 I *D sky130_fd_sc_hd__a22o_1
*I *3225:Q O *D sky130_fd_sc_hd__dfxtp_1
*CAP
1 *3389:A 9.46785e-05
2 *2776:B2 5.70012e-05
3 *3225:Q 0.000173923
4 *834:8 0.000325603
5 *2776:B2 *2714:B2 4.66108e-05
6 *2714:A1 *834:8 4.29258e-05
7 *2776:A1 *2776:B2 4.82919e-05
8 *3101:A *3389:A 5.72604e-05
9 *3104:S *834:8 0.000235378
10 *202:87 *2776:B2 0.000150253
11 *202:87 *3389:A 5.20249e-05
12 *202:115 *2776:B2 8.53113e-06
13 *442:16 *2776:B2 0.000158784
14 *442:16 *3389:A 0.000119412
15 *445:8 *3389:A 1.38207e-05
16 *445:21 *3389:A 2.92907e-05
17 *476:98 *3389:A 4.77807e-05
*RES
1 *3225:Q *834:8 6.81 
2 *834:8 *2776:B2 5.94 
3 *834:8 *3389:A 6.45 
*END

*D_NET *835 0.00122116
*CONN
*I *2714:B2 I *D sky130_fd_sc_hd__a22o_1
*I *3409:A I *D sky130_fd_sc_hd__dlygate4sd3_1
*I *3224:Q O *D sky130_fd_sc_hd__dfxtp_1
*CAP
1 *2714:B2 0.000127042
2 *3409:A 0
3 *3224:Q 0.000156817
4 *835:8 0.00028386
5 *2776:A1 *2714:B2 6.38806e-05
6 *2776:A1 *835:8 0.000129465
7 *2776:A2 *835:8 0
8 *2776:B2 *2714:B2 4.66108e-05
9 *3102:A0 *835:8 4.99619e-05
10 *202:87 *2714:B2 0.000181759
11 *445:8 *2714:B2 0.000181759
*RES
1 *3224:Q *835:8 4.825 
2 *835:8 *3409:A 1.6 
3 *835:8 *2714:B2 9.23 
*END

*D_NET *836 0.00240392
*CONN
*I *3457:A I *D sky130_fd_sc_hd__dlygate4sd3_1
*I *2772:A1 I *D sky130_fd_sc_hd__a31o_1
*I *3223:Q O *D sky130_fd_sc_hd__dfxtp_1
*CAP
1 *3457:A 0.000235211
2 *2772:A1 0.000613062
3 *3223:Q 0
4 *836:4 0.000848273
5 *2772:A2 *2772:A1 8.7152e-06
6 *2772:B1 *2772:A1 7.20767e-05
7 *3099:A0 *2772:A1 3.62299e-05
8 *3190:D *3457:A 9.12494e-06
9 *3223:D *2772:A1 0.000162996
10 *3466:A *3457:A 8.33066e-06
11 *3469:A *3457:A 3.38946e-05
12 *391:37 *2772:A1 2.09146e-05
13 *678:12 *3457:A 0.000104264
14 *726:26 *2772:A1 0.000156771
15 *726:26 *3457:A 3.63576e-05
16 *759:12 *3457:A 5.76956e-05
*RES
1 *3223:Q *836:4 1.6 
2 *836:4 *2772:A1 13.13 
3 *836:4 *3457:A 9.155 
*END

*D_NET *837 0.00222891
*CONN
*I *3400:A I *D sky130_fd_sc_hd__dlygate4sd3_1
*I *2703:A I *D sky130_fd_sc_hd__and3_1
*I *3222:Q O *D sky130_fd_sc_hd__dfxtp_1
*CAP
1 *3400:A 0.00023314
2 *2703:A 0.000248536
3 *3222:Q 0
4 *837:4 0.000481675
5 *3090:B *3400:A 0.000276686
6 *3096:S *3400:A 2.99101e-05
7 *3097:A *2703:A 0.000118081
8 *176:70 *2703:A 0.000119762
9 *177:100 *2703:A 7.50287e-05
10 *183:56 *2703:A 6.74886e-06
11 *208:18 *2703:A 0.000105828
12 *365:22 *2703:A 0.00025683
13 *380:10 *3400:A 0.000276686
*RES
1 *3222:Q *837:4 1.6 
2 *837:4 *2703:A 11.045 
3 *837:4 *3400:A 10.505 
*END

*D_NET *838 0.00329962
*CONN
*I *3382:A I *D sky130_fd_sc_hd__dlygate4sd3_1
*I *2786:A I *D sky130_fd_sc_hd__and3_1
*I *3221:Q O *D sky130_fd_sc_hd__dfxtp_1
*CAP
1 *3382:A 1.31277e-05
2 *2786:A 0.000982462
3 *3221:Q 0.000190269
4 *838:6 0.00118586
5 *2749:B *2786:A 2.65814e-06
6 *2786:B *2786:A 7.76046e-05
7 *2786:C *2786:A 5.39905e-05
8 *3091:S *3382:A 0
9 *3091:S *838:6 1.08758e-05
10 *3123:A0 *2786:A 8.71161e-05
11 *3125:A1 *2786:A 6.80182e-05
12 *3125:S *2786:A 6.61542e-05
13 *3126:A *2786:A 0.000501276
14 *3126:A *3382:A 3.26889e-05
15 *3414:A *2786:A 2.75229e-05
*RES
1 *3221:Q *838:6 4.12 
2 *838:6 *2786:A 15.37 
3 *838:6 *3382:A 1.96 
*END

*D_NET *839 0.00265702
*CONN
*I *3325:A I *D sky130_fd_sc_hd__dlygate4sd3_1
*I *2757:A1 I *D sky130_fd_sc_hd__a31o_1
*I *3220:Q O *D sky130_fd_sc_hd__dfxtp_1
*CAP
1 *3325:A 0.000143093
2 *2757:A1 0.000258226
3 *3220:Q 3.69588e-05
4 *839:8 0.000438277
5 *2998:A1 *2757:A1 0.000272984
6 *3006:B *2757:A1 0.000288237
7 *3093:A0 *3325:A 1.0129e-05
8 *3093:S *3325:A 0.000182349
9 *177:24 *839:8 4.66108e-05
10 *208:18 *2757:A1 0.000112238
11 *380:22 *2757:A1 0.000180675
12 *380:22 *3325:A 0.000452337
13 *384:43 *2757:A1 4.19797e-05
14 *384:43 *3325:A 3.84342e-05
15 *495:8 *3325:A 0.000154488
*RES
1 *3220:Q *839:8 4.05 
2 *839:8 *2757:A1 10.815 
3 *839:8 *3325:A 9.06 
*END

*D_NET *840 0.00207875
*CONN
*I *2793:A1 I *D sky130_fd_sc_hd__a22o_1
*I *3339:A I *D sky130_fd_sc_hd__dlygate4sd3_1
*I *3219:Q O *D sky130_fd_sc_hd__dfxtp_1
*CAP
1 *2793:A1 0.000229258
2 *3339:A 0
3 *3219:Q 0.000376931
4 *840:16 0.000606188
5 *2793:A2 *2793:A1 8.53113e-06
6 *3081:A0 *2793:A1 2.97291e-05
7 *3085:A *2793:A1 0.000140912
8 *3088:S *840:16 8.12945e-05
9 *483:18 *2793:A1 0
10 *486:10 *2793:A1 5.13155e-05
11 *489:8 *2793:A1 3.23663e-05
12 *489:8 *840:16 3.09179e-05
13 *602:14 *840:16 0.000491309
14 *602:86 *2793:A1 0
*RES
1 *3219:Q *840:16 9.37 
2 *840:16 *3339:A 1.6 
3 *840:16 *2793:A1 10.07 
*END

*D_NET *841 0.00208914
*CONN
*I *2742:A1 I *D sky130_fd_sc_hd__a22o_1
*I *3399:A I *D sky130_fd_sc_hd__dlygate4sd3_1
*I *3218:Q O *D sky130_fd_sc_hd__dfxtp_1
*CAP
1 *2742:A1 0.000459281
2 *3399:A 4.75489e-05
3 *3218:Q 0.000194592
4 *841:12 0.000701422
5 *2742:A1 *2793:B2 6.66038e-05
6 *3399:A *2793:B2 0.000164874
7 *2793:A2 *2742:A1 3.15604e-05
8 *2793:B1 *2742:A1 0.00019637
9 *3081:S *841:12 8.53113e-06
10 *3086:S *841:12 3.18219e-05
11 *3088:S *841:12 2.75707e-05
12 *442:64 *841:12 0.00015896
13 *602:86 *841:12 0
*RES
1 *3218:Q *841:12 8.975 
2 *841:12 *3399:A 3.7 
3 *841:12 *2742:A1 7.585 
*END

*D_NET *842 0.00244147
*CONN
*I *2793:B2 I *D sky130_fd_sc_hd__a22o_1
*I *3341:A I *D sky130_fd_sc_hd__dlygate4sd3_1
*I *3217:Q O *D sky130_fd_sc_hd__dfxtp_1
*CAP
1 *2793:B2 0.000233155
2 *3341:A 6.3293e-05
3 *3217:Q 0.000192354
4 *842:8 0.000488802
5 *2793:B2 *2742:B2 0.00053204
6 *2742:A1 *2793:B2 6.66038e-05
7 *2793:A2 *2793:B2 2.48103e-05
8 *2793:B1 *2793:B2 4.92062e-05
9 *3086:A0 *2793:B2 1.47347e-05
10 *3086:S *2793:B2 0.000193801
11 *3086:S *842:8 3.00483e-05
12 *3087:A *2793:B2 4.92062e-05
13 *3089:A *3341:A 0.000184717
14 *3218:D *3341:A 0.000116165
15 *3399:A *2793:B2 0.000164874
16 *442:77 *3341:A 3.76596e-05
*RES
1 *3217:Q *842:8 4.135 
2 *842:8 *3341:A 7.745 
3 *842:8 *2793:B2 8.965 
*END

*D_NET *843 0.00325723
*CONN
*I *3326:A I *D sky130_fd_sc_hd__dlygate4sd3_1
*I *2742:B2 I *D sky130_fd_sc_hd__a22o_1
*I *3216:Q O *D sky130_fd_sc_hd__dfxtp_1
*CAP
1 *3326:A 0
2 *2742:B2 0.00029606
3 *3216:Q 0.000617578
4 *843:18 0.000913638
5 *2793:A2 *2742:B2 0.000198945
6 *2793:B1 *2742:B2 1.61831e-05
7 *2793:B2 *2742:B2 0.00053204
8 *2794:C1 *2742:B2 4.82919e-05
9 *3063:A1 *843:18 0.000145575
10 *3089:A *843:18 0.00026893
11 *3216:CLK *843:18 4.89295e-05
12 *3219:D *843:18 0
13 *477:8 *2742:B2 5.42473e-05
14 *602:31 *843:18 3.90873e-06
15 *602:53 *843:18 0.000112907
16 *602:86 *2742:B2 0
*RES
1 *3216:Q *843:18 15.995 
2 *843:18 *2742:B2 12.785 
3 *843:18 *3326:A 1.6 
*END

*D_NET *844 0.00144822
*CONN
*I *3426:A I *D sky130_fd_sc_hd__dlygate4sd3_1
*I *2792:A1 I *D sky130_fd_sc_hd__a22o_1
*I *3215:Q O *D sky130_fd_sc_hd__dfxtp_1
*CAP
1 *3426:A 0.000207969
2 *2792:A1 0.000438665
3 *3215:Q 0
4 *844:4 0.000646635
5 *2792:A1 *2792:B2 5.00612e-05
6 *3078:S *2792:A1 7.81876e-05
7 *3215:D *2792:A1 2.67022e-05
8 *602:101 *2792:A1 0
*RES
1 *3215:Q *844:4 1.6 
2 *844:4 *2792:A1 11.63 
3 *844:4 *3426:A 4.735 
*END

*D_NET *845 0.00124144
*CONN
*I *3438:A I *D sky130_fd_sc_hd__dlygate4sd3_1
*I *2743:A1 I *D sky130_fd_sc_hd__a211o_1
*I *3214:Q O *D sky130_fd_sc_hd__dfxtp_1
*CAP
1 *3438:A 6.38401e-05
2 *2743:A1 0.00015725
3 *3214:Q 0.000109424
4 *845:8 0.000330514
5 *2743:B1 *2743:A1 1.85674e-05
6 *2792:A2 *2743:A1 0.000183043
7 *2792:A2 *3438:A 0.00010596
8 *2992:A *2743:A1 6.55328e-05
9 *3076:A0 *2743:A1 4.66826e-05
10 *197:108 *845:8 0.00016063
11 *215:38 *2743:A1 0
12 *215:38 *3438:A 0
*RES
1 *3214:Q *845:8 5.085 
2 *845:8 *2743:A1 7.26 
3 *845:8 *3438:A 4.98 
*END

*D_NET *846 0.00170573
*CONN
*I *3346:A I *D sky130_fd_sc_hd__dlygate4sd3_1
*I *2792:B2 I *D sky130_fd_sc_hd__a22o_1
*I *3213:Q O *D sky130_fd_sc_hd__dfxtp_1
*CAP
1 *3346:A 0.000128001
2 *2792:B2 0.000366715
3 *3213:Q 0
4 *846:4 0.000494716
5 *2792:B2 *2741:A1 0
6 *2792:A1 *2792:B2 5.00612e-05
7 *3073:A1 *2792:B2 0
8 *3074:A *2792:B2 2.23253e-05
9 *3077:A *2792:B2 4.18603e-06
10 *3078:S *2792:B2 0.000162318
11 *3215:D *2792:B2 0
12 *483:18 *2792:B2 0.00047741
*RES
1 *3213:Q *846:4 1.6 
2 *846:4 *2792:B2 13.895 
3 *846:4 *3346:A 3.7 
*END

*D_NET *847 0.00315055
*CONN
*I *3324:A I *D sky130_fd_sc_hd__dlygate4sd3_1
*I *2741:A1 I *D sky130_fd_sc_hd__a22o_1
*I *3212:Q O *D sky130_fd_sc_hd__dfxtp_1
*CAP
1 *3324:A 0.000457285
2 *2741:A1 0.000327013
3 *3212:Q 0
4 *847:4 0.000784298
5 *2741:A1 *2794:A1 9.68787e-05
6 *2741:A1 *3431:A 6.47594e-05
7 *2741:B1 *2741:A1 9.50342e-06
8 *2792:B2 *2741:A1 0
9 *3071:A0 *3324:A 0.000317194
10 *3072:A *2741:A1 0.000163204
11 *3072:A *3324:A 4.99619e-05
12 *3073:S *3324:A 0.000352161
13 *3074:A *3324:A 0.000277223
14 *3213:CLK *2741:A1 3.05373e-05
15 *3215:D *2741:A1 0
16 *602:101 *2741:A1 0.000116559
17 *602:107 *2741:A1 0.000103974
*RES
1 *3212:Q *847:4 1.6 
2 *847:4 *2741:A1 13.565 
3 *847:4 *3324:A 11.725 
*END

*D_NET *848 0.00221796
*CONN
*I *3452:A I *D sky130_fd_sc_hd__dlygate4sd3_1
*I *2802:A1 I *D sky130_fd_sc_hd__a21o_1
*I *3267:Q O *D sky130_fd_sc_hd__dfxtp_1
*CAP
1 *3452:A 3.00821e-05
2 *2802:A1 8.59508e-05
3 *3267:Q 0.000434574
4 *848:8 0.000550607
5 *2623:A0 *848:8 6.3124e-06
6 *2801:B1 *848:8 0.000263979
7 *2802:A2 *2802:A1 0.000236623
8 *2802:A2 *3452:A 0.000114649
9 *3267:CLK *2802:A1 4.87939e-05
10 *3267:CLK *3452:A 0.000106318
11 *3267:D *2802:A1 0.000146948
12 *174:112 *848:8 0.000193123
*RES
1 *3267:Q *848:8 8.88 
2 *848:8 *2802:A1 6.51 
3 *848:8 *3452:A 4.98 
*END

*D_NET *849 0.00140589
*CONN
*I *2721:A1 I *D sky130_fd_sc_hd__a22o_1
*I *3456:A I *D sky130_fd_sc_hd__dlygate4sd3_1
*I *3266:Q O *D sky130_fd_sc_hd__dfxtp_1
*CAP
1 *2721:A1 0.00035729
2 *3456:A 9.95025e-05
3 *3266:Q 9.07194e-05
4 *849:6 0.000547512
5 *2722:A2 *3456:A 0.000144148
6 *2722:A2 *849:6 4.2856e-05
7 *2729:B1 *2721:A1 0.000114356
8 *3189:CLK *2721:A1 0
9 *3267:CLK *2721:A1 0
10 *212:91 *2721:A1 9.50342e-06
11 *350:120 *2721:A1 0
*RES
1 *3266:Q *849:6 2.74 
2 *849:6 *3456:A 3.7 
3 *849:6 *2721:A1 10.805 
*END

*D_NET *850 0.00188542
*CONN
*I *3376:A I *D sky130_fd_sc_hd__dlygate4sd3_1
*I *2781:A I *D sky130_fd_sc_hd__and3_1
*I *3211:Q O *D sky130_fd_sc_hd__dfxtp_1
*CAP
1 *3376:A 0.000125879
2 *2781:A 0.000226597
3 *3211:Q 5.74818e-05
4 *850:8 0.000409957
5 *2781:A *882:8 3.34652e-05
6 *2987:A1 *2781:A 9.37731e-05
7 *3069:A *3376:A 0.000197264
8 *3239:CLK *850:8 8.65905e-05
9 *419:14 *2781:A 0.000117419
10 *419:14 *3376:A 4.28483e-05
11 *774:92 *2781:A 0.000379656
12 *774:92 *3376:A 0.000114492
*RES
1 *3211:Q *850:8 4.395 
2 *850:8 *2781:A 9.525 
3 *850:8 *3376:A 6.81 
*END

*D_NET *851 0.00375965
*CONN
*I *3421:A I *D sky130_fd_sc_hd__dlygate4sd3_1
*I *2753:A I *D sky130_fd_sc_hd__and3_1
*I *3210:Q O *D sky130_fd_sc_hd__dfxtp_1
*CAP
1 *3421:A 0.000221084
2 *2753:A 0.000921428
3 *3210:Q 0
4 *851:4 0.00114251
5 *2553:A0 *2753:A 0.000272389
6 *2553:S *2753:A 8.16671e-05
7 *2554:A *2753:A 0.000448311
8 *211:14 *2753:A 0
9 *215:68 *2753:A 0.000358101
10 *774:76 *3421:A 0.000122821
11 *818:8 *2753:A 0.000191335
*RES
1 *3210:Q *851:4 1.6 
2 *851:4 *2753:A 21.74 
3 *851:4 *3421:A 5.335 
*END

*D_NET *852 0.00230675
*CONN
*I *3431:A I *D sky130_fd_sc_hd__dlygate4sd3_1
*I *2794:A1 I *D sky130_fd_sc_hd__a211o_1
*I *3209:Q O *D sky130_fd_sc_hd__dfxtp_1
*CAP
1 *3431:A 0.000241325
2 *2794:A1 0.000216814
3 *3209:Q 0.000339363
4 *852:10 0.000797503
5 *2794:A1 *3420:A 0.000162318
6 *852:10 *3420:A 2.49909e-05
7 *2741:A1 *2794:A1 9.68787e-05
8 *2741:A1 *3431:A 6.47594e-05
9 *2741:B1 *2794:A1 0.000164686
10 *2794:B1 *2794:A1 0
11 *3061:A0 *852:10 4.85494e-05
12 *3061:S *2794:A1 0
13 *3061:S *852:10 8.65905e-05
14 *442:108 *852:10 3.27443e-05
15 *477:8 *2794:A1 0
16 *602:86 *2794:A1 0
17 *602:101 *2794:A1 0
18 *602:101 *3431:A 1.85674e-05
19 *602:107 *3431:A 1.16578e-05
*RES
1 *3209:Q *852:10 8.895 
2 *852:10 *2794:A1 8.04 
3 *852:10 *3431:A 7.53 
*END

*D_NET *853 0.00168456
*CONN
*I *2741:B2 I *D sky130_fd_sc_hd__a22o_1
*I *3420:A I *D sky130_fd_sc_hd__dlygate4sd3_1
*I *3208:Q O *D sky130_fd_sc_hd__dfxtp_1
*CAP
1 *2741:B2 0
2 *3420:A 0.000113879
3 *3208:Q 0.000370739
4 *853:10 0.000484618
5 *2741:A2 *853:10 0
6 *2794:A1 *3420:A 0.000162318
7 *3061:S *3420:A 6.35448e-05
8 *3063:A1 *853:10 0.000236648
9 *3063:S *853:10 0.000160635
10 *442:108 *3420:A 6.71882e-05
11 *852:10 *3420:A 2.49909e-05
*RES
1 *3208:Q *853:10 7.855 
2 *853:10 *3420:A 8.63 
3 *853:10 *2741:B2 1.6 
*END

*D_NET *854 0.00261277
*CONN
*I *3433:A I *D sky130_fd_sc_hd__dlygate4sd3_1
*I *2766:A1 I *D sky130_fd_sc_hd__a221o_1
*I *3207:Q O *D sky130_fd_sc_hd__dfxtp_1
*CAP
1 *3433:A 0.000441108
2 *2766:A1 0.000705018
3 *3207:Q 0
4 *854:4 0.00114613
5 *2766:A1 *2766:B2 1.52529e-05
6 *3433:A *3446:A 0
7 *2766:B1 *2766:A1 2.49909e-05
8 *3053:A0 *2766:A1 3.21182e-05
9 *3053:A0 *3433:A 6.62785e-06
10 *3053:A1 *3433:A 0.000120835
11 *3053:S *2766:A1 1.08758e-05
12 *3053:S *3433:A 6.22905e-05
13 *3055:A1 *3433:A 0
14 *3207:D *2766:A1 1.43717e-05
15 *595:97 *2766:A1 3.3154e-05
16 *607:12 *3433:A 0
*RES
1 *3207:Q *854:4 1.6 
2 *854:4 *2766:A1 10.555 
3 *854:4 *3433:A 11.99 
*END

*D_NET *855 0.00246152
*CONN
*I *3446:A I *D sky130_fd_sc_hd__dlygate4sd3_1
*I *2697:A1 I *D sky130_fd_sc_hd__a221o_1
*I *3206:Q O *D sky130_fd_sc_hd__dfxtp_1
*CAP
1 *3446:A 0.000449308
2 *2697:A1 0.000303686
3 *3206:Q 0
4 *855:4 0.000752994
5 *2697:A1 *2697:B2 6.03947e-06
6 *2697:B1 *2697:A1 2.49909e-05
7 *2697:C1 *2697:A1 3.68514e-05
8 *3055:S *3446:A 0.000149842
9 *3433:A *3446:A 0
10 *432:81 *2697:A1 3.06569e-06
11 *471:10 *3446:A 0.000133085
12 *595:82 *2697:A1 0.000194299
13 *595:82 *3446:A 0.00040736
*RES
1 *3206:Q *855:4 1.6 
2 *855:4 *2697:A1 5.515 
3 *855:4 *3446:A 12.92 
*END

*D_NET *856 0.00208479
*CONN
*I *3335:A I *D sky130_fd_sc_hd__dlygate4sd3_1
*I *2765:A1 I *D sky130_fd_sc_hd__a22o_1
*I *3205:Q O *D sky130_fd_sc_hd__dfxtp_1
*CAP
1 *3335:A 0.000609856
2 *2765:A1 0.000138656
3 *3205:Q 9.37779e-05
4 *856:6 0.00084229
5 *2765:A1 *2765:B2 1.94548e-05
6 *3335:A *3416:A 0.000107112
7 *3335:A *858:6 0
8 *2765:B1 *2765:A1 9.53428e-06
9 *3050:A1 *3335:A 7.53903e-05
10 *3203:CLK *3335:A 5.6361e-05
11 *3203:CLK *856:6 3.45588e-05
12 *3203:D *2765:A1 9.78012e-05
13 *595:97 *2765:A1 0
*RES
1 *3205:Q *856:6 2.74 
2 *856:6 *2765:A1 8.36 
3 *856:6 *3335:A 9.22 
*END

*D_NET *857 0.00151695
*CONN
*I *3415:A I *D sky130_fd_sc_hd__dlygate4sd3_1
*I *2696:A1 I *D sky130_fd_sc_hd__a22o_1
*I *3204:Q O *D sky130_fd_sc_hd__dfxtp_1
*CAP
1 *3415:A 0.000139774
2 *2696:A1 4.13326e-05
3 *3204:Q 0.000178798
4 *857:12 0.000359904
5 *2696:A2 *2696:A1 1.19928e-05
6 *2696:A2 *3415:A 1.49579e-05
7 *2696:B1 *2696:A1 1.08758e-05
8 *2697:C1 *3415:A 0.000269335
9 *2698:C1 *2696:A1 6.07575e-06
10 *2698:C1 *3415:A 9.56017e-06
11 *2765:B1 *857:12 0.000121353
12 *3015:A0 *857:12 2.85623e-05
13 *3048:A1 *3415:A 2.88357e-05
14 *3048:A1 *857:12 0.000134123
15 *430:116 *2696:A1 4.66108e-05
16 *430:116 *3415:A 3.5678e-06
17 *430:141 *857:12 0.000111293
*RES
1 *3204:Q *857:12 9.56 
2 *857:12 *2696:A1 2.395 
3 *857:12 *3415:A 4.825 
*END

*D_NET *858 0.00171344
*CONN
*I *3416:A I *D sky130_fd_sc_hd__dlygate4sd3_1
*I *2766:B2 I *D sky130_fd_sc_hd__a221o_1
*I *3203:Q O *D sky130_fd_sc_hd__dfxtp_1
*CAP
1 *3416:A 0.000315892
2 *2766:B2 0.00015307
3 *3203:Q 3.55506e-05
4 *858:6 0.000504513
5 *2766:B2 *2697:B2 0.000347483
6 *2766:A1 *2766:B2 1.52529e-05
7 *3046:A *2766:B2 0
8 *3050:A1 *2766:B2 0
9 *3050:A1 *3416:A 4.66108e-05
10 *3335:A *3416:A 0.000107112
11 *3335:A *858:6 0
12 *430:155 *2766:B2 0
13 *465:12 *2766:B2 0.000174631
14 *595:97 *2766:B2 1.33285e-05
*RES
1 *3203:Q *858:6 2.215 
2 *858:6 *2766:B2 10.025 
3 *858:6 *3416:A 6.88 
*END

*D_NET *859 0.00220735
*CONN
*I *3453:A I *D sky130_fd_sc_hd__dlygate4sd3_1
*I *2697:B2 I *D sky130_fd_sc_hd__a221o_1
*I *3202:Q O *D sky130_fd_sc_hd__dfxtp_1
*CAP
1 *3453:A 0.000176999
2 *2697:B2 0.000450865
3 *3202:Q 4.28324e-05
4 *859:8 0.000670696
5 *2697:A1 *2697:B2 6.03947e-06
6 *2697:B1 *2697:B2 8.33066e-06
7 *2697:C1 *2697:B2 1.18271e-05
8 *2766:B2 *2697:B2 0.000347483
9 *2766:C1 *2697:B2 0.00013475
10 *3043:A0 *2697:B2 2.35459e-05
11 *3044:A *2697:B2 0.000171316
12 *3046:A *2697:B2 0
13 *3202:D *2697:B2 1.08758e-05
14 *465:12 *2697:B2 7.3366e-05
15 *595:82 *2697:B2 7.84211e-05
*RES
1 *3202:Q *859:8 2.41 
2 *859:8 *2697:B2 16.1637 
3 *859:8 *3453:A 4.465 
*END

*D_NET *860 0.00246102
*CONN
*I *2765:B2 I *D sky130_fd_sc_hd__a22o_1
*I *3461:A I *D sky130_fd_sc_hd__dlygate4sd3_1
*I *3201:Q O *D sky130_fd_sc_hd__dfxtp_1
*CAP
1 *2765:B2 0.00054283
2 *3461:A 0.000290718
3 *3201:Q 0
4 *860:4 0.000833548
5 *3461:A *861:14 0.000160342
6 *2765:A1 *2765:B2 1.94548e-05
7 *2765:B1 *2765:B2 8.85328e-05
8 *3038:A0 *3461:A 0.000118104
9 *3041:A *3461:A 0.00026906
10 *3204:D *2765:B2 7.70553e-06
11 *3204:D *3461:A 0
12 *3205:CLK *3461:A 5.23362e-05
13 *430:116 *3461:A 5.3399e-05
14 *604:156 *2765:B2 2.49909e-05
*RES
1 *3201:Q *860:4 1.6 
2 *860:4 *3461:A 12.23 
3 *860:4 *2765:B2 8.185 
*END

*D_NET *861 0.00203411
*CONN
*I *2696:B2 I *D sky130_fd_sc_hd__a22o_1
*I *3344:A I *D sky130_fd_sc_hd__dlygate4sd3_1
*I *3200:Q O *D sky130_fd_sc_hd__dfxtp_1
*CAP
1 *2696:B2 6.61164e-05
2 *3344:A 0
3 *3200:Q 0.000337978
4 *861:14 0.000404095
5 *3038:A0 *861:14 2.21074e-05
6 *3039:A *861:14 0.000265629
7 *3041:A *861:14 7.97834e-05
8 *3201:D *861:14 0.000114492
9 *3461:A *861:14 0.000160342
10 *430:116 *2696:B2 0.000148303
11 *430:116 *861:14 0.000349102
12 *462:10 *861:14 8.61593e-05
*RES
1 *3200:Q *861:14 14.72 
2 *861:14 *3344:A 1.6 
3 *861:14 *2696:B2 3.085 
*END

*D_NET *862 0.00133535
*CONN
*I *3336:A I *D sky130_fd_sc_hd__dlygate4sd3_1
*I *2767:A1 I *D sky130_fd_sc_hd__a211o_1
*I *3199:Q O *D sky130_fd_sc_hd__dfxtp_1
*CAP
1 *3336:A 0.000143347
2 *2767:A1 5.18817e-05
3 *3199:Q 0.000109065
4 *862:8 0.000304293
5 *2692:A2 *2767:A1 0.00013323
6 *2692:A2 *3336:A 0.000188924
7 *2698:C1 *2767:A1 0.00011219
8 *2698:C1 *3336:A 8.33066e-06
9 *3037:A *2767:A1 0
10 *3038:A1 *3336:A 4.80058e-05
11 *3040:A0 *3336:A 2.23253e-05
12 *3040:A1 *3336:A 4.6075e-05
13 *3040:S *3336:A 9.12671e-06
14 *432:133 *862:8 0.000158552
*RES
1 *3199:Q *862:8 5.085 
2 *862:8 *2767:A1 5.235 
3 *862:8 *3336:A 7.155 
*END

*D_NET *863 0.00187239
*CONN
*I *2692:A1 I *D sky130_fd_sc_hd__a22o_1
*I *3427:A I *D sky130_fd_sc_hd__dlygate4sd3_1
*I *3198:Q O *D sky130_fd_sc_hd__dfxtp_1
*CAP
1 *2692:A1 6.68557e-05
2 *3427:A 0.000162783
3 *3198:Q 0.000163564
4 *863:10 0.000393203
5 *2692:B1 *2692:A1 0.00022203
6 *2692:B1 *3427:A 0.000257944
7 *3023:S *863:10 8.06779e-05
8 *3031:A *2692:A1 3.94233e-05
9 *3036:A *3427:A 1.16578e-05
10 *442:108 *3427:A 0.000124172
11 *442:119 *863:10 8.23457e-05
12 *445:106 *2692:A1 0.000141621
13 *445:106 *3427:A 2.85623e-05
14 *445:106 *863:10 4.66108e-05
15 *453:12 *863:10 5.09431e-05
*RES
1 *3198:Q *863:10 6.825 
2 *863:10 *3427:A 7.83 
3 *863:10 *2692:A1 6.255 
*END

*D_NET *864 0.00326439
*CONN
*I *3320:A I *D sky130_fd_sc_hd__dlygate4sd3_1
*I *2764:A1 I *D sky130_fd_sc_hd__a22o_1
*I *3197:Q O *D sky130_fd_sc_hd__dfxtp_1
*CAP
1 *3320:A 0.000517784
2 *2764:A1 0.000372575
3 *3197:Q 0.000138451
4 *864:8 0.00102881
5 *2764:A1 *2764:B2 0
6 *3028:A0 *3320:A 0
7 *3029:A *2764:A1 0
8 *3029:A *3320:A 0
9 *3030:A0 *2764:A1 0.000306164
10 *3030:A0 *3320:A 0.000640945
11 *3035:A1 *2764:A1 2.75092e-05
12 *3200:CLK *864:8 4.78896e-05
13 *456:10 *2764:A1 0.000184265
14 *604:40 *2764:A1 0
15 *604:92 *2764:A1 0
*RES
1 *3197:Q *864:8 5.085 
2 *864:8 *2764:A1 11.355 
3 *864:8 *3320:A 13.095 
*END

*D_NET *865 0.00252386
*CONN
*I *3436:A I *D sky130_fd_sc_hd__dlygate4sd3_1
*I *2698:A1 I *D sky130_fd_sc_hd__a211o_1
*I *3196:Q O *D sky130_fd_sc_hd__dfxtp_1
*CAP
1 *3436:A 0.00022175
2 *2698:A1 0.000478947
3 *3196:Q 4.53158e-05
4 *865:8 0.000746013
5 *2698:B1 *2698:A1 0.000494499
6 *2767:B1 *2698:A1 2.68464e-05
7 *3028:A0 *2698:A1 0.000265031
8 *3028:A0 *3436:A 0.000145453
9 *3030:A0 *2698:A1 0
10 *3030:A0 *865:8 5.05521e-05
11 *183:22 *2698:A1 4.94474e-05
*RES
1 *3196:Q *865:8 4.395 
2 *865:8 *2698:A1 14.1 
3 *865:8 *3436:A 7.485 
*END

*D_NET *866 0.00336301
*CONN
*I *3458:A I *D sky130_fd_sc_hd__dlygate4sd3_1
*I *2764:B2 I *D sky130_fd_sc_hd__a22o_1
*I *3195:Q O *D sky130_fd_sc_hd__dfxtp_1
*CAP
1 *3458:A 0.000229661
2 *2764:B2 0.000322045
3 *3195:Q 0.000234327
4 *866:8 0.000786032
5 *2692:B1 *2764:B2 0.000238834
6 *2764:A1 *2764:B2 0
7 *3025:A0 *3458:A 0
8 *3029:A *2764:B2 7.23533e-05
9 *3029:A *3458:A 0.000252977
10 *3036:A *2764:B2 0.000136572
11 *3196:CLK *2764:B2 1.88904e-05
12 *3196:CLK *3458:A 0.000219005
13 *3197:CLK *866:8 1.83756e-05
14 *3197:D *866:8 4.82863e-05
15 *3199:D *2764:B2 3.43232e-05
16 *181:134 *2764:B2 0.000121023
17 *604:40 *2764:B2 0.000177035
18 *604:49 *2764:B2 0.000226658
19 *604:92 *2764:B2 0.000125084
20 *604:98 *2764:B2 0.000101524
*RES
1 *3195:Q *866:8 6.12 
2 *866:8 *2764:B2 13.05 
3 *866:8 *3458:A 8.745 
*END

*D_NET *867 0.00143511
*CONN
*I *2692:B2 I *D sky130_fd_sc_hd__a22o_1
*I *3434:A I *D sky130_fd_sc_hd__dlygate4sd3_1
*I *3194:Q O *D sky130_fd_sc_hd__dfxtp_1
*CAP
1 *2692:B2 4.67389e-05
2 *3434:A 0.000147146
3 *3194:Q 0.000112835
4 *867:10 0.00030672
5 *2692:A2 *3434:A 0
6 *2692:B1 *3434:A 0
7 *3023:A0 *3434:A 9.29751e-06
8 *3024:A *3434:A 0.000116158
9 *3025:A0 *2692:B2 3.00381e-05
10 *3025:A0 *3434:A 0.000296088
11 *3025:A0 *867:10 4.92062e-05
12 *3025:A1 *867:10 3.26889e-05
13 *3026:A *3434:A 0
14 *3026:A *867:10 1.7386e-05
15 *445:89 *867:10 0.000212223
16 *445:106 *2692:B2 4.29365e-05
17 *445:106 *867:10 1.56428e-05
*RES
1 *3194:Q *867:10 4.84 
2 *867:10 *3434:A 9.635 
3 *867:10 *2692:B2 2.74 
*END

*D_NET *868 0.00258447
*CONN
*I *3449:A I *D sky130_fd_sc_hd__dlygate4sd3_1
*I *2774:A1 I *D sky130_fd_sc_hd__a31o_1
*I *3193:Q O *D sky130_fd_sc_hd__dfxtp_1
*CAP
1 *3449:A 0.000133648
2 *2774:A1 0.000233844
3 *3193:Q 0.000213287
4 *868:6 0.000580778
5 *2718:B1 *2774:A1 0.000173454
6 *3080:A *2774:A1 3.91137e-05
7 *3193:D *3449:A 0.000108886
8 *3193:D *868:6 0.000308719
9 *181:32 *3449:A 0.000111906
10 *235:18 *2774:A1 0.000553868
11 *399:34 *2774:A1 1.64067e-05
12 *399:34 *3449:A 0.000110557
*RES
1 *3193:Q *868:6 4.465 
2 *868:6 *2774:A1 12.335 
3 *868:6 *3449:A 8.12 
*END

*D_NET *869 0.0019183
*CONN
*I *3394:A I *D sky130_fd_sc_hd__dlygate4sd3_1
*I *2712:A1 I *D sky130_fd_sc_hd__a31o_1
*I *3192:Q O *D sky130_fd_sc_hd__dfxtp_1
*CAP
1 *3394:A 0.000134176
2 *2712:A1 0.000244488
3 *3192:Q 6.76821e-05
4 *869:8 0.000446346
5 *3018:A0 *3394:A 0.000199021
6 *3018:A1 *3394:A 3.85739e-05
7 *3019:A *3394:A 1.22325e-05
8 *3020:S *869:8 0
9 *202:77 *2712:A1 8.53011e-05
10 *285:16 *2712:A1 0.00019141
11 *285:16 *869:8 5.66435e-05
12 *450:6 *3394:A 0.000303285
13 *474:49 *3394:A 0.000139137
*RES
1 *3192:Q *869:8 4.98 
2 *869:8 *2712:A1 8.58 
3 *869:8 *3394:A 8.205 
*END

*D_NET *870 0.00498568
*CONN
*I *2805:B2 I *D sky130_fd_sc_hd__a22o_1
*I *3367:A I *D sky130_fd_sc_hd__dlygate4sd3_1
*I *3265:Q O *D sky130_fd_sc_hd__dfxtp_1
*CAP
1 *2805:B2 0.00131928
2 *3367:A 1.38702e-05
3 *3265:Q 0.000258575
4 *870:10 0.00159172
5 *2605:A1 *2805:B2 0.000248254
6 *2608:S *2805:B2 0
7 *2610:A1 *2805:B2 0
8 *2610:S *2805:B2 0
9 *2618:A0 *2805:B2 4.40899e-05
10 *2620:S *2805:B2 0
11 *2620:S *870:10 0
12 *2798:B1 *2805:B2 0
13 *2804:A2 *2805:B2 0
14 *2896:A *3367:A 2.69217e-05
15 *2923:B *3367:A 2.75229e-05
16 *3259:D *2805:B2 0
17 *3265:CLK *2805:B2 0
18 *3265:CLK *870:10 0
19 *181:56 *2805:B2 0.00051746
20 *316:70 *2805:B2 5.27389e-05
21 *316:72 *2805:B2 2.87867e-05
22 *316:78 *2805:B2 0.000172957
23 *316:89 *2805:B2 0.000132714
24 *358:28 *2805:B2 0
25 *511:24 *2805:B2 0.000245893
26 *527:26 *2805:B2 0.00027174
27 *527:40 *2805:B2 0
28 *599:14 *2805:B2 0
29 *600:26 *2805:B2 0
30 *693:32 *870:10 3.31531e-05
*RES
1 *3265:Q *870:10 7.065 
2 *870:10 *3367:A 4.05 
3 *870:10 *2805:B2 30.795 
*END

*D_NET *871 0.00150949
*CONN
*I *2727:A1 I *D sky130_fd_sc_hd__a22o_1
*I *3358:A I *D sky130_fd_sc_hd__dlygate4sd3_1
*I *3264:Q O *D sky130_fd_sc_hd__dfxtp_1
*CAP
1 *2727:A1 0.000114477
2 *3358:A 0
3 *3264:Q 0.00041897
4 *871:10 0.000533447
5 *2618:A1 *2727:A1 0
6 *2619:A *2727:A1 0
7 *2727:B2 *2727:A1 2.30657e-05
8 *2727:B2 *871:10 1.56261e-05
9 *2805:B1 *2727:A1 0
10 *2923:B *2727:A1 0.000140912
11 *3264:D *871:10 0.000262996
*RES
1 *3264:Q *871:10 9.885 
2 *871:10 *3358:A 3.6 
3 *871:10 *2727:A1 6 
*END

*D_NET *872 0.0026919
*CONN
*I *3398:A I *D sky130_fd_sc_hd__dlygate4sd3_1
*I *2771:A I *D sky130_fd_sc_hd__and3_1
*I *3191:Q O *D sky130_fd_sc_hd__dfxtp_1
*CAP
1 *3398:A 0.000193408
2 *2771:A 0.000435514
3 *3191:Q 0
4 *872:4 0.000628921
5 *2905:A *2771:A 0.000334617
6 *3015:A1 *2771:A 0.000116927
7 *3015:S *2771:A 0.000334717
8 *3096:A0 *2771:A 4.77807e-05
9 *194:26 *2771:A 4.89395e-05
10 *194:41 *2771:A 8.9257e-05
11 *202:8 *2771:A 0.000159115
12 *202:14 *2771:A 2.84607e-05
13 *321:28 *3398:A 9.87313e-05
14 *759:12 *2771:A 0.000175509
*RES
1 *3191:Q *872:4 1.6 
2 *872:4 *2771:A 17.63 
3 *872:4 *3398:A 4.48 
*END

*D_NET *873 0.00161234
*CONN
*I *2708:A I *D sky130_fd_sc_hd__and3_1
*I *3402:A I *D sky130_fd_sc_hd__dlygate4sd3_1
*I *3190:Q O *D sky130_fd_sc_hd__dfxtp_1
*CAP
1 *2708:A 6.85985e-05
2 *3402:A 0
3 *3190:Q 0.000265881
4 *873:14 0.000334479
5 *3037:A *873:14 8.01592e-05
6 *3058:A *2708:A 1.10085e-05
7 *3468:A *873:14 4.77719e-05
8 *194:26 *873:14 5.11528e-05
9 *336:25 *873:14 1.03423e-05
10 *352:34 *2708:A 0.000240854
11 *352:34 *873:14 8.23457e-05
12 *403:49 *873:14 0.000106377
13 *447:12 *2708:A 0.000229867
14 *447:12 *873:14 8.35068e-05
*RES
1 *3190:Q *873:14 9.95 
2 *873:14 *3402:A 1.6 
3 *873:14 *2708:A 4.39 
*END

*D_NET *874 0.00285029
*CONN
*I *2795:A I *D sky130_fd_sc_hd__and3_1
*I *3371:A I *D sky130_fd_sc_hd__dlygate4sd3_1
*I *3189:Q O *D sky130_fd_sc_hd__dfxtp_1
*CAP
1 *2795:A 0.000238994
2 *3371:A 5.36895e-05
3 *3189:Q 0.000150307
4 *874:8 0.00044299
5 *2795:A *2796:A1 0.000230002
6 *2795:A *3397:A 3.57349e-05
7 *2748:A1 *3371:A 1.15688e-05
8 *2796:A2 *2795:A 0.000275981
9 *3007:A0 *2795:A 0.000110668
10 *3007:A0 *874:8 8.65961e-05
11 *3007:A1 *3371:A 0.00016163
12 *3007:S *3371:A 0.000117825
13 *3008:A *874:8 4.82863e-05
14 *207:90 *3371:A 3.57924e-05
15 *212:65 *2795:A 8.85605e-05
16 *212:67 *2795:A 0.000260868
17 *212:71 *2795:A 0.000304678
18 *212:91 *2795:A 8.67886e-05
19 *212:91 *874:8 9.87313e-05
20 *231:26 *2795:A 1.05984e-05
*RES
1 *3189:Q *874:8 4.735 
2 *874:8 *3371:A 7.745 
3 *874:8 *2795:A 9.76 
*END

*D_NET *875 0.00153557
*CONN
*I *3375:A I *D sky130_fd_sc_hd__dlygate4sd3_1
*I *2744:A I *D sky130_fd_sc_hd__and3_1
*I *3188:Q O *D sky130_fd_sc_hd__dfxtp_1
*CAP
1 *3375:A 0.000310161
2 *2744:A 2.08101e-05
3 *3188:Q 0.000176473
4 *875:6 0.000507444
5 *2744:C *3375:A 0.000108226
6 *2799:C1 *3375:A 4.11281e-05
7 *3188:CLK *3375:A 2.05056e-05
8 *3188:CLK *875:6 0.000131069
9 *3220:CLK *2744:A 0
10 *3220:CLK *3375:A 0.000122801
11 *231:38 *3375:A 5.6458e-05
12 *600:109 *3375:A 4.04983e-05
*RES
1 *3188:Q *875:6 3.775 
2 *875:6 *2744:A 1.96 
3 *875:6 *3375:A 10.19 
*END

*D_NET *876 0.0031971
*CONN
*I *3319:A I *D sky130_fd_sc_hd__dlygate4sd3_1
*I *2775:A1 I *D sky130_fd_sc_hd__a22o_1
*I *3187:Q O *D sky130_fd_sc_hd__dfxtp_1
*CAP
1 *3319:A 0.000411038
2 *2775:A1 0.000402706
3 *3187:Q 0
4 *876:4 0.000813744
5 *2730:A2 *2775:A1 0
6 *2730:A2 *3319:A 0.000116165
7 *2775:A2 *2775:A1 4.3115e-05
8 *2977:A *2775:A1 4.85669e-05
9 *3002:A *3319:A 0.000234181
10 *3003:A1 *2775:A1 0
11 *3003:S *3319:A 0.000385993
12 *3176:CLK *2775:A1 1.91597e-05
13 *3186:D *2775:A1 0
14 *3187:CLK *3319:A 7.22337e-05
15 *181:16 *2775:A1 8.41015e-06
16 *181:134 *2775:A1 0.000109884
17 *207:12 *2775:A1 0.000122331
18 *207:39 *2775:A1 4.66366e-05
19 *365:64 *2775:A1 0.000194694
20 *590:246 *2775:A1 0
21 *604:10 *2775:A1 4.62912e-05
22 *604:12 *3319:A 3.08892e-05
23 *604:14 *3319:A 1.56428e-05
24 *604:40 *2775:A1 7.5416e-05
*RES
1 *3187:Q *876:4 1.6 
2 *876:4 *2775:A1 14.465 
3 *876:4 *3319:A 13.4 
*END

*D_NET *877 0.0034197
*CONN
*I *3360:A I *D sky130_fd_sc_hd__dlygate4sd3_1
*I *2717:A1 I *D sky130_fd_sc_hd__a22o_1
*I *3186:Q O *D sky130_fd_sc_hd__dfxtp_1
*CAP
1 *3360:A 0.000760513
2 *2717:A1 0.000599202
3 *3186:Q 0
4 *877:4 0.00135972
5 *3001:A0 *3360:A 0.000106195
6 *3001:A1 *3360:A 4.52778e-05
7 *3001:S *3360:A 4.66108e-05
8 *3002:A *3360:A 0.000124895
9 *3308:A *3360:A 1.4389e-05
10 *3309:A *3360:A 2.01259e-05
11 *207:39 *2717:A1 0.000208574
12 *207:47 *2717:A1 2.28636e-05
13 *208:139 *2717:A1 3.26889e-05
14 *603:8 *2717:A1 3.01353e-05
15 *603:8 *3360:A 4.8513e-05
*RES
1 *3186:Q *877:4 1.6 
2 *877:4 *2717:A1 9.13 
3 *877:4 *3360:A 12.88 
*END

*D_NET *878 0.000826129
*CONN
*I *2782:A I *D sky130_fd_sc_hd__and3_1
*I *3370:A I *D sky130_fd_sc_hd__dlygate4sd3_1
*I *3185:Q O *D sky130_fd_sc_hd__dfxtp_1
*CAP
1 *2782:A 6.01732e-05
2 *3370:A 2.6306e-05
3 *3185:Q 3.67011e-05
4 *878:8 0.00012318
5 *3370:A *2752:A1 8.23457e-05
6 *878:8 *2752:A1 7.4027e-05
7 *2752:A3 *3370:A 4.66108e-05
8 *2752:C1 *3370:A 1.91597e-05
9 *177:28 *2782:A 3.57768e-05
10 *177:28 *878:8 2.68721e-05
11 *218:112 *2782:A 0.000104287
12 *218:126 *2782:A 3.09233e-05
13 *218:126 *878:8 0.000116158
14 *411:14 *2782:A 1.26626e-05
15 *619:39 *2782:A 3.09451e-05
*RES
1 *3185:Q *878:8 4.98 
2 *878:8 *3370:A 4.395 
3 *878:8 *2782:A 5.49 
*END

*D_NET *879 0.00286664
*CONN
*I *2752:A1 I *D sky130_fd_sc_hd__a311o_1
*I *3408:A I *D sky130_fd_sc_hd__dlygate4sd3_1
*I *3184:Q O *D sky130_fd_sc_hd__dfxtp_1
*CAP
1 *2752:A1 0.000310134
2 *3408:A 0.00016017
3 *3184:Q 4.72347e-05
4 *879:8 0.000517538
5 *2750:B1 *3408:A 0.000235851
6 *2752:A3 *2752:A1 8.13529e-05
7 *2752:C1 *2752:A1 5.7523e-05
8 *2996:A0 *3408:A 0.000271597
9 *2996:A1 *3408:A 0.000172303
10 *2996:S *3408:A 0.000302273
11 *2998:S *2752:A1 0
12 *3370:A *2752:A1 8.23457e-05
13 *177:28 *2752:A1 0.000126298
14 *177:28 *879:8 0.000112001
15 *218:126 *2752:A1 2.90456e-05
16 *218:126 *879:8 5.86565e-05
17 *419:61 *3408:A 0.000127457
18 *619:39 *3408:A 0.000100837
19 *878:8 *2752:A1 7.4027e-05
*RES
1 *3184:Q *879:8 4.98 
2 *879:8 *3408:A 10.26 
3 *879:8 *2752:A1 9.63 
*END

*D_NET *880 0.00232942
*CONN
*I *3443:A I *D sky130_fd_sc_hd__dlygate4sd3_1
*I *2775:B2 I *D sky130_fd_sc_hd__a22o_1
*I *3183:Q O *D sky130_fd_sc_hd__dfxtp_1
*CAP
1 *3443:A 0.000228045
2 *2775:B2 0.000321091
3 *3183:Q 0
4 *880:6 0.000549136
5 *2977:A *2775:B2 0
6 *2993:A0 *2775:B2 0.000165781
7 *2993:A0 *3443:A 6.75724e-05
8 *2993:A1 *2775:B2 0.000117832
9 *2993:A1 *3443:A 0.000189426
10 *3186:D *2775:B2 0.00020084
11 *181:32 *2775:B2 0.000195786
12 *181:134 *3443:A 0
13 *208:106 *2775:B2 1.93765e-05
14 *421:32 *2775:B2 2.76276e-05
15 *430:95 *3443:A 0.000164686
16 *442:108 *3443:A 4.82919e-05
17 *603:21 *2775:B2 3.39349e-05
*RES
1 *3183:Q *880:6 3.6 
2 *880:6 *2775:B2 11.655 
3 *880:6 *3443:A 8.775 
*END

*D_NET *881 0.0014451
*CONN
*I *3425:A I *D sky130_fd_sc_hd__dlygate4sd3_1
*I *2717:B2 I *D sky130_fd_sc_hd__a22o_1
*I *3182:Q O *D sky130_fd_sc_hd__dfxtp_1
*CAP
1 *3425:A 6.76739e-05
2 *2717:B2 0.000139978
3 *3182:Q 4.88978e-05
4 *881:10 0.000256549
5 *2991:A1 *2717:B2 6.83659e-05
6 *3022:A *2717:B2 0.000122337
7 *3022:A *3425:A 0.000148084
8 *3032:A *881:10 0.000162325
9 *181:32 *3425:A 1.83847e-05
10 *197:108 *2717:B2 1.90662e-05
11 *197:108 *3425:A 3.0807e-05
12 *208:139 *2717:B2 0.000118527
13 *421:32 *881:10 8.97564e-05
14 *433:10 *2717:B2 0.000140912
15 *445:89 *2717:B2 1.34361e-05
*RES
1 *3182:Q *881:10 7.49 
2 *881:10 *2717:B2 9.425 
3 *881:10 *3425:A 3.445 
*END

*D_NET *882 0.00246105
*CONN
*I *3380:A I *D sky130_fd_sc_hd__dlygate4sd3_1
*I *2785:A I *D sky130_fd_sc_hd__and3_1
*I *3181:Q O *D sky130_fd_sc_hd__dfxtp_1
*CAP
1 *3380:A 0.000217768
2 *2785:A 0.000185534
3 *3181:Q 0.000101299
4 *882:8 0.000504601
5 *2781:A *882:8 3.34652e-05
6 *2987:A0 *2785:A 3.66286e-05
7 *3068:A0 *2785:A 0.000141606
8 *3068:A0 *3380:A 0.000223727
9 *3238:CLK *3380:A 0.000382764
10 *191:10 *2785:A 1.07797e-05
11 *419:14 *2785:A 0.000160651
12 *419:14 *3380:A 0.000227543
13 *430:30 *2785:A 0.00023468
*RES
1 *3181:Q *882:8 4.74 
2 *882:8 *2785:A 8.01 
3 *882:8 *3380:A 9.81 
*END

*D_NET *883 0.0018241
*CONN
*I *3403:A I *D sky130_fd_sc_hd__dlygate4sd3_1
*I *2754:A I *D sky130_fd_sc_hd__and3_1
*I *3180:Q O *D sky130_fd_sc_hd__dfxtp_1
*CAP
1 *3403:A 0.00024633
2 *2754:A 0.000536365
3 *3180:Q 0
4 *883:4 0.000782695
5 *2754:C *2754:A 1.70906e-05
6 *2984:S *2754:A 3.00381e-05
7 *419:61 *2754:A 0.000211577
*RES
1 *3180:Q *883:4 1.6 
2 *883:4 *2754:A 9.655 
3 *883:4 *3403:A 8.72 
*END

*D_NET *884 0.00361255
*CONN
*I *3363:A I *D sky130_fd_sc_hd__dlygate4sd3_1
*I *2790:A1 I *D sky130_fd_sc_hd__a31o_1
*I *3179:Q O *D sky130_fd_sc_hd__dfxtp_1
*CAP
1 *3363:A 0
2 *2790:A1 0.000786254
3 *3179:Q 0.000156423
4 *884:10 0.000942677
5 *2630:S *2790:A1 8.35118e-05
6 *2631:A *2790:A1 0.000274689
7 *2763:B2 *2790:A1 0.000155489
8 *2790:A2 *2790:A1 4.77807e-05
9 *2791:D *2790:A1 9.18535e-05
10 *2877:B *2790:A1 0.000203617
11 *3179:D *2790:A1 2.11084e-05
12 *3179:D *884:10 0.000131549
13 *3268:CLK *2790:A1 5.11708e-05
14 *3268:D *2790:A1 1.43717e-05
15 *215:86 *2790:A1 8.35157e-05
16 *316:46 *2790:A1 0.000240128
17 *328:149 *2790:A1 0.000136384
18 *532:18 *2790:A1 4.77719e-05
19 *571:18 *2790:A1 8.23457e-05
20 *827:10 *2790:A1 6.19133e-05
*RES
1 *3179:Q *884:10 4.93 
2 *884:10 *2790:A1 22.25 
3 *884:10 *3363:A 1.6 
*END

*D_NET *885 0.00212362
*CONN
*I *2755:A1 I *D sky130_fd_sc_hd__a31o_1
*I *3331:A I *D sky130_fd_sc_hd__dlygate4sd3_1
*I *3178:Q O *D sky130_fd_sc_hd__dfxtp_1
*CAP
1 *2755:A1 0.000535358
2 *3331:A 0
3 *3178:Q 0.000157513
4 *885:10 0.000692871
5 *2984:A1 *2755:A1 9.22206e-05
6 *2985:A *2755:A1 0.000235171
7 *3393:A *2755:A1 0.000324024
8 *593:57 *885:10 8.64599e-05
*RES
1 *3178:Q *885:10 6.03 
2 *885:10 *3331:A 3.6 
3 *885:10 *2755:A1 14.55 
*END

*D_NET *886 0.00365755
*CONN
*I *3359:A I *D sky130_fd_sc_hd__dlygate4sd3_1
*I *2770:A1 I *D sky130_fd_sc_hd__a311o_1
*I *3177:Q O *D sky130_fd_sc_hd__dfxtp_1
*CAP
1 *3359:A 0.00024975
2 *2770:A1 0.000797824
3 *3177:Q 6.84432e-05
4 *886:10 0.00111602
5 *3359:A *887:10 6.33103e-05
6 *2730:A2 *2770:A1 0
7 *2730:A2 *3359:A 0
8 *2770:A3 *2770:A1 4.60061e-05
9 *2770:B1 *2770:A1 5.19006e-06
10 *2778:A *2770:A1 6.03305e-05
11 *2778:B *2770:A1 2.7725e-05
12 *2778:C *2770:A1 2.70283e-05
13 *2778:D *2770:A1 2.87686e-05
14 *2974:A0 *2770:A1 7.01359e-05
15 *3001:A1 *2770:A1 9.51969e-05
16 *3001:A1 *3359:A 8.21687e-05
17 *3085:A *886:10 4.88478e-05
18 *207:12 *3359:A 0.000341106
19 *321:34 *2770:A1 1.88602e-05
20 *369:74 *2770:A1 0.000510842
*RES
1 *3177:Q *886:10 4.755 
2 *886:10 *2770:A1 17.1 
3 *886:10 *3359:A 8.7 
*END

*D_NET *887 0.00425517
*CONN
*I *3322:A I *D sky130_fd_sc_hd__dlygate4sd3_1
*I *2707:A1 I *D sky130_fd_sc_hd__a31o_1
*I *3176:Q O *D sky130_fd_sc_hd__dfxtp_1
*CAP
1 *3322:A 0
2 *2707:A1 0.000577647
3 *3176:Q 0.000146809
4 *887:10 0.000724456
5 *2718:B1 *2707:A1 0.000199588
6 *2777:A2 *2707:A1 5.59259e-05
7 *2973:B *2707:A1 0.00068235
8 *2974:A0 *2707:A1 0.000273541
9 *2974:S *2707:A1 6.40827e-05
10 *2975:A *2707:A1 0.000269898
11 *2976:S *2707:A1 0.000112143
12 *2976:S *887:10 0.000125286
13 *3017:B *2707:A1 0
14 *3027:A *2707:A1 4.10132e-05
15 *3027:A *887:10 0.000134475
16 *3359:A *887:10 6.33103e-05
17 *207:86 *2707:A1 1.80295e-05
18 *321:28 *2707:A1 0.000154981
19 *345:16 *2707:A1 1.52184e-05
20 *345:30 *2707:A1 4.36521e-05
21 *395:26 *2707:A1 0.00037789
22 *422:8 *2707:A1 0.000153816
23 *603:31 *2707:A1 2.10582e-05
*RES
1 *3176:Q *887:10 6.375 
2 *887:10 *2707:A1 24.1 
3 *887:10 *3322:A 3.6 
*END

*D_NET *888 0.00343399
*CONN
*I *2809:A1 I *D sky130_fd_sc_hd__a22o_1
*I *3357:A I *D sky130_fd_sc_hd__dlygate4sd3_1
*I *3175:Q O *D sky130_fd_sc_hd__dfxtp_1
*CAP
1 *2809:A1 0.000460792
2 *3357:A 0.000384714
3 *3175:Q 0.000208273
4 *888:8 0.00105378
5 *2809:A1 *2809:B2 4.11611e-05
6 *2809:A2 *2809:A1 0.000122797
7 *2810:C1 *2809:A1 6.07575e-06
8 *2879:A *2809:A1 6.65548e-05
9 *2879:A *3357:A 3.05238e-05
10 *2879:A *888:8 6.34651e-05
11 *2919:A0 *2809:A1 0.00011852
12 *2954:A0 *2809:A1 4.66108e-05
13 *2968:A1 *2809:A1 0
14 *2969:A *2809:A1 0
15 *3175:CLK *3357:A 2.30292e-05
16 *3175:D *3357:A 0.000348068
17 *351:22 *2809:A1 0.000133336
18 *351:24 *2809:A1 0.000206817
19 *416:12 *2809:A1 0.000119471
*RES
1 *3175:Q *888:8 6.12 
2 *888:8 *3357:A 10.47 
3 *888:8 *2809:A1 13.365 
*END

*D_NET *889 0.00169008
*CONN
*I *3450:A I *D sky130_fd_sc_hd__dlygate4sd3_1
*I *2732:A1 I *D sky130_fd_sc_hd__a221o_1
*I *3174:Q O *D sky130_fd_sc_hd__dfxtp_1
*CAP
1 *3450:A 0
2 *2732:A1 0.000228311
3 *3174:Q 0.00033634
4 *889:14 0.000564651
5 *2732:A1 *2732:B2 1.53053e-05
6 *889:14 *920:8 1.56908e-05
7 *2732:A2 *2732:A1 7.48159e-05
8 *2732:C1 *2732:A1 8.67626e-05
9 *2732:C1 *889:14 0.000127845
10 *2879:A *889:14 8.36537e-05
11 *2919:A0 *889:14 8.52845e-05
12 *2966:A1 *889:14 7.14241e-05
13 *2967:A *889:14 0
*RES
1 *3174:Q *889:14 11.645 
2 *889:14 *2732:A1 5.905 
3 *889:14 *3450:A 1.6 
*END

*D_NET *890 0.00172302
*CONN
*I *2810:A1 I *D sky130_fd_sc_hd__a221o_1
*I *3333:A I *D sky130_fd_sc_hd__dlygate4sd3_1
*I *3173:Q O *D sky130_fd_sc_hd__dfxtp_1
*CAP
1 *2810:A1 0.000131004
2 *3333:A 3.32605e-05
3 *3173:Q 0.000312745
4 *890:12 0.000477009
5 *890:12 *3445:A 0.000344569
6 *2810:A2 *2810:A1 2.87433e-05
7 *2810:B1 *2810:A1 5.83121e-06
8 *2962:A0 *2810:A1 6.64516e-05
9 *2962:A0 *3333:A 8.57024e-05
10 *2963:A *2810:A1 8.23457e-05
11 *350:48 *890:12 2.16917e-05
12 *351:16 *890:12 9.14049e-05
13 *356:14 *890:12 3.39151e-05
14 *359:96 *2810:A1 8.34281e-06
*RES
1 *3173:Q *890:12 10.28 
2 *890:12 *3333:A 2.755 
3 *890:12 *2810:A1 4.12 
*END

*D_NET *891 0.00315695
*CONN
*I *3445:A I *D sky130_fd_sc_hd__dlygate4sd3_1
*I *2737:A1 I *D sky130_fd_sc_hd__a22o_1
*I *3172:Q O *D sky130_fd_sc_hd__dfxtp_1
*CAP
1 *3445:A 0.000162201
2 *2737:A1 0.000525654
3 *3172:Q 2.09808e-05
4 *891:6 0.000708836
5 *2737:A2 *2737:A1 0.000344686
6 *2738:C *2737:A1 8.65905e-05
7 *2762:A *2737:A1 4.99619e-05
8 *2810:C1 *3445:A 3.25831e-05
9 *2963:A *3445:A 6.74403e-05
10 *3172:D *2737:A1 7.53557e-05
11 *187:98 *2737:A1 2.0514e-05
12 *350:48 *2737:A1 0.000233568
13 *350:48 *3445:A 0.000370048
14 *356:14 *3445:A 0.000113964
15 *890:12 *3445:A 0.000344569
*RES
1 *3172:Q *891:6 1.96 
2 *891:6 *2737:A1 11.365 
3 *891:6 *3445:A 11.555 
*END

*D_NET *892 0.0019419
*CONN
*I *2804:A1 I *D sky130_fd_sc_hd__a21o_1
*I *3455:A I *D sky130_fd_sc_hd__dlygate4sd3_1
*I *3263:Q O *D sky130_fd_sc_hd__dfxtp_1
*CAP
1 *2804:A1 8.97094e-05
2 *3455:A 2.08101e-05
3 *3263:Q 0.000497311
4 *892:8 0.00060783
5 *2557:B *892:8 0.000232791
6 *2611:A *2804:A1 8.8266e-05
7 *2804:B1 *2804:A1 0.000122337
8 *2808:A2 *2804:A1 1.46744e-05
9 *2808:A2 *3455:A 0
10 *2808:A2 *892:8 0.000122155
11 *3263:CLK *2804:A1 3.23663e-05
12 *3263:CLK *892:8 3.08022e-05
13 *3263:D *892:8 8.28433e-05
*RES
1 *3263:Q *892:8 9.655 
2 *892:8 *3455:A 1.96 
3 *892:8 *2804:A1 3.775 
*END

*D_NET *893 0.00778464
*CONN
*I *2760:A1 I *D sky130_fd_sc_hd__a311o_1
*I *3366:A I *D sky130_fd_sc_hd__dlygate4sd3_1
*I *3262:Q O *D sky130_fd_sc_hd__dfxtp_1
*CAP
1 *2760:A1 0.00209982
2 *3366:A 0
3 *3262:Q 0.000234406
4 *893:12 0.00233423
5 *2760:A1 *918:6 8.4546e-05
6 *2577:A *893:12 8.40325e-05
7 *2805:B1 *893:12 0.000139933
8 *2808:A2 *893:12 0
9 *2819:A1 *2760:A1 1.85674e-05
10 *2887:A *2760:A1 0.000197264
11 *2888:A1 *2760:A1 0.00026784
12 *2935:B *2760:A1 0.000156009
13 *3149:CLK *2760:A1 0.000348906
14 *3149:D *2760:A1 8.76265e-05
15 *3260:CLK *2760:A1 0.000575178
16 *3261:D *2760:A1 3.1562e-06
17 *231:116 *2760:A1 0.000272462
18 *299:32 *2760:A1 7.54841e-05
19 *600:37 *2760:A1 0.000711794
20 *737:36 *2760:A1 0
21 *759:34 *2760:A1 9.33942e-05
*RES
1 *3262:Q *893:12 9.41 
2 *893:12 *3366:A 1.6 
3 *893:12 *2760:A1 37.01 
*END

*D_NET *894 0.00164738
*CONN
*I *2810:B2 I *D sky130_fd_sc_hd__a221o_1
*I *3350:A I *D sky130_fd_sc_hd__dlygate4sd3_1
*I *3171:Q O *D sky130_fd_sc_hd__dfxtp_1
*CAP
1 *2810:B2 0.00043528
2 *3350:A 0
3 *3171:Q 0.000138582
4 *894:10 0.000573862
5 *2639:A *2810:B2 0
6 *2641:A *2810:B2 0
7 *2810:B1 *2810:B2 5.4155e-06
8 *2810:C1 *2810:B2 0
9 *2954:A1 *894:10 2.01737e-05
10 *350:20 *2810:B2 0.000273229
11 *351:150 *2810:B2 9.14049e-05
12 *359:96 *2810:B2 0.000109437
13 *592:28 *2810:B2 0
14 *592:87 *2810:B2 0
15 *592:102 *2810:B2 0
*RES
1 *3171:Q *894:10 5.685 
2 *894:10 *3350:A 3.6 
3 *894:10 *2810:B2 12.3038 
*END

*D_NET *895 0.00199873
*CONN
*I *2731:A1 I *D sky130_fd_sc_hd__a22o_1
*I *3342:A I *D sky130_fd_sc_hd__dlygate4sd3_1
*I *3170:Q O *D sky130_fd_sc_hd__dfxtp_1
*CAP
1 *2731:A1 0.000556093
2 *3342:A 0
3 *3170:Q 0.000206315
4 *895:10 0.000762408
5 *2731:A1 *2731:B2 0.000102738
6 *2731:A2 *2731:A1 8.46818e-05
7 *2809:B1 *2731:A1 2.88357e-05
8 *2956:A1 *2731:A1 8.64599e-05
9 *2957:A *2731:A1 4.66108e-05
10 *3283:D *2731:A1 8.52972e-05
11 *693:24 *2731:A1 3.92865e-05
*RES
1 *3170:Q *895:10 6.375 
2 *895:10 *3342:A 3.6 
3 *895:10 *2731:A1 13.35 
*END

*D_NET *896 0.00150752
*CONN
*I *3401:A I *D sky130_fd_sc_hd__dlygate4sd3_1
*I *2815:A1 I *D sky130_fd_sc_hd__a22o_1
*I *3169:Q O *D sky130_fd_sc_hd__dfxtp_1
*CAP
1 *3401:A 0
2 *2815:A1 0.000243902
3 *3169:Q 0.000259007
4 *896:12 0.000502909
5 *896:12 *2732:B2 0
6 *2732:B1 *896:12 0
7 *2740:A1 *896:12 0.00013622
8 *2900:A1 *896:12 0
9 *2938:A1 *2815:A1 1.22325e-05
10 *2950:S *2815:A1 0.000134248
11 *372:14 *2815:A1 5.07293e-05
12 *374:18 *2815:A1 0.000157394
13 *374:20 *2815:A1 1.08758e-05
*RES
1 *3169:Q *896:12 10.085 
2 *896:12 *2815:A1 10.37 
3 *896:12 *3401:A 1.6 
*END

*D_NET *897 0.00175309
*CONN
*I *3395:A I *D sky130_fd_sc_hd__dlygate4sd3_1
*I *2737:B2 I *D sky130_fd_sc_hd__a22o_1
*I *3168:Q O *D sky130_fd_sc_hd__dfxtp_1
*CAP
1 *3395:A 0.000225517
2 *2737:B2 0.000118265
3 *3168:Q 2.71748e-05
4 *897:6 0.000370957
5 *2948:A0 *3395:A 0.00019608
6 *2950:S *2737:B2 7.15121e-05
7 *3150:CLK *2737:B2 0
8 *3172:D *3395:A 4.7072e-06
9 *187:100 *2737:B2 4.66108e-05
10 *328:20 *2737:B2 3.82728e-05
11 *369:132 *3395:A 0.000230656
12 *369:132 *897:6 3.12916e-05
13 *372:14 *2737:B2 0.00019703
14 *605:18 *3395:A 0.000195012
*RES
1 *3168:Q *897:6 2.215 
2 *897:6 *2737:B2 8.45 
3 *897:6 *3395:A 7.225 
*END

*D_NET *898 0.00281203
*CONN
*I *3447:A I *D sky130_fd_sc_hd__dlygate4sd3_1
*I *2812:A1 I *D sky130_fd_sc_hd__a221o_1
*I *3167:Q O *D sky130_fd_sc_hd__dfxtp_1
*CAP
1 *3447:A 0.000123509
2 *2812:A1 0.000376763
3 *3167:Q 0
4 *898:6 0.000500272
5 *2736:A2 *2812:A1 0.000151267
6 *2762:A *2812:A1 0.00013532
7 *2812:A2 *2812:A1 0.00010611
8 *2816:A *2812:A1 8.60799e-05
9 *2819:A1 *3447:A 0.000153816
10 *2942:A1 *2812:A1 0.000159747
11 *2942:S *2812:A1 9.62101e-05
12 *2942:S *3447:A 7.76064e-05
13 *187:98 *3447:A 0
14 *231:116 *2812:A1 5.02217e-05
15 *351:95 *2812:A1 0.00023468
16 *351:114 *2812:A1 8.50308e-05
17 *400:6 *3447:A 0.000153816
18 *590:86 *3447:A 0.000194251
19 *590:92 *2812:A1 9.47454e-05
20 *590:92 *3447:A 3.25831e-05
*RES
1 *3167:Q *898:6 3.6 
2 *898:6 *2812:A1 13.5 
3 *898:6 *3447:A 7.74 
*END

*D_NET *899 0.00201755
*CONN
*I *3424:A I *D sky130_fd_sc_hd__dlygate4sd3_1
*I *2736:A1 I *D sky130_fd_sc_hd__a22o_1
*I *3166:Q O *D sky130_fd_sc_hd__dfxtp_1
*CAP
1 *3424:A 3.33099e-05
2 *2736:A1 0.000370476
3 *3166:Q 0.000145762
4 *899:10 0.000549548
5 *2738:A *2736:A1 7.32791e-05
6 *2817:B1 *2736:A1 0.000270415
7 *325:16 *2736:A1 9.54469e-05
8 *325:16 *899:10 0.000171172
9 *351:95 *3424:A 9.53428e-06
10 *590:92 *899:10 2.01259e-05
11 *605:8 *2736:A1 9.54469e-05
12 *605:8 *899:10 0.000183036
*RES
1 *3166:Q *899:10 6.54 
2 *899:10 *2736:A1 10.005 
3 *899:10 *3424:A 4.215 
*END

*D_NET *900 0.00153468
*CONN
*I *2813:A1 I *D sky130_fd_sc_hd__a22o_1
*I *3417:A I *D sky130_fd_sc_hd__dlygate4sd3_1
*I *3165:Q O *D sky130_fd_sc_hd__dfxtp_1
*CAP
1 *2813:A1 0.000216767
2 *3417:A 0
3 *3165:Q 0.000193641
4 *900:12 0.000410408
5 *2813:A1 *2735:B2 3.12855e-05
6 *2813:A1 *2813:B2 0.000189049
7 *2813:A1 *906:10 8.33066e-06
8 *2813:B1 *2813:A1 3.24035e-05
9 *2921:A0 *2813:A1 5.56288e-05
10 *2921:A0 *900:12 0
11 *2938:A0 *900:12 4.77807e-05
12 *2938:S *2813:A1 4.77769e-05
13 *2938:S *900:12 0.000271125
14 *693:32 *2813:A1 3.04827e-05
*RES
1 *3165:Q *900:12 9.5 
2 *900:12 *3417:A 1.6 
3 *900:12 *2813:A1 10.295 
*END

*D_NET *901 0.00272711
*CONN
*I *2733:A1 I *D sky130_fd_sc_hd__a22o_1
*I *3321:A I *D sky130_fd_sc_hd__dlygate4sd3_1
*I *3164:Q O *D sky130_fd_sc_hd__dfxtp_1
*CAP
1 *2733:A1 0.00032394
2 *3321:A 0
3 *3164:Q 0.000412365
4 *901:16 0.000736305
5 *2733:A1 *2733:B2 6.65725e-05
6 *2733:A1 *2734:A1 5.05437e-05
7 *2733:A1 *905:12 2.30292e-05
8 *901:16 *906:10 0.000139245
9 *2733:A2 *2733:A1 0.000198939
10 *2733:B1 *2733:A1 8.8266e-05
11 *2734:B1 *2733:A1 0.000159741
12 *2919:A1 *901:16 5.53249e-06
13 *2919:S *901:16 0
14 *2920:A *901:16 1.7386e-05
15 *2921:A1 *2733:A1 1.16578e-05
16 *2921:A1 *901:16 6.65725e-05
17 *2921:S *2733:A1 1.46744e-05
18 *2921:S *901:16 0.0001249
19 *2937:A *901:16 4.9253e-06
20 *3158:D *901:16 0
21 *385:16 *2733:A1 0.000282518
*RES
1 *3164:Q *901:16 13.37 
2 *901:16 *3321:A 1.6 
3 *901:16 *2733:A1 8.965 
*END

*D_NET *902 0.0017752
*CONN
*I *3388:A I *D sky130_fd_sc_hd__dlygate4sd3_1
*I *2811:A1 I *D sky130_fd_sc_hd__a22o_1
*I *3163:Q O *D sky130_fd_sc_hd__dfxtp_1
*CAP
1 *3388:A 0
2 *2811:A1 6.47501e-05
3 *3163:Q 0.00020936
4 *902:8 0.00027411
5 *2577:A *902:8 3.17194e-05
6 *2811:A2 *902:8 7.18092e-05
7 *2932:A0 *902:8 0.000196376
8 *2932:S *902:8 0.000307825
9 *374:76 *2811:A1 0.000169616
10 *374:76 *902:8 0.000123444
11 *374:90 *902:8 2.16833e-05
12 *606:27 *2811:A1 0.00014476
13 *606:27 *902:8 0.000159747
*RES
1 *3163:Q *902:8 8.185 
2 *902:8 *2811:A1 4.255 
3 *902:8 *3388:A 1.6 
*END

*D_NET *903 0.00112454
*CONN
*I *3392:A I *D sky130_fd_sc_hd__dlygate4sd3_1
*I *2735:A1 I *D sky130_fd_sc_hd__a22o_1
*I *3162:Q O *D sky130_fd_sc_hd__dfxtp_1
*CAP
1 *3392:A 0.00026289
2 *2735:A1 2.08101e-05
3 *3162:Q 0.000114255
4 *903:6 0.000397955
5 *903:6 *2735:B2 3.00381e-05
6 *2735:A2 *3392:A 1.34503e-05
7 *2735:A2 *903:6 4.43682e-05
8 *2738:A *3392:A 2.91987e-05
9 *2893:A *3392:A 2.75229e-05
10 *208:20 *3392:A 0.00011852
11 *385:16 *3392:A 6.55328e-05
*RES
1 *3162:Q *903:6 3.085 
2 *903:6 *2735:A1 1.96 
3 *903:6 *3392:A 9.5 
*END

*D_NET *904 0.00343221
*CONN
*I *2812:B2 I *D sky130_fd_sc_hd__a221o_1
*I *3353:A I *D sky130_fd_sc_hd__dlygate4sd3_1
*I *3161:Q O *D sky130_fd_sc_hd__dfxtp_1
*CAP
1 *2812:B2 0.00107047
2 *3353:A 5.05305e-05
3 *3161:Q 0.000142192
4 *904:12 0.00126319
5 *2733:B1 *2812:B2 0
6 *2812:B1 *2812:B2 2.49708e-05
7 *2812:C1 *2812:B2 2.49708e-05
8 *2816:A *2812:B2 0.000118101
9 *2816:C *2812:B2 0.000304047
10 *2892:A1 *2812:B2 3.86607e-05
11 *2904:A *2812:B2 0
12 *2904:A *904:12 0
13 *2924:A0 *2812:B2 0
14 *2926:A0 *904:12 2.87867e-05
15 *2926:S *2812:B2 0
16 *2926:S *904:12 0
17 *2951:A *2812:B2 7.28318e-05
18 *3160:CLK *3353:A 0.0001249
19 *3160:D *2812:B2 3.39151e-05
20 *3161:CLK *904:12 2.11084e-05
21 *3168:D *2812:B2 4.75977e-05
22 *351:114 *2812:B2 6.10014e-05
23 *388:8 *2812:B2 0
24 *605:29 *2812:B2 0
25 *605:31 *2812:B2 0
26 *605:37 *904:12 4.9253e-06
27 *715:58 *2812:B2 0
*RES
1 *3161:Q *904:12 5.88 
2 *904:12 *3353:A 4.74 
3 *904:12 *2812:B2 22.305 
*END

*D_NET *905 0.0018055
*CONN
*I *2734:A1 I *D sky130_fd_sc_hd__a21o_1
*I *3412:A I *D sky130_fd_sc_hd__dlygate4sd3_1
*I *3160:Q O *D sky130_fd_sc_hd__dfxtp_1
*CAP
1 *2734:A1 0.000203792
2 *3412:A 0
3 *3160:Q 0.000222206
4 *905:12 0.000425998
5 *2734:A1 *2733:B2 8.53113e-06
6 *905:12 *2733:B2 0
7 *2733:A1 *2734:A1 5.05437e-05
8 *2733:A1 *905:12 2.30292e-05
9 *2733:A2 *2734:A1 1.73877e-05
10 *2734:B1 *2734:A1 0.00016635
11 *2919:S *905:12 3.50033e-05
12 *2936:S *905:12 9.24049e-05
13 *369:104 *905:12 0.000233925
14 *385:16 *2734:A1 0.000127389
15 *385:16 *905:12 0.000198945
16 *388:8 *2734:A1 0
*RES
1 *3160:Q *905:12 11.195 
2 *905:12 *3412:A 1.6 
3 *905:12 *2734:A1 10.835 
*END

*D_NET *906 0.00210504
*CONN
*I *2813:B2 I *D sky130_fd_sc_hd__a22o_1
*I *3348:A I *D sky130_fd_sc_hd__dlygate4sd3_1
*I *3159:Q O *D sky130_fd_sc_hd__dfxtp_1
*CAP
1 *2813:B2 0.000106547
2 *3348:A 0.000139654
3 *3159:Q 0.00038601
4 *906:10 0.00063221
5 *2733:A2 *3348:A 0.000121043
6 *2813:A1 *2813:B2 0.000189049
7 *2813:A1 *906:10 8.33066e-06
8 *2921:A0 *906:10 0
9 *2921:A1 *906:10 0
10 *2936:S *3348:A 0.000182875
11 *2937:A *906:10 1.8644e-05
12 *2938:A1 *3348:A 2.10905e-05
13 *2938:S *3348:A 0.000160342
14 *369:104 *906:10 0
15 *901:16 *906:10 0.000139245
*RES
1 *3159:Q *906:10 9.195 
2 *906:10 *3348:A 7.155 
3 *906:10 *2813:B2 6 
*END

*D_NET *907 0.00309911
*CONN
*I *2733:B2 I *D sky130_fd_sc_hd__a22o_1
*I *3327:A I *D sky130_fd_sc_hd__dlygate4sd3_1
*I *3158:Q O *D sky130_fd_sc_hd__dfxtp_1
*CAP
1 *2733:B2 0.000484165
2 *3327:A 0.000242552
3 *3158:Q 0.000411053
4 *907:8 0.00113777
5 *2733:A1 *2733:B2 6.65725e-05
6 *2733:A2 *2733:B2 0.000200615
7 *2733:B1 *2733:B2 1.61831e-05
8 *2734:A1 *2733:B2 8.53113e-06
9 *2926:S *2733:B2 0.000124649
10 *2926:S *3327:A 0.000100057
11 *2927:A *3327:A 9.92913e-05
12 *2936:A0 *2733:B2 0
13 *2936:S *2733:B2 0
14 *2951:A *2733:B2 1.65432e-05
15 *3161:CLK *907:8 0.000115474
16 *3161:D *907:8 1.33293e-05
17 *388:8 *2733:B2 6.23206e-05
18 *905:12 *2733:B2 0
*RES
1 *3158:Q *907:8 8.535 
2 *907:8 *3327:A 8.685 
3 *907:8 *2733:B2 13.32 
*END

*D_NET *908 0.00196254
*CONN
*I *3423:A I *D sky130_fd_sc_hd__dlygate4sd3_1
*I *2798:A1 I *D sky130_fd_sc_hd__a32o_1
*I *3157:Q O *D sky130_fd_sc_hd__dfxtp_1
*CAP
1 *3423:A 0.000151552
2 *2798:A1 0.000531845
3 *3157:Q 0
4 *908:4 0.000683397
5 *2572:A *2798:A1 5.51638e-05
6 *2572:A *3423:A 0.000161631
7 *2798:A3 *2798:A1 4.60814e-05
8 *2914:A *2798:A1 3.62258e-06
9 *2916:A *2798:A1 4.04213e-05
10 *3156:D *2798:A1 0.000157937
11 *395:57 *2798:A1 8.33066e-06
12 *600:18 *2798:A1 1.83756e-05
13 *600:66 *2798:A1 8.99246e-05
14 *600:81 *2798:A1 1.42598e-05
*RES
1 *3157:Q *908:4 1.6 
2 *908:4 *2798:A1 13.52 
3 *908:4 *3423:A 4.735 
*END

*D_NET *909 0.0021841
*CONN
*I *3437:A I *D sky130_fd_sc_hd__dlygate4sd3_1
*I *2747:A1 I *D sky130_fd_sc_hd__a32o_1
*I *3156:Q O *D sky130_fd_sc_hd__dfxtp_1
*CAP
1 *3437:A 0.000156054
2 *2747:A1 0.000368688
3 *3156:Q 0
4 *909:4 0.000524742
5 *2747:B1 *2747:A1 0.0001248
6 *2747:B2 *2747:A1 4.77719e-05
7 *2798:A2 *2747:A1 9.03508e-06
8 *2915:A0 *2747:A1 0
9 *2916:A *2747:A1 3.03284e-05
10 *174:83 *2747:A1 0.000121659
11 *174:104 *2747:A1 5.06382e-06
12 *183:75 *3437:A 5.82054e-05
13 *212:142 *2747:A1 0.000280557
14 *316:60 *2747:A1 0.000309415
15 *316:60 *3437:A 0.00011078
16 *369:28 *3437:A 3.70021e-05
*RES
1 *3156:Q *909:4 1.6 
2 *909:4 *2747:A1 13.19 
3 *909:4 *3437:A 8.12 
*END

*D_NET *910 0.00131881
*CONN
*I *3397:A I *D sky130_fd_sc_hd__dlygate4sd3_1
*I *2796:A1 I *D sky130_fd_sc_hd__a31o_1
*I *3155:Q O *D sky130_fd_sc_hd__dfxtp_1
*CAP
1 *3397:A 4.45854e-05
2 *2796:A1 6.08931e-05
3 *3155:Q 6.67192e-05
4 *910:10 0.000172198
5 *2744:B *910:10 0.000222806
6 *2795:A *2796:A1 0.000230002
7 *2795:A *3397:A 3.57349e-05
8 *2796:B1 *2796:A1 8.52845e-05
9 *183:75 *910:10 0.000224466
10 *212:65 *3397:A 3.83194e-05
11 *231:26 *2796:A1 2.20014e-05
12 *380:38 *2796:A1 5.24934e-05
13 *380:38 *3397:A 6.33103e-05
*RES
1 *3155:Q *910:10 8.255 
2 *910:10 *2796:A1 3.775 
3 *910:10 *3397:A 2.74 
*END

*D_NET *911 0.00189524
*CONN
*I *3391:A I *D sky130_fd_sc_hd__dlygate4sd3_1
*I *2745:A1 I *D sky130_fd_sc_hd__a31o_1
*I *3154:Q O *D sky130_fd_sc_hd__dfxtp_1
*CAP
1 *3391:A 0.000370864
2 *2745:A1 0.00021747
3 *3154:Q 0
4 *911:4 0.000588334
5 *2745:B1 *2745:A1 9.05535e-05
6 *2799:C1 *2745:A1 0
7 *2907:A0 *3391:A 1.58534e-05
8 *2907:A1 *3391:A 4.01749e-05
9 *2907:S *3391:A 0.0001947
10 *2908:A *3391:A 2.34721e-05
11 *2996:A1 *3391:A 3.12334e-05
12 *3255:D *3391:A 1.85674e-05
13 *212:142 *2745:A1 0.000223876
14 *231:38 *2745:A1 8.01442e-05
*RES
1 *3154:Q *911:4 1.6 
2 *911:4 *2745:A1 9.845 
3 *911:4 *3391:A 7.585 
*END

*D_NET *912 0.00221534
*CONN
*I *3432:A I *D sky130_fd_sc_hd__dlygate4sd3_1
*I *2815:B2 I *D sky130_fd_sc_hd__a22o_1
*I *3153:Q O *D sky130_fd_sc_hd__dfxtp_1
*CAP
1 *3432:A 0.000193858
2 *2815:B2 0.000430128
3 *3153:Q 0
4 *912:4 0.000623986
5 *2815:B1 *2815:B2 8.23457e-05
6 *2900:A1 *2815:B2 0.000307028
7 *2903:A0 *2815:B2 0.0001471
8 *2903:A0 *3432:A 4.82919e-05
9 *2926:A1 *2815:B2 0
10 *3146:CLK *2815:B2 0
11 *372:14 *2815:B2 0.000186646
12 *374:18 *2815:B2 0.000195953
*RES
1 *3153:Q *912:4 1.6 
2 *912:4 *2815:B2 16.445 
3 *912:4 *3432:A 4.48 
*END

*D_NET *913 0.00118141
*CONN
*I *3411:A I *D sky130_fd_sc_hd__dlygate4sd3_1
*I *2732:B2 I *D sky130_fd_sc_hd__a221o_1
*I *3152:Q O *D sky130_fd_sc_hd__dfxtp_1
*CAP
1 *3411:A 0
2 *2732:B2 0.000212281
3 *3152:Q 0.000239406
4 *913:10 0.000451687
5 *2732:A1 *2732:B2 1.53053e-05
6 *2732:A2 *2732:B2 1.34605e-05
7 *2732:B1 *2732:B2 9.09788e-06
8 *2919:A0 *913:10 0.000240175
9 *896:12 *2732:B2 0
*RES
1 *3152:Q *913:10 7.155 
2 *913:10 *2732:B2 7.245 
3 *913:10 *3411:A 3.6 
*END

*D_NET *914 0.00116076
*CONN
*I *3332:A I *D sky130_fd_sc_hd__dlygate4sd3_1
*I *2797:A1 I *D sky130_fd_sc_hd__a22o_1
*I *3261:Q O *D sky130_fd_sc_hd__dfxtp_1
*CAP
1 *3332:A 0
2 *2797:A1 0.000172211
3 *3261:Q 0.000164876
4 *914:8 0.000337087
5 *2797:A1 *2746:A1 3.05373e-05
6 *914:8 *2746:A1 3.1835e-05
7 *2577:A *914:8 6.4316e-05
8 *2797:A2 *2797:A1 2.86975e-05
9 *2797:B1 *2797:A1 4.89295e-05
10 *2798:B1 *2797:A1 7.23481e-05
11 *181:56 *914:8 4.99619e-05
12 *183:85 *914:8 0
13 *528:66 *2797:A1 0.000159964
*RES
1 *3261:Q *914:8 4.48 
2 *914:8 *2797:A1 9.32 
3 *914:8 *3332:A 1.6 
*END

*D_NET *915 0.00229961
*CONN
*I *3330:A I *D sky130_fd_sc_hd__dlygate4sd3_1
*I *2746:A1 I *D sky130_fd_sc_hd__a22o_1
*I *3260:Q O *D sky130_fd_sc_hd__dfxtp_1
*CAP
1 *3330:A 0.000195936
2 *2746:A1 0.000132064
3 *3260:Q 0.000115078
4 *915:10 0.000443078
5 *2577:A *2746:A1 0.000268215
6 *2607:A *915:10 4.66108e-05
7 *2797:A1 *2746:A1 3.05373e-05
8 *2798:B1 *2746:A1 0.000163992
9 *2798:B1 *3330:A 0.000345698
10 *3260:CLK *915:10 4.9253e-06
11 *181:56 *2746:A1 0.000109269
12 *181:56 *3330:A 0.000268285
13 *183:85 *2746:A1 2.68526e-05
14 *395:57 *3330:A 4.76659e-05
15 *528:28 *3330:A 1.83847e-05
16 *528:66 *2746:A1 1.32017e-05
17 *600:37 *915:10 3.79854e-05
18 *914:8 *2746:A1 3.1835e-05
*RES
1 *3260:Q *915:10 5.445 
2 *915:10 *2746:A1 8.01 
3 *915:10 *3330:A 8.85 
*END

*D_NET *916 0.000910151
*CONN
*I *3328:A I *D sky130_fd_sc_hd__dlygate4sd3_1
*I *2814:A1 I *D sky130_fd_sc_hd__a221o_1
*I *3151:Q O *D sky130_fd_sc_hd__dfxtp_1
*CAP
1 *3328:A 7.3609e-05
2 *2814:A1 2.14525e-05
3 *3151:Q 0.000143017
4 *916:6 0.000238079
5 *2814:B1 *916:6 0.00015896
6 *3150:D *3328:A 3.25831e-05
7 *208:26 *3328:A 0.000141599
8 *208:58 *3328:A 2.16917e-05
9 *208:58 *916:6 1.91597e-05
10 *385:16 *3328:A 6.00003e-05
*RES
1 *3151:Q *916:6 3.43 
2 *916:6 *2814:A1 1.96 
3 *916:6 *3328:A 7.685 
*END

*D_NET *917 0.00107642
*CONN
*I *3435:A I *D sky130_fd_sc_hd__dlygate4sd3_1
*I *2736:B2 I *D sky130_fd_sc_hd__a22o_1
*I *3150:Q O *D sky130_fd_sc_hd__dfxtp_1
*CAP
1 *3435:A 9.47958e-06
2 *2736:B2 0.000176829
3 *3150:Q 7.17654e-05
4 *917:8 0.000258074
5 *2736:A2 *2736:B2 2.97004e-06
6 *2736:B1 *2736:B2 4.77719e-05
7 *2816:A *2736:B2 0
8 *2817:A2 *2736:B2 1.7396e-05
9 *3150:CLK *917:8 0.000195488
10 *325:28 *3435:A 2.16917e-05
11 *325:28 *917:8 1.91597e-05
12 *358:28 *3435:A 4.82919e-05
13 *358:28 *917:8 0.000207506
14 *372:14 *2736:B2 0
*RES
1 *3150:Q *917:8 4.135 
2 *917:8 *2736:B2 8.195 
3 *917:8 *3435:A 2.05 
*END

*D_NET *918 0.00115121
*CONN
*I *2811:B2 I *D sky130_fd_sc_hd__a22o_1
*I *3448:A I *D sky130_fd_sc_hd__dlygate4sd3_1
*I *3149:Q O *D sky130_fd_sc_hd__dfxtp_1
*CAP
1 *2811:B2 9.29078e-05
2 *3448:A 2.08101e-05
3 *3149:Q 7.19372e-05
4 *918:6 0.000185655
5 *2760:A1 *918:6 8.4546e-05
6 *2887:A *2811:B2 7.10578e-05
7 *2887:A *918:6 2.75145e-05
8 *202:14 *2811:B2 5.64226e-05
9 *299:32 *2811:B2 0.000112349
10 *299:32 *3448:A 0
11 *299:32 *918:6 0.000270415
12 *715:58 *2811:B2 0.000157595
*RES
1 *3149:Q *918:6 4.12 
2 *918:6 *3448:A 1.96 
3 *918:6 *2811:B2 8.63 
*END

*D_NET *919 0.000709838
*CONN
*I *3381:A I *D sky130_fd_sc_hd__dlygate4sd3_1
*I *2759:A I *D sky130_fd_sc_hd__and3_1
*I *3148:Q O *D sky130_fd_sc_hd__dfxtp_1
*CAP
1 *3381:A 7.97617e-05
2 *2759:A 6.14225e-05
3 *3148:Q 7.41723e-05
4 *919:6 0.000215357
5 *2759:C *2759:A 3.61065e-05
6 *2759:C *3381:A 3.64998e-06
7 *2760:C1 *2759:A 0
8 *2811:B1 *3381:A 8.53113e-06
9 *215:130 *3381:A 0.000104842
10 *231:98 *3381:A 0.000113373
11 *359:12 *3381:A 2.8585e-06
12 *359:12 *919:6 9.76295e-06
*RES
1 *3148:Q *919:6 2.395 
2 *919:6 *2759:A 2.725 
3 *919:6 *3381:A 7.43 
*END

*D_NET *920 0.00258118
*CONN
*I *2809:B2 I *D sky130_fd_sc_hd__a22o_1
*I *3352:A I *D sky130_fd_sc_hd__dlygate4sd3_1
*I *3147:Q O *D sky130_fd_sc_hd__dfxtp_1
*CAP
1 *2809:B2 0.000216476
2 *3352:A 0.000243302
3 *3147:Q 0.000111453
4 *920:8 0.000571231
5 *2732:A2 *2809:B2 0.000103599
6 *2732:A2 *920:8 8.53113e-06
7 *2732:C1 *3352:A 0.000248997
8 *2809:A1 *2809:B2 4.11611e-05
9 *2809:A2 *2809:B2 0.000122797
10 *2810:C1 *2809:B2 4.60061e-05
11 *2878:A1 *3352:A 1.17409e-05
12 *2878:S *3352:A 1.34503e-05
13 *2879:A *920:8 0.000247567
14 *2919:A0 *920:8 0.00011852
15 *2955:A *3352:A 5.58436e-05
16 *351:20 *2809:B2 2.07338e-05
17 *351:22 *2809:B2 0.000113433
18 *351:22 *920:8 4.21314e-05
19 *351:24 *920:8 0.000199953
20 *608:37 *2809:B2 2.85623e-05
21 *889:14 *920:8 1.56908e-05
*RES
1 *3147:Q *920:8 7.785 
2 *920:8 *3352:A 7.08 
3 *920:8 *2809:B2 8.46 
*END

*D_NET *921 0.00325829
*CONN
*I *2731:B2 I *D sky130_fd_sc_hd__a22o_1
*I *3349:A I *D sky130_fd_sc_hd__dlygate4sd3_1
*I *3146:Q O *D sky130_fd_sc_hd__dfxtp_1
*CAP
1 *2731:B2 0.000419717
2 *3349:A 0.000125295
3 *3146:Q 0.000603751
4 *921:10 0.00114876
5 *2731:A1 *2731:B2 0.000102738
6 *2809:B1 *2731:B2 1.77945e-05
7 *2878:A1 *2731:B2 9.54399e-05
8 *2883:A *921:10 0.00011033
9 *2957:A *2731:B2 4.77769e-05
10 *3147:D *921:10 0.00011852
11 *592:28 *2731:B2 7.18346e-05
12 *592:30 *2731:B2 5.94427e-05
13 *592:32 *2731:B2 3.35338e-05
14 *592:32 *921:10 3.04982e-05
15 *693:24 *2731:B2 0.000272858
*RES
1 *3146:Q *921:10 12.87 
2 *921:10 *3349:A 5.43 
3 *921:10 *2731:B2 12.72 
*END

*D_NET *922 0.00164328
*CONN
*I *2814:B2 I *D sky130_fd_sc_hd__a221o_1
*I *3422:A I *D sky130_fd_sc_hd__dlygate4sd3_1
*I *3135:Q O *D sky130_fd_sc_hd__dfxtp_1
*CAP
1 *2814:B2 0.000129598
2 *3422:A 0
3 *3135:Q 9.70499e-05
4 *922:10 0.000226648
5 *2814:B1 *2814:B2 1.12643e-05
6 *2814:C1 *2814:B2 0.000175921
7 *2842:A0 *922:10 4.99619e-05
8 *2896:A *2814:B2 0.000108617
9 *2896:A *922:10 0.000141299
10 *2923:B *2814:B2 0.000270409
11 *2923:B *922:10 0.00021949
12 *181:75 *2814:B2 0.00017469
13 *208:58 *2814:B2 1.12643e-05
14 *369:10 *2814:B2 2.03356e-05
15 *369:132 *2814:B2 6.72833e-06
*RES
1 *3135:Q *922:10 4.93 
2 *922:10 *3422:A 1.6 
3 *922:10 *2814:B2 10.3737 
*END

*D_NET *923 0.00223925
*CONN
*I *3343:A I *D sky130_fd_sc_hd__dlygate4sd3_1
*I *2735:B2 I *D sky130_fd_sc_hd__a22o_1
*I *3134:Q O *D sky130_fd_sc_hd__dfxtp_1
*CAP
1 *3343:A 0
2 *2735:B2 0.000432972
3 *3134:Q 0.000109307
4 *923:8 0.000542279
5 *2735:A2 *2735:B2 8.65961e-05
6 *2813:A1 *2735:B2 3.12855e-05
7 *2814:B1 *2735:B2 0
8 *2839:A0 *923:8 1.55253e-05
9 *2895:A *2735:B2 0
10 *2921:A0 *2735:B2 7.23237e-05
11 *3151:D *2735:B2 6.8229e-05
12 *369:10 *2735:B2 0.000578407
13 *693:32 *923:8 0.000272283
14 *903:6 *2735:B2 3.00381e-05
*RES
1 *3134:Q *923:8 4.48 
2 *923:8 *2735:B2 14.915 
3 *923:8 *3343:A 1.6 
*END

*D_NET *924 0.00201063
*CONN
*I *2797:B2 I *D sky130_fd_sc_hd__a22o_1
*I *3356:A I *D sky130_fd_sc_hd__dlygate4sd3_1
*I *3259:Q O *D sky130_fd_sc_hd__dfxtp_1
*CAP
1 *2797:B2 0.000487841
2 *3356:A 0
3 *3259:Q 9.89199e-05
4 *924:8 0.000586761
5 *2797:B2 *2746:B2 0
6 *2797:B2 *925:10 0
7 *2605:A1 *924:8 4.99619e-05
8 *2838:A *2797:B2 0
9 *2839:A1 *2797:B2 0.000236648
10 *2839:A1 *924:8 0.000171296
11 *3151:CLK *2797:B2 0
12 *3162:D *2797:B2 0
13 *181:60 *2797:B2 1.5996e-05
14 *321:63 *2797:B2 0
15 *358:28 *2797:B2 0.000130205
16 *358:28 *924:8 0.000233004
17 *528:72 *2797:B2 0
18 *599:59 *2797:B2 0
*RES
1 *3259:Q *924:8 4.825 
2 *924:8 *3356:A 1.6 
3 *924:8 *2797:B2 14 
*END

*D_NET *925 0.00175342
*CONN
*I *2746:B2 I *D sky130_fd_sc_hd__a22o_1
*I *3354:A I *D sky130_fd_sc_hd__dlygate4sd3_1
*I *3258:Q O *D sky130_fd_sc_hd__dfxtp_1
*CAP
1 *2746:B2 0.000158285
2 *3354:A 1.65033e-05
3 *3258:Q 0.000264916
4 *925:10 0.000439704
5 *2557:A *3354:A 4.66108e-05
6 *2797:B1 *2746:B2 6.20952e-05
7 *2797:B2 *2746:B2 0
8 *2797:B2 *925:10 0
9 *181:60 *2746:B2 0
10 *528:66 *2746:B2 0.000321916
11 *528:66 *925:10 7.30547e-05
12 *528:72 *925:10 7.06865e-05
13 *556:8 *3354:A 2.49909e-05
14 *599:53 *925:10 0.000274659
*RES
1 *3258:Q *925:10 7.755 
2 *925:10 *3354:A 4.05 
3 *925:10 *2746:B2 7.53 
*END

*D_NET *926 0.00167263
*CONN
*I *2803:B2 I *D sky130_fd_sc_hd__a22o_1
*I *3410:A I *D sky130_fd_sc_hd__dlygate4sd3_1
*I *3257:Q O *D sky130_fd_sc_hd__dfxtp_1
*CAP
1 *2803:B2 0.000167503
2 *3410:A 4.83215e-05
3 *3257:Q 0.000203251
4 *926:8 0.000419075
5 *2598:S *926:8 0
6 *2599:A *926:8 0.000173011
7 *2601:A *926:8 7.85839e-05
8 *2725:A1 *3410:A 8.65961e-05
9 *2803:A1 *3410:A 0.000160641
10 *3334:A *2803:B2 0.000114753
11 *3334:A *926:8 1.1561e-05
12 *358:36 *2803:B2 8.26527e-05
13 *358:36 *926:8 7.45881e-05
14 *553:10 *926:8 0
15 *811:10 *926:8 5.20968e-05
*RES
1 *3257:Q *926:8 9.06 
2 *926:8 *3410:A 5.085 
3 *926:8 *2803:B2 7.14 
*END

*D_NET *927 0.00163649
*CONN
*I *2725:B2 I *D sky130_fd_sc_hd__a22o_1
*I *3405:A I *D sky130_fd_sc_hd__dlygate4sd3_1
*I *3256:Q O *D sky130_fd_sc_hd__dfxtp_1
*CAP
1 *2725:B2 0.000237027
2 *3405:A 0
3 *3256:Q 0.000373527
4 *927:10 0.000610554
5 *2578:A1 *927:10 4.80285e-05
6 *2725:A1 *2725:B2 8.59878e-05
7 *2727:B1 *2725:B2 9.5433e-05
8 *2727:B2 *2725:B2 1.89685e-05
9 *2727:B2 *927:10 6.28843e-05
10 *2896:A *927:10 4.65188e-05
11 *2923:B *2725:B2 0
12 *208:58 *2725:B2 4.82863e-05
13 *350:120 *2725:B2 0
14 *350:120 *927:10 0
15 *553:10 *2725:B2 9.27255e-06
*RES
1 *3256:Q *927:10 8.535 
2 *927:10 *3405:A 3.6 
3 *927:10 *2725:B2 7.68 
*END

*D_NET *928 0.000957883
*CONN
*I *3379:A I *D sky130_fd_sc_hd__dlygate4sd3_1
*I *2784:A I *D sky130_fd_sc_hd__and3_1
*I *3255:Q O *D sky130_fd_sc_hd__dfxtp_1
*CAP
1 *3379:A 7.51113e-05
2 *2784:A 5.25656e-05
3 *3255:Q 0
4 *928:6 0.000127677
5 *2595:A1 *2784:A 5.74016e-05
6 *2595:A1 *3379:A 3.4222e-05
7 *2761:C *3379:A 0.000158066
8 *2996:A1 *2784:A 4.77769e-05
9 *212:42 *3379:A 0.000158066
10 *231:98 *3379:A 1.73877e-05
11 *436:14 *2784:A 1.56428e-05
12 *737:36 *2784:A 9.78082e-05
13 *737:36 *3379:A 0.000116158
*RES
1 *3255:Q *928:6 3.6 
2 *928:6 *2784:A 5.175 
3 *928:6 *3379:A 6.465 
*END

*D_NET *929 0.00125525
*CONN
*I *3373:A I *D sky130_fd_sc_hd__dlygate4sd3_1
*I *2756:A I *D sky130_fd_sc_hd__and3_1
*I *3254:Q O *D sky130_fd_sc_hd__dfxtp_1
*CAP
1 *3373:A 1.6758e-05
2 *2756:A 7.36802e-05
3 *3254:Q 9.33076e-05
4 *929:12 0.000183746
5 *2593:S *3373:A 8.41384e-05
6 *2593:S *929:12 0.000194921
7 *2784:B *3373:A 7.32625e-05
8 *2784:B *929:12 0.00019608
9 *202:14 *929:12 0.000110509
10 *231:98 *2756:A 0.000116322
11 *231:98 *929:12 3.47086e-05
12 *737:36 *2756:A 7.78166e-05
*RES
1 *3254:Q *929:12 8.81 
2 *929:12 *2756:A 7.49 
3 *929:12 *3373:A 2.395 
*END

*D_NET *930 0.00237205
*CONN
*I *3454:A I *D sky130_fd_sc_hd__dlygate4sd3_1
*I *2801:A1 I *D sky130_fd_sc_hd__a22o_1
*I *3253:Q O *D sky130_fd_sc_hd__dfxtp_1
*CAP
1 *3454:A 0.000228455
2 *2801:A1 0.000526226
3 *3253:Q 0
4 *930:4 0.000754681
5 *2590:A1 *2801:A1 8.40269e-05
6 *2590:A1 *3454:A 4.99619e-05
7 *2722:A2 *2801:A1 0.000133785
8 *2722:B1 *2801:A1 0.000115444
9 *2801:A2 *2801:A1 2.16306e-05
10 *358:57 *2801:A1 0.000252645
11 *544:22 *2801:A1 4.5309e-05
12 *598:122 *2801:A1 9.24211e-05
13 *598:122 *3454:A 6.74688e-05
*RES
1 *3253:Q *930:4 1.6 
2 *930:4 *2801:A1 15.215 
3 *930:4 *3454:A 4.735 
*END

*D_NET *931 0.00172135
*CONN
*I *2721:B2 I *D sky130_fd_sc_hd__a22o_1
*I *3430:A I *D sky130_fd_sc_hd__dlygate4sd3_1
*I *3252:Q O *D sky130_fd_sc_hd__dfxtp_1
*CAP
1 *2721:B2 0.000135785
2 *3430:A 0
3 *3252:Q 0.00034192
4 *931:8 0.000477705
5 *2588:A0 *931:8 2.49909e-05
6 *2588:A1 *931:8 2.66586e-05
7 *2588:S *931:8 0.000275542
8 *2801:A2 *2721:B2 4.21973e-05
9 *2801:A2 *931:8 9.80943e-06
10 *2802:A2 *2721:B2 0.000154393
11 *3008:A *2721:B2 4.00541e-06
12 *212:91 *2721:B2 4.95266e-05
13 *212:91 *931:8 0
14 *511:96 *931:8 9.2741e-05
15 *726:38 *2721:B2 8.60799e-05
*RES
1 *3252:Q *931:8 7.585 
2 *931:8 *3430:A 1.6 
3 *931:8 *2721:B2 4.825 
*END

*D_NET *932 0.000571057
*CONN
*I *3374:A I *D sky130_fd_sc_hd__buf_1
*I *3279:Q O *D sky130_fd_sc_hd__dfrtp_1
*CAP
1 *3374:A 0.000285529
2 *3279:Q 0.000285529
3 *359:83 *3374:A 0
4 *630:8 *3374:A 0
5 *630:10 *3374:A 0
*RES
1 *3279:Q *3374:A 10.755 
*END

*D_NET *933 0.000435559
*CONN
*I *3279:D I *D sky130_fd_sc_hd__dfrtp_1
*I *2678:X O *D sky130_fd_sc_hd__clkbuf_1
*CAP
1 *3279:D 0.000132798
2 *2678:X 0.000132798
3 *3280:RESET_B *3279:D 0.000105542
4 *3301:A *3279:D 0
5 *593:34 *3279:D 6.4422e-05
*RES
1 *2678:X *3279:D 10.365 
*END
