*SPEF "ieee 1481-1999"
*DESIGN "bist_top"
*DATE "11:11:11 Fri 11 11, 1111"
*VENDOR "OpenRCX"
*PROGRAM "Parallel Extraction"
*VERSION "1.0"
*DESIGN_FLOW "NAME_SCOPE LOCAL" "PIN_CAP NONE"
*DIVIDER /
*DELIMITER :
*BUS_DELIMITER []
*T_UNIT 1 NS
*C_UNIT 1 PF
*R_UNIT 1 OHM
*L_UNIT 1 HENRY

*NAME_MAP
*3 clk
*4 done
*5 pass_fail
*6 rst_n
*7 start
*8 _0000_
*9 _0001_
*10 _0002_
*11 _0003_
*12 _0004_
*13 _0005_
*14 _0006_
*15 _0007_
*16 _0008_
*17 _0009_
*18 _0010_
*19 _0011_
*20 _0012_
*21 _0013_
*22 _0014_
*23 _0015_
*24 _0016_
*25 _0017_
*26 _0018_
*27 _0019_
*28 _0020_
*29 _0021_
*30 _0022_
*31 _0023_
*32 _0024_
*33 _0025_
*34 _0026_
*35 _0027_
*36 _0028_
*37 _0029_
*38 _0030_
*39 _0031_
*40 _0032_
*41 _0033_
*42 _0034_
*43 _0035_
*44 _0036_
*45 _0037_
*46 _0038_
*47 _0039_
*48 _0040_
*49 _0041_
*50 _0042_
*51 _0043_
*52 _0044_
*53 _0045_
*54 _0046_
*55 _0047_
*56 _0048_
*57 _0049_
*58 _0050_
*59 _0051_
*60 _0052_
*61 _0053_
*62 _0054_
*63 _0055_
*64 _0056_
*65 _0057_
*66 _0058_
*67 _0059_
*68 _0060_
*69 _0061_
*70 _0062_
*71 _0063_
*72 _0064_
*73 _0065_
*74 _0066_
*75 _0067_
*76 _0068_
*77 _0069_
*78 _0070_
*79 _0071_
*80 _0072_
*81 _0073_
*82 _0074_
*83 _0075_
*84 _0076_
*85 _0077_
*86 _0078_
*87 _0079_
*88 _0080_
*89 _0081_
*90 _0082_
*91 _0083_
*92 _0084_
*93 _0085_
*94 _0086_
*95 _0087_
*96 _0088_
*97 _0089_
*98 _0090_
*99 _0091_
*100 _0092_
*101 _0093_
*102 _0094_
*103 _0095_
*104 _0096_
*105 _0097_
*106 _0098_
*107 _0099_
*108 _0100_
*109 _0101_
*110 _0102_
*111 _0103_
*112 _0104_
*113 _0105_
*114 _0106_
*115 _0107_
*116 _0108_
*117 _0109_
*118 _0110_
*119 _0111_
*120 _0112_
*121 _0113_
*122 _0114_
*123 _0115_
*124 _0116_
*125 _0117_
*126 _0118_
*127 _0119_
*128 _0120_
*129 _0121_
*130 _0122_
*131 _0123_
*132 _0124_
*133 _0125_
*134 _0126_
*135 _0127_
*136 _0128_
*137 _0129_
*138 _0130_
*139 _0131_
*140 _0132_
*141 _0133_
*142 _0134_
*143 _0135_
*144 _0136_
*145 _0137_
*146 _0138_
*147 _0139_
*148 _0140_
*149 _0141_
*150 _0142_
*151 _0143_
*152 _0144_
*153 _0145_
*154 _0146_
*155 _0147_
*156 _0148_
*157 _0149_
*158 _0150_
*159 _0151_
*160 _0152_
*161 _0153_
*162 _0154_
*163 _0155_
*164 _0156_
*165 _0157_
*166 _0158_
*167 _0159_
*168 _0160_
*169 _0161_
*170 _0162_
*171 _0163_
*172 _0164_
*173 _0165_
*174 _0166_
*175 _0167_
*176 _0168_
*177 _0169_
*178 _0170_
*179 _0171_
*180 _0172_
*181 _0173_
*182 _0174_
*183 _0175_
*184 _0176_
*185 _0177_
*186 _0178_
*187 _0179_
*188 _0180_
*189 _0181_
*190 _0182_
*191 _0183_
*192 _0184_
*193 _0185_
*194 _0186_
*195 _0187_
*196 _0188_
*197 _0189_
*198 _0190_
*199 _0191_
*200 _0192_
*201 _0193_
*202 _0194_
*203 _0195_
*204 _0196_
*205 _0197_
*206 _0198_
*207 _0199_
*208 _0200_
*209 _0201_
*210 _0202_
*211 _0203_
*212 _0204_
*213 _0205_
*214 _0206_
*215 _0207_
*216 _0208_
*217 _0209_
*218 _0210_
*219 _0211_
*220 _0212_
*221 _0213_
*222 _0214_
*223 _0215_
*224 _0216_
*225 _0217_
*226 _0218_
*227 _0219_
*228 _0220_
*229 _0221_
*230 _0222_
*231 _0223_
*232 _0224_
*233 _0225_
*234 _0226_
*235 _0227_
*236 _0228_
*237 _0229_
*238 _0230_
*239 _0231_
*240 _0232_
*241 _0233_
*242 _0234_
*243 _0235_
*244 _0236_
*245 _0237_
*246 _0238_
*247 _0239_
*248 _0240_
*249 _0241_
*250 _0242_
*251 _0243_
*252 _0244_
*253 _0245_
*254 _0246_
*255 _0247_
*256 _0248_
*257 _0249_
*258 _0250_
*259 _0251_
*260 _0252_
*261 _0253_
*262 _0254_
*263 _0255_
*264 _0256_
*265 _0257_
*266 _0258_
*267 _0259_
*268 _0260_
*269 _0261_
*270 _0262_
*271 _0263_
*272 _0264_
*273 _0265_
*274 _0266_
*275 _0267_
*276 _0268_
*277 _0269_
*278 _0270_
*279 _0271_
*280 _0272_
*281 _0273_
*282 _0274_
*283 _0275_
*284 _0276_
*285 _0277_
*286 _0278_
*287 _0279_
*288 _0280_
*289 _0281_
*290 _0282_
*291 _0283_
*292 _0284_
*293 _0285_
*294 _0286_
*295 _0287_
*296 _0288_
*297 _0289_
*298 _0290_
*299 _0291_
*300 _0292_
*301 _0293_
*302 _0294_
*303 _0295_
*304 _0296_
*305 _0297_
*306 _0298_
*307 _0299_
*308 _0300_
*309 _0301_
*310 _0302_
*311 _0303_
*312 _0304_
*313 _0305_
*314 _0306_
*315 _0307_
*316 _0308_
*317 _0309_
*318 _0310_
*319 _0311_
*320 _0312_
*321 _0313_
*322 _0314_
*323 _0315_
*324 _0316_
*325 _0317_
*326 _0318_
*327 _0319_
*328 _0320_
*329 _0321_
*330 _0322_
*331 _0323_
*332 _0324_
*333 _0325_
*334 _0326_
*335 _0327_
*336 _0328_
*337 _0329_
*338 _0330_
*339 _0331_
*340 _0332_
*341 _0333_
*342 _0334_
*343 _0335_
*344 _0336_
*345 _0337_
*346 _0338_
*347 _0339_
*348 _0340_
*349 _0341_
*350 _0342_
*351 _0343_
*352 _0344_
*353 _0345_
*354 _0346_
*355 _0347_
*356 _0348_
*357 _0349_
*358 _0350_
*359 _0351_
*360 _0352_
*361 _0353_
*362 _0354_
*363 _0355_
*364 _0356_
*365 _0357_
*366 _0358_
*367 _0359_
*368 _0360_
*369 _0361_
*370 _0362_
*371 _0363_
*372 _0364_
*373 _0365_
*374 _0366_
*375 _0367_
*376 _0368_
*377 _0369_
*378 _0370_
*379 _0371_
*380 _0372_
*381 _0373_
*382 _0374_
*383 _0375_
*384 _0376_
*385 _0377_
*386 _0378_
*387 _0379_
*388 _0380_
*389 _0381_
*390 _0382_
*391 _0383_
*392 _0384_
*393 _0385_
*394 _0386_
*395 _0387_
*396 _0388_
*397 _0389_
*398 _0390_
*399 _0391_
*400 _0392_
*401 _0393_
*402 _0394_
*403 _0395_
*404 _0396_
*405 _0397_
*406 _0398_
*407 _0399_
*408 _0400_
*409 _0401_
*410 _0402_
*411 _0403_
*412 _0404_
*413 _0405_
*414 _0406_
*415 _0407_
*416 _0408_
*417 _0409_
*418 _0410_
*419 _0411_
*420 _0412_
*421 _0413_
*422 _0414_
*423 _0415_
*424 _0416_
*425 _0417_
*426 _0418_
*427 _0419_
*428 _0420_
*429 _0421_
*430 _0422_
*431 _0423_
*432 _0424_
*433 _0425_
*434 _0426_
*435 _0427_
*436 _0428_
*437 _0429_
*438 _0430_
*439 _0431_
*440 _0432_
*441 _0433_
*442 _0434_
*443 _0435_
*444 _0436_
*445 _0437_
*446 _0438_
*447 _0439_
*448 _0440_
*449 _0441_
*450 _0442_
*451 _0443_
*452 _0444_
*453 _0445_
*454 _0446_
*455 _0447_
*456 _0448_
*457 _0449_
*458 _0450_
*459 _0451_
*460 _0452_
*461 _0453_
*462 _0454_
*463 _0455_
*464 _0456_
*465 _0457_
*466 _0458_
*467 _0459_
*468 _0460_
*469 _0461_
*470 _0462_
*471 _0463_
*472 _0464_
*473 _0465_
*474 _0466_
*475 _0467_
*476 _0468_
*477 _0469_
*478 _0470_
*479 _0471_
*480 _0472_
*481 _0473_
*482 _0474_
*483 _0475_
*484 _0476_
*485 _0477_
*486 _0478_
*487 _0479_
*488 _0480_
*489 _0481_
*490 _0482_
*491 _0483_
*492 _0484_
*493 _0485_
*494 _0486_
*495 _0487_
*496 _0488_
*497 _0489_
*498 _0490_
*499 _0491_
*500 _0492_
*501 _0493_
*502 _0494_
*503 _0495_
*504 _0496_
*505 _0497_
*506 _0498_
*507 _0499_
*508 _0500_
*509 _0501_
*510 _0502_
*511 _0503_
*512 _0504_
*513 _0505_
*514 _0506_
*515 _0507_
*516 _0508_
*517 _0509_
*518 _0510_
*519 _0511_
*520 _0512_
*521 _0513_
*522 _0514_
*523 _0515_
*524 _0516_
*525 _0517_
*526 _0518_
*527 _0519_
*528 _0520_
*529 _0521_
*530 _0522_
*531 _0523_
*532 _0524_
*533 _0525_
*534 _0526_
*535 _0527_
*536 _0528_
*537 _0529_
*538 _0530_
*539 _0531_
*540 _0532_
*541 _0533_
*542 _0534_
*543 _0535_
*544 _0536_
*545 _0537_
*546 _0538_
*547 _0539_
*548 _0540_
*549 _0541_
*550 _0542_
*551 _0543_
*552 _0544_
*553 _0545_
*554 _0546_
*555 _0547_
*556 _0548_
*557 _0549_
*558 _0550_
*559 _0551_
*560 _0552_
*561 _0553_
*562 _0554_
*563 _0555_
*564 _0556_
*565 _0557_
*566 _0558_
*567 _0559_
*568 _0560_
*569 _0561_
*570 _0562_
*571 _0563_
*572 _0564_
*573 _0565_
*574 _0566_
*575 _0567_
*576 _0568_
*577 _0569_
*578 _0570_
*579 _0571_
*580 _0572_
*581 _0573_
*582 _0574_
*583 _0575_
*584 _0576_
*585 _0577_
*586 _0578_
*587 _0579_
*588 _0580_
*589 _0581_
*590 clknet_0_clk
*591 clknet_4_0_0_clk
*592 clknet_4_10_0_clk
*593 clknet_4_11_0_clk
*594 clknet_4_12_0_clk
*595 clknet_4_13_0_clk
*596 clknet_4_14_0_clk
*597 clknet_4_15_0_clk
*598 clknet_4_1_0_clk
*599 clknet_4_2_0_clk
*600 clknet_4_3_0_clk
*601 clknet_4_4_0_clk
*602 clknet_4_5_0_clk
*603 clknet_4_6_0_clk
*604 clknet_4_7_0_clk
*605 clknet_4_8_0_clk
*606 clknet_4_9_0_clk
*607 net1
*608 net10
*609 net100
*610 net101
*611 net102
*612 net103
*613 net104
*614 net105
*615 net106
*616 net107
*617 net108
*618 net109
*619 net11
*620 net110
*621 net111
*622 net112
*623 net113
*624 net114
*625 net115
*626 net116
*627 net117
*628 net118
*629 net119
*630 net12
*631 net120
*632 net121
*633 net122
*634 net123
*635 net124
*636 net125
*637 net126
*638 net127
*639 net128
*640 net129
*641 net13
*642 net130
*643 net131
*644 net132
*645 net133
*646 net134
*647 net135
*648 net136
*649 net137
*650 net138
*651 net139
*652 net14
*653 net140
*654 net141
*655 net142
*656 net143
*657 net144
*658 net145
*659 net146
*660 net147
*661 net148
*662 net149
*663 net15
*664 net150
*665 net151
*666 net152
*667 net153
*668 net154
*669 net155
*670 net156
*671 net157
*672 net158
*673 net159
*674 net16
*675 net160
*676 net161
*677 net162
*678 net163
*679 net17
*680 net18
*681 net19
*682 net2
*683 net20
*684 net21
*685 net22
*686 net23
*687 net24
*688 net25
*689 net26
*690 net27
*691 net28
*692 net29
*693 net3
*694 net30
*695 net31
*696 net32
*697 net33
*698 net34
*699 net35
*700 net36
*701 net37
*702 net38
*703 net39
*704 net4
*705 net40
*706 net41
*707 net42
*708 net43
*709 net44
*710 net45
*711 net46
*712 net47
*713 net48
*714 net49
*715 net5
*716 net50
*717 net51
*718 net52
*719 net53
*720 net54
*721 net55
*722 net56
*723 net57
*724 net58
*725 net59
*726 net6
*727 net60
*728 net61
*729 net62
*730 net63
*731 net64
*732 net65
*733 net66
*734 net67
*735 net68
*736 net69
*737 net7
*738 net70
*739 net71
*740 net72
*741 net73
*742 net74
*743 net75
*744 net76
*745 net77
*746 net78
*747 net79
*748 net8
*749 net80
*750 net81
*751 net82
*752 net83
*753 net84
*754 net85
*755 net86
*756 net87
*757 net88
*758 net89
*759 net9
*760 net90
*761 net91
*762 net92
*763 net93
*764 net94
*765 net95
*766 net96
*767 net97
*768 net98
*769 net99
*770 u_addr_gen\.addr\[0\]
*771 u_addr_gen\.addr\[1\]
*772 u_addr_gen\.addr\[2\]
*773 u_addr_gen\.addr\[3\]
*774 u_addr_gen\.addr\[4\]
*775 u_addr_gen\.addr\[5\]
*776 u_addr_gen\.addr_valid
*777 u_addr_gen\.done
*778 u_addr_gen\.start
*779 u_addr_gen\.state\[0\]
*780 u_addr_gen\.state\[1\]
*781 u_comparator\.compare_done
*782 u_comparator\.enable
*783 u_comparator\.pass_fail
*784 u_comparator\.read_data\[0\]
*785 u_comparator\.read_data\[1\]
*786 u_fsm\.addr_done_seen
*787 u_fsm\.fail_latch
*788 u_fsm\.next_state\[0\]
*789 u_fsm\.next_state\[1\]
*790 u_fsm\.next_state\[2\]
*791 u_fsm\.protocol_error
*792 u_fsm\.rvalid
*793 u_fsm\.state\[0\]
*794 u_fsm\.state\[1\]
*795 u_fsm\.state\[2\]
*796 u_pattern_gen\.state_r\[0\]
*797 u_pattern_gen\.state_r\[1\]
*798 u_sram\.addr_r\[0\]
*799 u_sram\.addr_r\[1\]
*800 u_sram\.addr_r\[2\]
*801 u_sram\.addr_r\[3\]
*802 u_sram\.addr_r\[4\]
*803 u_sram\.addr_r\[5\]
*804 u_sram\.mem\[0\]\[0\]
*805 u_sram\.mem\[0\]\[1\]
*806 u_sram\.mem\[10\]\[0\]
*807 u_sram\.mem\[10\]\[1\]
*808 u_sram\.mem\[11\]\[0\]
*809 u_sram\.mem\[11\]\[1\]
*810 u_sram\.mem\[12\]\[0\]
*811 u_sram\.mem\[12\]\[1\]
*812 u_sram\.mem\[13\]\[0\]
*813 u_sram\.mem\[13\]\[1\]
*814 u_sram\.mem\[14\]\[0\]
*815 u_sram\.mem\[14\]\[1\]
*816 u_sram\.mem\[15\]\[0\]
*817 u_sram\.mem\[15\]\[1\]
*818 u_sram\.mem\[16\]\[0\]
*819 u_sram\.mem\[16\]\[1\]
*820 u_sram\.mem\[17\]\[0\]
*821 u_sram\.mem\[17\]\[1\]
*822 u_sram\.mem\[18\]\[0\]
*823 u_sram\.mem\[18\]\[1\]
*824 u_sram\.mem\[19\]\[0\]
*825 u_sram\.mem\[19\]\[1\]
*826 u_sram\.mem\[1\]\[0\]
*827 u_sram\.mem\[1\]\[1\]
*828 u_sram\.mem\[20\]\[0\]
*829 u_sram\.mem\[20\]\[1\]
*830 u_sram\.mem\[21\]\[0\]
*831 u_sram\.mem\[21\]\[1\]
*832 u_sram\.mem\[22\]\[0\]
*833 u_sram\.mem\[22\]\[1\]
*834 u_sram\.mem\[23\]\[0\]
*835 u_sram\.mem\[23\]\[1\]
*836 u_sram\.mem\[24\]\[0\]
*837 u_sram\.mem\[24\]\[1\]
*838 u_sram\.mem\[25\]\[0\]
*839 u_sram\.mem\[25\]\[1\]
*840 u_sram\.mem\[26\]\[0\]
*841 u_sram\.mem\[26\]\[1\]
*842 u_sram\.mem\[27\]\[0\]
*843 u_sram\.mem\[27\]\[1\]
*844 u_sram\.mem\[28\]\[0\]
*845 u_sram\.mem\[28\]\[1\]
*846 u_sram\.mem\[29\]\[0\]
*847 u_sram\.mem\[29\]\[1\]
*848 u_sram\.mem\[2\]\[0\]
*849 u_sram\.mem\[2\]\[1\]
*850 u_sram\.mem\[30\]\[0\]
*851 u_sram\.mem\[30\]\[1\]
*852 u_sram\.mem\[31\]\[0\]
*853 u_sram\.mem\[31\]\[1\]
*854 u_sram\.mem\[32\]\[0\]
*855 u_sram\.mem\[32\]\[1\]
*856 u_sram\.mem\[33\]\[0\]
*857 u_sram\.mem\[33\]\[1\]
*858 u_sram\.mem\[34\]\[0\]
*859 u_sram\.mem\[34\]\[1\]
*860 u_sram\.mem\[35\]\[0\]
*861 u_sram\.mem\[35\]\[1\]
*862 u_sram\.mem\[36\]\[0\]
*863 u_sram\.mem\[36\]\[1\]
*864 u_sram\.mem\[37\]\[0\]
*865 u_sram\.mem\[37\]\[1\]
*866 u_sram\.mem\[38\]\[0\]
*867 u_sram\.mem\[38\]\[1\]
*868 u_sram\.mem\[39\]\[0\]
*869 u_sram\.mem\[39\]\[1\]
*870 u_sram\.mem\[3\]\[0\]
*871 u_sram\.mem\[3\]\[1\]
*872 u_sram\.mem\[40\]\[0\]
*873 u_sram\.mem\[40\]\[1\]
*874 u_sram\.mem\[41\]\[0\]
*875 u_sram\.mem\[41\]\[1\]
*876 u_sram\.mem\[42\]\[0\]
*877 u_sram\.mem\[42\]\[1\]
*878 u_sram\.mem\[43\]\[0\]
*879 u_sram\.mem\[43\]\[1\]
*880 u_sram\.mem\[44\]\[0\]
*881 u_sram\.mem\[44\]\[1\]
*882 u_sram\.mem\[45\]\[0\]
*883 u_sram\.mem\[45\]\[1\]
*884 u_sram\.mem\[46\]\[0\]
*885 u_sram\.mem\[46\]\[1\]
*886 u_sram\.mem\[47\]\[0\]
*887 u_sram\.mem\[47\]\[1\]
*888 u_sram\.mem\[48\]\[0\]
*889 u_sram\.mem\[48\]\[1\]
*890 u_sram\.mem\[49\]\[0\]
*891 u_sram\.mem\[49\]\[1\]
*892 u_sram\.mem\[4\]\[0\]
*893 u_sram\.mem\[4\]\[1\]
*894 u_sram\.mem\[50\]\[0\]
*895 u_sram\.mem\[50\]\[1\]
*896 u_sram\.mem\[51\]\[0\]
*897 u_sram\.mem\[51\]\[1\]
*898 u_sram\.mem\[52\]\[0\]
*899 u_sram\.mem\[52\]\[1\]
*900 u_sram\.mem\[53\]\[0\]
*901 u_sram\.mem\[53\]\[1\]
*902 u_sram\.mem\[54\]\[0\]
*903 u_sram\.mem\[54\]\[1\]
*904 u_sram\.mem\[55\]\[0\]
*905 u_sram\.mem\[55\]\[1\]
*906 u_sram\.mem\[56\]\[0\]
*907 u_sram\.mem\[56\]\[1\]
*908 u_sram\.mem\[57\]\[0\]
*909 u_sram\.mem\[57\]\[1\]
*910 u_sram\.mem\[58\]\[0\]
*911 u_sram\.mem\[58\]\[1\]
*912 u_sram\.mem\[59\]\[0\]
*913 u_sram\.mem\[59\]\[1\]
*914 u_sram\.mem\[5\]\[0\]
*915 u_sram\.mem\[5\]\[1\]
*916 u_sram\.mem\[60\]\[0\]
*917 u_sram\.mem\[60\]\[1\]
*918 u_sram\.mem\[61\]\[0\]
*919 u_sram\.mem\[61\]\[1\]
*920 u_sram\.mem\[62\]\[0\]
*921 u_sram\.mem\[62\]\[1\]
*922 u_sram\.mem\[63\]\[0\]
*923 u_sram\.mem\[63\]\[1\]
*924 u_sram\.mem\[6\]\[0\]
*925 u_sram\.mem\[6\]\[1\]
*926 u_sram\.mem\[7\]\[0\]
*927 u_sram\.mem\[7\]\[1\]
*928 u_sram\.mem\[8\]\[0\]
*929 u_sram\.mem\[8\]\[1\]
*930 u_sram\.mem\[9\]\[0\]
*931 u_sram\.mem\[9\]\[1\]
*932 u_sram\.re_r
*933 u_sram\.read_req
*934 FILLER_0_0_109
*935 FILLER_0_0_113
*936 FILLER_0_0_125
*937 FILLER_0_0_137
*938 FILLER_0_0_141
*939 FILLER_0_0_153
*940 FILLER_0_0_165
*941 FILLER_0_0_169
*942 FILLER_0_0_181
*943 FILLER_0_0_193
*944 FILLER_0_0_197
*945 FILLER_0_0_209
*946 FILLER_0_0_21
*947 FILLER_0_0_221
*948 FILLER_0_0_225
*949 FILLER_0_0_237
*950 FILLER_0_0_249
*951 FILLER_0_0_253
*952 FILLER_0_0_258
*953 FILLER_0_0_27
*954 FILLER_0_0_270
*955 FILLER_0_0_278
*956 FILLER_0_0_281
*957 FILLER_0_0_29
*958 FILLER_0_0_293
*959 FILLER_0_0_305
*960 FILLER_0_0_41
*961 FILLER_0_0_53
*962 FILLER_0_0_57
*963 FILLER_0_0_69
*964 FILLER_0_0_81
*965 FILLER_0_0_85
*966 FILLER_0_0_9
*967 FILLER_0_0_97
*968 FILLER_0_10_114
*969 FILLER_0_10_126
*970 FILLER_0_10_15
*971 FILLER_0_10_173
*972 FILLER_0_10_182
*973 FILLER_0_10_190
*974 FILLER_0_10_226
*975 FILLER_0_10_249
*976 FILLER_0_10_253
*977 FILLER_0_10_27
*978 FILLER_0_10_292
*979 FILLER_0_10_3
*980 FILLER_0_10_56
*981 FILLER_0_10_77
*982 FILLER_0_10_83
*983 FILLER_0_10_85
*984 FILLER_0_10_89
*985 FILLER_0_11_107
*986 FILLER_0_11_111
*987 FILLER_0_11_113
*988 FILLER_0_11_144
*989 FILLER_0_11_149
*990 FILLER_0_11_15
*991 FILLER_0_11_161
*992 FILLER_0_11_167
*993 FILLER_0_11_181
*994 FILLER_0_11_193
*995 FILLER_0_11_197
*996 FILLER_0_11_204
*997 FILLER_0_11_216
*998 FILLER_0_11_231
*999 FILLER_0_11_235
*1000 FILLER_0_11_240
*1001 FILLER_0_11_258
*1002 FILLER_0_11_27
*1003 FILLER_0_11_279
*1004 FILLER_0_11_281
*1005 FILLER_0_11_3
*1006 FILLER_0_11_305
*1007 FILLER_0_11_35
*1008 FILLER_0_11_49
*1009 FILLER_0_11_55
*1010 FILLER_0_11_57
*1011 FILLER_0_11_65
*1012 FILLER_0_11_71
*1013 FILLER_0_11_83
*1014 FILLER_0_11_87
*1015 FILLER_0_12_118
*1016 FILLER_0_12_124
*1017 FILLER_0_12_128
*1018 FILLER_0_12_138
*1019 FILLER_0_12_149
*1020 FILLER_0_12_15
*1021 FILLER_0_12_169
*1022 FILLER_0_12_189
*1023 FILLER_0_12_195
*1024 FILLER_0_12_197
*1025 FILLER_0_12_205
*1026 FILLER_0_12_215
*1027 FILLER_0_12_227
*1028 FILLER_0_12_239
*1029 FILLER_0_12_250
*1030 FILLER_0_12_253
*1031 FILLER_0_12_265
*1032 FILLER_0_12_27
*1033 FILLER_0_12_29
*1034 FILLER_0_12_3
*1035 FILLER_0_12_305
*1036 FILLER_0_12_41
*1037 FILLER_0_12_59
*1038 FILLER_0_12_77
*1039 FILLER_0_12_85
*1040 FILLER_0_13_101
*1041 FILLER_0_13_109
*1042 FILLER_0_13_120
*1043 FILLER_0_13_135
*1044 FILLER_0_13_143
*1045 FILLER_0_13_15
*1046 FILLER_0_13_155
*1047 FILLER_0_13_167
*1048 FILLER_0_13_169
*1049 FILLER_0_13_197
*1050 FILLER_0_13_205
*1051 FILLER_0_13_225
*1052 FILLER_0_13_23
*1053 FILLER_0_13_258
*1054 FILLER_0_13_270
*1055 FILLER_0_13_278
*1056 FILLER_0_13_284
*1057 FILLER_0_13_292
*1058 FILLER_0_13_3
*1059 FILLER_0_13_305
*1060 FILLER_0_13_40
*1061 FILLER_0_13_48
*1062 FILLER_0_13_57
*1063 FILLER_0_13_91
*1064 FILLER_0_14_11
*1065 FILLER_0_14_120
*1066 FILLER_0_14_165
*1067 FILLER_0_14_17
*1068 FILLER_0_14_194
*1069 FILLER_0_14_197
*1070 FILLER_0_14_21
*1071 FILLER_0_14_221
*1072 FILLER_0_14_225
*1073 FILLER_0_14_246
*1074 FILLER_0_14_253
*1075 FILLER_0_14_261
*1076 FILLER_0_14_265
*1077 FILLER_0_14_291
*1078 FILLER_0_14_3
*1079 FILLER_0_14_302
*1080 FILLER_0_14_62
*1081 FILLER_0_14_80
*1082 FILLER_0_14_85
*1083 FILLER_0_15_111
*1084 FILLER_0_15_113
*1085 FILLER_0_15_125
*1086 FILLER_0_15_160
*1087 FILLER_0_15_169
*1088 FILLER_0_15_193
*1089 FILLER_0_15_205
*1090 FILLER_0_15_231
*1091 FILLER_0_15_237
*1092 FILLER_0_15_276
*1093 FILLER_0_15_281
*1094 FILLER_0_15_3
*1095 FILLER_0_15_303
*1096 FILLER_0_15_32
*1097 FILLER_0_15_51
*1098 FILLER_0_15_64
*1099 FILLER_0_15_68
*1100 FILLER_0_15_86
*1101 FILLER_0_16_11
*1102 FILLER_0_16_112
*1103 FILLER_0_16_124
*1104 FILLER_0_16_130
*1105 FILLER_0_16_141
*1106 FILLER_0_16_159
*1107 FILLER_0_16_173
*1108 FILLER_0_16_185
*1109 FILLER_0_16_192
*1110 FILLER_0_16_202
*1111 FILLER_0_16_206
*1112 FILLER_0_16_219
*1113 FILLER_0_16_231
*1114 FILLER_0_16_243
*1115 FILLER_0_16_247
*1116 FILLER_0_16_251
*1117 FILLER_0_16_273
*1118 FILLER_0_16_3
*1119 FILLER_0_16_304
*1120 FILLER_0_16_53
*1121 FILLER_0_16_61
*1122 FILLER_0_16_67
*1123 FILLER_0_16_76
*1124 FILLER_0_16_83
*1125 FILLER_0_16_85
*1126 FILLER_0_16_91
*1127 FILLER_0_17_124
*1128 FILLER_0_17_136
*1129 FILLER_0_17_141
*1130 FILLER_0_17_145
*1131 FILLER_0_17_15
*1132 FILLER_0_17_169
*1133 FILLER_0_17_175
*1134 FILLER_0_17_183
*1135 FILLER_0_17_19
*1136 FILLER_0_17_195
*1137 FILLER_0_17_203
*1138 FILLER_0_17_209
*1139 FILLER_0_17_221
*1140 FILLER_0_17_225
*1141 FILLER_0_17_23
*1142 FILLER_0_17_237
*1143 FILLER_0_17_245
*1144 FILLER_0_17_255
*1145 FILLER_0_17_276
*1146 FILLER_0_17_3
*1147 FILLER_0_17_305
*1148 FILLER_0_17_33
*1149 FILLER_0_17_45
*1150 FILLER_0_17_83
*1151 FILLER_0_17_95
*1152 FILLER_0_18_133
*1153 FILLER_0_18_139
*1154 FILLER_0_18_141
*1155 FILLER_0_18_15
*1156 FILLER_0_18_152
*1157 FILLER_0_18_164
*1158 FILLER_0_18_176
*1159 FILLER_0_18_184
*1160 FILLER_0_18_197
*1161 FILLER_0_18_206
*1162 FILLER_0_18_218
*1163 FILLER_0_18_246
*1164 FILLER_0_18_253
*1165 FILLER_0_18_265
*1166 FILLER_0_18_269
*1167 FILLER_0_18_27
*1168 FILLER_0_18_3
*1169 FILLER_0_18_303
*1170 FILLER_0_18_45
*1171 FILLER_0_18_49
*1172 FILLER_0_18_64
*1173 FILLER_0_18_82
*1174 FILLER_0_18_85
*1175 FILLER_0_18_97
*1176 FILLER_0_19_138
*1177 FILLER_0_19_144
*1178 FILLER_0_19_15
*1179 FILLER_0_19_151
*1180 FILLER_0_19_162
*1181 FILLER_0_19_172
*1182 FILLER_0_19_180
*1183 FILLER_0_19_194
*1184 FILLER_0_19_220
*1185 FILLER_0_19_225
*1186 FILLER_0_19_23
*1187 FILLER_0_19_246
*1188 FILLER_0_19_258
*1189 FILLER_0_19_270
*1190 FILLER_0_19_278
*1191 FILLER_0_19_29
*1192 FILLER_0_19_291
*1193 FILLER_0_19_3
*1194 FILLER_0_19_303
*1195 FILLER_0_19_39
*1196 FILLER_0_19_81
*1197 FILLER_0_19_93
*1198 FILLER_0_1_105
*1199 FILLER_0_1_111
*1200 FILLER_0_1_113
*1201 FILLER_0_1_125
*1202 FILLER_0_1_137
*1203 FILLER_0_1_148
*1204 FILLER_0_1_15
*1205 FILLER_0_1_163
*1206 FILLER_0_1_169
*1207 FILLER_0_1_181
*1208 FILLER_0_1_193
*1209 FILLER_0_1_199
*1210 FILLER_0_1_216
*1211 FILLER_0_1_225
*1212 FILLER_0_1_237
*1213 FILLER_0_1_249
*1214 FILLER_0_1_261
*1215 FILLER_0_1_27
*1216 FILLER_0_1_273
*1217 FILLER_0_1_279
*1218 FILLER_0_1_281
*1219 FILLER_0_1_293
*1220 FILLER_0_1_3
*1221 FILLER_0_1_305
*1222 FILLER_0_1_39
*1223 FILLER_0_1_51
*1224 FILLER_0_1_55
*1225 FILLER_0_1_57
*1226 FILLER_0_1_69
*1227 FILLER_0_1_81
*1228 FILLER_0_1_93
*1229 FILLER_0_20_104
*1230 FILLER_0_20_108
*1231 FILLER_0_20_126
*1232 FILLER_0_20_130
*1233 FILLER_0_20_139
*1234 FILLER_0_20_141
*1235 FILLER_0_20_15
*1236 FILLER_0_20_170
*1237 FILLER_0_20_184
*1238 FILLER_0_20_197
*1239 FILLER_0_20_21
*1240 FILLER_0_20_225
*1241 FILLER_0_20_244
*1242 FILLER_0_20_253
*1243 FILLER_0_20_265
*1244 FILLER_0_20_27
*1245 FILLER_0_20_271
*1246 FILLER_0_20_281
*1247 FILLER_0_20_289
*1248 FILLER_0_20_293
*1249 FILLER_0_20_297
*1250 FILLER_0_20_3
*1251 FILLER_0_20_38
*1252 FILLER_0_20_48
*1253 FILLER_0_20_52
*1254 FILLER_0_20_82
*1255 FILLER_0_20_92
*1256 FILLER_0_21_105
*1257 FILLER_0_21_11
*1258 FILLER_0_21_111
*1259 FILLER_0_21_113
*1260 FILLER_0_21_124
*1261 FILLER_0_21_138
*1262 FILLER_0_21_166
*1263 FILLER_0_21_185
*1264 FILLER_0_21_197
*1265 FILLER_0_21_222
*1266 FILLER_0_21_244
*1267 FILLER_0_21_256
*1268 FILLER_0_21_278
*1269 FILLER_0_21_285
*1270 FILLER_0_21_3
*1271 FILLER_0_21_300
*1272 FILLER_0_21_39
*1273 FILLER_0_21_51
*1274 FILLER_0_21_81
*1275 FILLER_0_21_93
*1276 FILLER_0_22_11
*1277 FILLER_0_22_168
*1278 FILLER_0_22_195
*1279 FILLER_0_22_212
*1280 FILLER_0_22_222
*1281 FILLER_0_22_251
*1282 FILLER_0_22_253
*1283 FILLER_0_22_261
*1284 FILLER_0_22_284
*1285 FILLER_0_22_3
*1286 FILLER_0_22_305
*1287 FILLER_0_22_46
*1288 FILLER_0_22_82
*1289 FILLER_0_22_90
*1290 FILLER_0_22_98
*1291 FILLER_0_23_102
*1292 FILLER_0_23_106
*1293 FILLER_0_23_138
*1294 FILLER_0_23_15
*1295 FILLER_0_23_150
*1296 FILLER_0_23_159
*1297 FILLER_0_23_19
*1298 FILLER_0_23_197
*1299 FILLER_0_23_201
*1300 FILLER_0_23_221
*1301 FILLER_0_23_250
*1302 FILLER_0_23_262
*1303 FILLER_0_23_270
*1304 FILLER_0_23_3
*1305 FILLER_0_23_301
*1306 FILLER_0_23_305
*1307 FILLER_0_23_45
*1308 FILLER_0_23_81
*1309 FILLER_0_23_85
*1310 FILLER_0_24_130
*1311 FILLER_0_24_139
*1312 FILLER_0_24_141
*1313 FILLER_0_24_15
*1314 FILLER_0_24_153
*1315 FILLER_0_24_157
*1316 FILLER_0_24_179
*1317 FILLER_0_24_206
*1318 FILLER_0_24_23
*1319 FILLER_0_24_250
*1320 FILLER_0_24_253
*1321 FILLER_0_24_278
*1322 FILLER_0_24_29
*1323 FILLER_0_24_290
*1324 FILLER_0_24_3
*1325 FILLER_0_24_302
*1326 FILLER_0_24_37
*1327 FILLER_0_24_79
*1328 FILLER_0_25_111
*1329 FILLER_0_25_120
*1330 FILLER_0_25_127
*1331 FILLER_0_25_147
*1332 FILLER_0_25_15
*1333 FILLER_0_25_159
*1334 FILLER_0_25_167
*1335 FILLER_0_25_188
*1336 FILLER_0_25_200
*1337 FILLER_0_25_212
*1338 FILLER_0_25_231
*1339 FILLER_0_25_243
*1340 FILLER_0_25_255
*1341 FILLER_0_25_259
*1342 FILLER_0_25_27
*1343 FILLER_0_25_281
*1344 FILLER_0_25_293
*1345 FILLER_0_25_3
*1346 FILLER_0_25_305
*1347 FILLER_0_25_35
*1348 FILLER_0_25_49
*1349 FILLER_0_25_55
*1350 FILLER_0_25_57
*1351 FILLER_0_25_69
*1352 FILLER_0_25_81
*1353 FILLER_0_25_87
*1354 FILLER_0_26_109
*1355 FILLER_0_26_117
*1356 FILLER_0_26_128
*1357 FILLER_0_26_134
*1358 FILLER_0_26_138
*1359 FILLER_0_26_15
*1360 FILLER_0_26_150
*1361 FILLER_0_26_156
*1362 FILLER_0_26_193
*1363 FILLER_0_26_203
*1364 FILLER_0_26_211
*1365 FILLER_0_26_217
*1366 FILLER_0_26_232
*1367 FILLER_0_26_244
*1368 FILLER_0_26_253
*1369 FILLER_0_26_259
*1370 FILLER_0_26_27
*1371 FILLER_0_26_286
*1372 FILLER_0_26_29
*1373 FILLER_0_26_3
*1374 FILLER_0_26_302
*1375 FILLER_0_26_41
*1376 FILLER_0_26_53
*1377 FILLER_0_26_75
*1378 FILLER_0_26_83
*1379 FILLER_0_26_85
*1380 FILLER_0_26_97
*1381 FILLER_0_27_103
*1382 FILLER_0_27_109
*1383 FILLER_0_27_113
*1384 FILLER_0_27_121
*1385 FILLER_0_27_15
*1386 FILLER_0_27_157
*1387 FILLER_0_27_191
*1388 FILLER_0_27_225
*1389 FILLER_0_27_242
*1390 FILLER_0_27_254
*1391 FILLER_0_27_27
*1392 FILLER_0_27_278
*1393 FILLER_0_27_297
*1394 FILLER_0_27_3
*1395 FILLER_0_27_305
*1396 FILLER_0_27_35
*1397 FILLER_0_27_54
*1398 FILLER_0_27_65
*1399 FILLER_0_27_72
*1400 FILLER_0_27_84
*1401 FILLER_0_27_92
*1402 FILLER_0_27_97
*1403 FILLER_0_28_102
*1404 FILLER_0_28_120
*1405 FILLER_0_28_132
*1406 FILLER_0_28_136
*1407 FILLER_0_28_149
*1408 FILLER_0_28_15
*1409 FILLER_0_28_155
*1410 FILLER_0_28_162
*1411 FILLER_0_28_166
*1412 FILLER_0_28_170
*1413 FILLER_0_28_178
*1414 FILLER_0_28_184
*1415 FILLER_0_28_190
*1416 FILLER_0_28_197
*1417 FILLER_0_28_220
*1418 FILLER_0_28_226
*1419 FILLER_0_28_238
*1420 FILLER_0_28_250
*1421 FILLER_0_28_27
*1422 FILLER_0_28_277
*1423 FILLER_0_28_29
*1424 FILLER_0_28_3
*1425 FILLER_0_28_300
*1426 FILLER_0_29_130
*1427 FILLER_0_29_142
*1428 FILLER_0_29_15
*1429 FILLER_0_29_154
*1430 FILLER_0_29_169
*1431 FILLER_0_29_173
*1432 FILLER_0_29_183
*1433 FILLER_0_29_19
*1434 FILLER_0_29_191
*1435 FILLER_0_29_221
*1436 FILLER_0_29_23
*1437 FILLER_0_29_241
*1438 FILLER_0_29_249
*1439 FILLER_0_29_281
*1440 FILLER_0_29_293
*1441 FILLER_0_29_3
*1442 FILLER_0_29_305
*1443 FILLER_0_29_34
*1444 FILLER_0_29_40
*1445 FILLER_0_29_44
*1446 FILLER_0_29_54
*1447 FILLER_0_29_65
*1448 FILLER_0_29_86
*1449 FILLER_0_2_109
*1450 FILLER_0_2_141
*1451 FILLER_0_2_15
*1452 FILLER_0_2_186
*1453 FILLER_0_2_192
*1454 FILLER_0_2_227
*1455 FILLER_0_2_239
*1456 FILLER_0_2_251
*1457 FILLER_0_2_253
*1458 FILLER_0_2_265
*1459 FILLER_0_2_27
*1460 FILLER_0_2_277
*1461 FILLER_0_2_289
*1462 FILLER_0_2_29
*1463 FILLER_0_2_3
*1464 FILLER_0_2_301
*1465 FILLER_0_2_305
*1466 FILLER_0_2_41
*1467 FILLER_0_2_53
*1468 FILLER_0_2_65
*1469 FILLER_0_2_77
*1470 FILLER_0_2_83
*1471 FILLER_0_2_85
*1472 FILLER_0_2_97
*1473 FILLER_0_30_130
*1474 FILLER_0_30_139
*1475 FILLER_0_30_150
*1476 FILLER_0_30_162
*1477 FILLER_0_30_193
*1478 FILLER_0_30_197
*1479 FILLER_0_30_237
*1480 FILLER_0_30_249
*1481 FILLER_0_30_267
*1482 FILLER_0_30_277
*1483 FILLER_0_30_289
*1484 FILLER_0_30_3
*1485 FILLER_0_30_301
*1486 FILLER_0_30_305
*1487 FILLER_0_30_38
*1488 FILLER_0_30_78
*1489 FILLER_0_31_111
*1490 FILLER_0_31_15
*1491 FILLER_0_31_163
*1492 FILLER_0_31_167
*1493 FILLER_0_31_187
*1494 FILLER_0_31_202
*1495 FILLER_0_31_233
*1496 FILLER_0_31_263
*1497 FILLER_0_31_275
*1498 FILLER_0_31_279
*1499 FILLER_0_31_281
*1500 FILLER_0_31_293
*1501 FILLER_0_31_3
*1502 FILLER_0_31_305
*1503 FILLER_0_31_73
*1504 FILLER_0_31_86
*1505 FILLER_0_31_98
*1506 FILLER_0_32_102
*1507 FILLER_0_32_126
*1508 FILLER_0_32_15
*1509 FILLER_0_32_184
*1510 FILLER_0_32_197
*1511 FILLER_0_32_203
*1512 FILLER_0_32_236
*1513 FILLER_0_32_27
*1514 FILLER_0_32_276
*1515 FILLER_0_32_288
*1516 FILLER_0_32_29
*1517 FILLER_0_32_3
*1518 FILLER_0_32_300
*1519 FILLER_0_32_67
*1520 FILLER_0_32_79
*1521 FILLER_0_32_83
*1522 FILLER_0_32_85
*1523 FILLER_0_33_105
*1524 FILLER_0_33_111
*1525 FILLER_0_33_120
*1526 FILLER_0_33_132
*1527 FILLER_0_33_138
*1528 FILLER_0_33_15
*1529 FILLER_0_33_164
*1530 FILLER_0_33_172
*1531 FILLER_0_33_184
*1532 FILLER_0_33_192
*1533 FILLER_0_33_204
*1534 FILLER_0_33_216
*1535 FILLER_0_33_225
*1536 FILLER_0_33_233
*1537 FILLER_0_33_27
*1538 FILLER_0_33_271
*1539 FILLER_0_33_279
*1540 FILLER_0_33_281
*1541 FILLER_0_33_293
*1542 FILLER_0_33_3
*1543 FILLER_0_33_305
*1544 FILLER_0_33_39
*1545 FILLER_0_33_51
*1546 FILLER_0_33_55
*1547 FILLER_0_33_57
*1548 FILLER_0_33_69
*1549 FILLER_0_33_81
*1550 FILLER_0_33_93
*1551 FILLER_0_34_105
*1552 FILLER_0_34_117
*1553 FILLER_0_34_129
*1554 FILLER_0_34_137
*1555 FILLER_0_34_141
*1556 FILLER_0_34_15
*1557 FILLER_0_34_202
*1558 FILLER_0_34_210
*1559 FILLER_0_34_218
*1560 FILLER_0_34_230
*1561 FILLER_0_34_242
*1562 FILLER_0_34_248
*1563 FILLER_0_34_263
*1564 FILLER_0_34_27
*1565 FILLER_0_34_275
*1566 FILLER_0_34_287
*1567 FILLER_0_34_29
*1568 FILLER_0_34_299
*1569 FILLER_0_34_3
*1570 FILLER_0_34_305
*1571 FILLER_0_34_41
*1572 FILLER_0_34_53
*1573 FILLER_0_34_67
*1574 FILLER_0_34_75
*1575 FILLER_0_34_80
*1576 FILLER_0_35_105
*1577 FILLER_0_35_111
*1578 FILLER_0_35_113
*1579 FILLER_0_35_123
*1580 FILLER_0_35_128
*1581 FILLER_0_35_140
*1582 FILLER_0_35_15
*1583 FILLER_0_35_169
*1584 FILLER_0_35_173
*1585 FILLER_0_35_183
*1586 FILLER_0_35_190
*1587 FILLER_0_35_237
*1588 FILLER_0_35_249
*1589 FILLER_0_35_261
*1590 FILLER_0_35_27
*1591 FILLER_0_35_273
*1592 FILLER_0_35_279
*1593 FILLER_0_35_281
*1594 FILLER_0_35_293
*1595 FILLER_0_35_3
*1596 FILLER_0_35_305
*1597 FILLER_0_35_35
*1598 FILLER_0_35_46
*1599 FILLER_0_35_52
*1600 FILLER_0_35_68
*1601 FILLER_0_35_72
*1602 FILLER_0_36_102
*1603 FILLER_0_36_136
*1604 FILLER_0_36_141
*1605 FILLER_0_36_15
*1606 FILLER_0_36_195
*1607 FILLER_0_36_217
*1608 FILLER_0_36_247
*1609 FILLER_0_36_251
*1610 FILLER_0_36_253
*1611 FILLER_0_36_265
*1612 FILLER_0_36_27
*1613 FILLER_0_36_277
*1614 FILLER_0_36_289
*1615 FILLER_0_36_29
*1616 FILLER_0_36_3
*1617 FILLER_0_36_301
*1618 FILLER_0_36_305
*1619 FILLER_0_36_66
*1620 FILLER_0_36_76
*1621 FILLER_0_36_80
*1622 FILLER_0_37_103
*1623 FILLER_0_37_137
*1624 FILLER_0_37_141
*1625 FILLER_0_37_15
*1626 FILLER_0_37_166
*1627 FILLER_0_37_169
*1628 FILLER_0_37_179
*1629 FILLER_0_37_183
*1630 FILLER_0_37_221
*1631 FILLER_0_37_243
*1632 FILLER_0_37_255
*1633 FILLER_0_37_267
*1634 FILLER_0_37_279
*1635 FILLER_0_37_281
*1636 FILLER_0_37_293
*1637 FILLER_0_37_3
*1638 FILLER_0_37_305
*1639 FILLER_0_37_55
*1640 FILLER_0_37_69
*1641 FILLER_0_37_78
*1642 FILLER_0_37_90
*1643 FILLER_0_38_138
*1644 FILLER_0_38_15
*1645 FILLER_0_38_152
*1646 FILLER_0_38_164
*1647 FILLER_0_38_176
*1648 FILLER_0_38_184
*1649 FILLER_0_38_197
*1650 FILLER_0_38_209
*1651 FILLER_0_38_221
*1652 FILLER_0_38_23
*1653 FILLER_0_38_247
*1654 FILLER_0_38_251
*1655 FILLER_0_38_253
*1656 FILLER_0_38_265
*1657 FILLER_0_38_277
*1658 FILLER_0_38_289
*1659 FILLER_0_38_3
*1660 FILLER_0_38_301
*1661 FILLER_0_38_305
*1662 FILLER_0_38_45
*1663 FILLER_0_38_78
*1664 FILLER_0_38_85
*1665 FILLER_0_38_93
*1666 FILLER_0_39_106
*1667 FILLER_0_39_136
*1668 FILLER_0_39_15
*1669 FILLER_0_39_152
*1670 FILLER_0_39_160
*1671 FILLER_0_39_166
*1672 FILLER_0_39_169
*1673 FILLER_0_39_175
*1674 FILLER_0_39_187
*1675 FILLER_0_39_195
*1676 FILLER_0_39_223
*1677 FILLER_0_39_252
*1678 FILLER_0_39_264
*1679 FILLER_0_39_27
*1680 FILLER_0_39_276
*1681 FILLER_0_39_281
*1682 FILLER_0_39_293
*1683 FILLER_0_39_3
*1684 FILLER_0_39_305
*1685 FILLER_0_39_35
*1686 FILLER_0_39_41
*1687 FILLER_0_39_54
*1688 FILLER_0_39_65
*1689 FILLER_0_39_84
*1690 FILLER_0_39_88
*1691 FILLER_0_3_105
*1692 FILLER_0_3_111
*1693 FILLER_0_3_113
*1694 FILLER_0_3_134
*1695 FILLER_0_3_15
*1696 FILLER_0_3_169
*1697 FILLER_0_3_186
*1698 FILLER_0_3_225
*1699 FILLER_0_3_237
*1700 FILLER_0_3_249
*1701 FILLER_0_3_261
*1702 FILLER_0_3_27
*1703 FILLER_0_3_273
*1704 FILLER_0_3_279
*1705 FILLER_0_3_281
*1706 FILLER_0_3_293
*1707 FILLER_0_3_3
*1708 FILLER_0_3_305
*1709 FILLER_0_3_39
*1710 FILLER_0_3_51
*1711 FILLER_0_3_55
*1712 FILLER_0_3_57
*1713 FILLER_0_3_69
*1714 FILLER_0_3_81
*1715 FILLER_0_3_93
*1716 FILLER_0_40_110
*1717 FILLER_0_40_128
*1718 FILLER_0_40_141
*1719 FILLER_0_40_15
*1720 FILLER_0_40_158
*1721 FILLER_0_40_186
*1722 FILLER_0_40_194
*1723 FILLER_0_40_224
*1724 FILLER_0_40_249
*1725 FILLER_0_40_261
*1726 FILLER_0_40_27
*1727 FILLER_0_40_273
*1728 FILLER_0_40_285
*1729 FILLER_0_40_29
*1730 FILLER_0_40_297
*1731 FILLER_0_40_3
*1732 FILLER_0_40_305
*1733 FILLER_0_40_34
*1734 FILLER_0_40_46
*1735 FILLER_0_40_54
*1736 FILLER_0_40_62
*1737 FILLER_0_40_79
*1738 FILLER_0_41_105
*1739 FILLER_0_41_110
*1740 FILLER_0_41_113
*1741 FILLER_0_41_132
*1742 FILLER_0_41_15
*1743 FILLER_0_41_160
*1744 FILLER_0_41_165
*1745 FILLER_0_41_185
*1746 FILLER_0_41_220
*1747 FILLER_0_41_248
*1748 FILLER_0_41_260
*1749 FILLER_0_41_272
*1750 FILLER_0_41_281
*1751 FILLER_0_41_293
*1752 FILLER_0_41_3
*1753 FILLER_0_41_305
*1754 FILLER_0_41_52
*1755 FILLER_0_41_74
*1756 FILLER_0_41_84
*1757 FILLER_0_41_88
*1758 FILLER_0_42_103
*1759 FILLER_0_42_113
*1760 FILLER_0_42_125
*1761 FILLER_0_42_139
*1762 FILLER_0_42_141
*1763 FILLER_0_42_15
*1764 FILLER_0_42_160
*1765 FILLER_0_42_179
*1766 FILLER_0_42_191
*1767 FILLER_0_42_195
*1768 FILLER_0_42_197
*1769 FILLER_0_42_222
*1770 FILLER_0_42_230
*1771 FILLER_0_42_247
*1772 FILLER_0_42_251
*1773 FILLER_0_42_253
*1774 FILLER_0_42_265
*1775 FILLER_0_42_27
*1776 FILLER_0_42_277
*1777 FILLER_0_42_289
*1778 FILLER_0_42_3
*1779 FILLER_0_42_301
*1780 FILLER_0_42_305
*1781 FILLER_0_42_62
*1782 FILLER_0_42_75
*1783 FILLER_0_42_83
*1784 FILLER_0_42_85
*1785 FILLER_0_42_91
*1786 FILLER_0_42_95
*1787 FILLER_0_43_102
*1788 FILLER_0_43_108
*1789 FILLER_0_43_113
*1790 FILLER_0_43_124
*1791 FILLER_0_43_136
*1792 FILLER_0_43_144
*1793 FILLER_0_43_15
*1794 FILLER_0_43_165
*1795 FILLER_0_43_169
*1796 FILLER_0_43_183
*1797 FILLER_0_43_187
*1798 FILLER_0_43_193
*1799 FILLER_0_43_209
*1800 FILLER_0_43_221
*1801 FILLER_0_43_225
*1802 FILLER_0_43_237
*1803 FILLER_0_43_249
*1804 FILLER_0_43_261
*1805 FILLER_0_43_27
*1806 FILLER_0_43_273
*1807 FILLER_0_43_279
*1808 FILLER_0_43_281
*1809 FILLER_0_43_293
*1810 FILLER_0_43_3
*1811 FILLER_0_43_305
*1812 FILLER_0_43_31
*1813 FILLER_0_43_35
*1814 FILLER_0_43_43
*1815 FILLER_0_43_54
*1816 FILLER_0_43_57
*1817 FILLER_0_43_84
*1818 FILLER_0_43_96
*1819 FILLER_0_44_111
*1820 FILLER_0_44_139
*1821 FILLER_0_44_141
*1822 FILLER_0_44_149
*1823 FILLER_0_44_15
*1824 FILLER_0_44_153
*1825 FILLER_0_44_161
*1826 FILLER_0_44_167
*1827 FILLER_0_44_179
*1828 FILLER_0_44_191
*1829 FILLER_0_44_195
*1830 FILLER_0_44_197
*1831 FILLER_0_44_209
*1832 FILLER_0_44_221
*1833 FILLER_0_44_233
*1834 FILLER_0_44_245
*1835 FILLER_0_44_251
*1836 FILLER_0_44_253
*1837 FILLER_0_44_265
*1838 FILLER_0_44_27
*1839 FILLER_0_44_277
*1840 FILLER_0_44_289
*1841 FILLER_0_44_29
*1842 FILLER_0_44_3
*1843 FILLER_0_44_301
*1844 FILLER_0_44_305
*1845 FILLER_0_44_41
*1846 FILLER_0_44_83
*1847 FILLER_0_44_93
*1848 FILLER_0_45_129
*1849 FILLER_0_45_140
*1850 FILLER_0_45_15
*1851 FILLER_0_45_151
*1852 FILLER_0_45_169
*1853 FILLER_0_45_180
*1854 FILLER_0_45_201
*1855 FILLER_0_45_213
*1856 FILLER_0_45_221
*1857 FILLER_0_45_225
*1858 FILLER_0_45_237
*1859 FILLER_0_45_249
*1860 FILLER_0_45_261
*1861 FILLER_0_45_27
*1862 FILLER_0_45_273
*1863 FILLER_0_45_279
*1864 FILLER_0_45_281
*1865 FILLER_0_45_293
*1866 FILLER_0_45_3
*1867 FILLER_0_45_305
*1868 FILLER_0_45_39
*1869 FILLER_0_45_47
*1870 FILLER_0_45_73
*1871 FILLER_0_45_84
*1872 FILLER_0_45_93
*1873 FILLER_0_46_110
*1874 FILLER_0_46_15
*1875 FILLER_0_46_153
*1876 FILLER_0_46_206
*1877 FILLER_0_46_218
*1878 FILLER_0_46_230
*1879 FILLER_0_46_242
*1880 FILLER_0_46_250
*1881 FILLER_0_46_253
*1882 FILLER_0_46_265
*1883 FILLER_0_46_27
*1884 FILLER_0_46_277
*1885 FILLER_0_46_289
*1886 FILLER_0_46_29
*1887 FILLER_0_46_3
*1888 FILLER_0_46_301
*1889 FILLER_0_46_305
*1890 FILLER_0_46_41
*1891 FILLER_0_46_53
*1892 FILLER_0_46_65
*1893 FILLER_0_46_77
*1894 FILLER_0_46_83
*1895 FILLER_0_47_113
*1896 FILLER_0_47_124
*1897 FILLER_0_47_128
*1898 FILLER_0_47_15
*1899 FILLER_0_47_207
*1900 FILLER_0_47_219
*1901 FILLER_0_47_223
*1902 FILLER_0_47_225
*1903 FILLER_0_47_237
*1904 FILLER_0_47_249
*1905 FILLER_0_47_261
*1906 FILLER_0_47_27
*1907 FILLER_0_47_273
*1908 FILLER_0_47_279
*1909 FILLER_0_47_281
*1910 FILLER_0_47_293
*1911 FILLER_0_47_3
*1912 FILLER_0_47_305
*1913 FILLER_0_47_39
*1914 FILLER_0_47_51
*1915 FILLER_0_47_55
*1916 FILLER_0_47_57
*1917 FILLER_0_47_69
*1918 FILLER_0_47_77
*1919 FILLER_0_48_105
*1920 FILLER_0_48_123
*1921 FILLER_0_48_144
*1922 FILLER_0_48_15
*1923 FILLER_0_48_194
*1924 FILLER_0_48_205
*1925 FILLER_0_48_217
*1926 FILLER_0_48_229
*1927 FILLER_0_48_241
*1928 FILLER_0_48_249
*1929 FILLER_0_48_253
*1930 FILLER_0_48_265
*1931 FILLER_0_48_27
*1932 FILLER_0_48_277
*1933 FILLER_0_48_289
*1934 FILLER_0_48_29
*1935 FILLER_0_48_3
*1936 FILLER_0_48_301
*1937 FILLER_0_48_305
*1938 FILLER_0_48_41
*1939 FILLER_0_48_53
*1940 FILLER_0_48_65
*1941 FILLER_0_48_77
*1942 FILLER_0_48_83
*1943 FILLER_0_48_88
*1944 FILLER_0_49_140
*1945 FILLER_0_49_15
*1946 FILLER_0_49_152
*1947 FILLER_0_49_164
*1948 FILLER_0_49_193
*1949 FILLER_0_49_205
*1950 FILLER_0_49_217
*1951 FILLER_0_49_223
*1952 FILLER_0_49_225
*1953 FILLER_0_49_237
*1954 FILLER_0_49_249
*1955 FILLER_0_49_261
*1956 FILLER_0_49_27
*1957 FILLER_0_49_273
*1958 FILLER_0_49_279
*1959 FILLER_0_49_281
*1960 FILLER_0_49_293
*1961 FILLER_0_49_3
*1962 FILLER_0_49_305
*1963 FILLER_0_49_39
*1964 FILLER_0_49_51
*1965 FILLER_0_49_55
*1966 FILLER_0_49_57
*1967 FILLER_0_49_69
*1968 FILLER_0_49_81
*1969 FILLER_0_49_89
*1970 FILLER_0_49_95
*1971 FILLER_0_4_109
*1972 FILLER_0_4_135
*1973 FILLER_0_4_139
*1974 FILLER_0_4_15
*1975 FILLER_0_4_150
*1976 FILLER_0_4_163
*1977 FILLER_0_4_193
*1978 FILLER_0_4_232
*1979 FILLER_0_4_244
*1980 FILLER_0_4_253
*1981 FILLER_0_4_265
*1982 FILLER_0_4_27
*1983 FILLER_0_4_277
*1984 FILLER_0_4_289
*1985 FILLER_0_4_29
*1986 FILLER_0_4_3
*1987 FILLER_0_4_301
*1988 FILLER_0_4_305
*1989 FILLER_0_4_41
*1990 FILLER_0_4_53
*1991 FILLER_0_4_65
*1992 FILLER_0_4_77
*1993 FILLER_0_4_83
*1994 FILLER_0_4_85
*1995 FILLER_0_4_97
*1996 FILLER_0_50_111
*1997 FILLER_0_50_123
*1998 FILLER_0_50_132
*1999 FILLER_0_50_141
*2000 FILLER_0_50_15
*2001 FILLER_0_50_153
*2002 FILLER_0_50_165
*2003 FILLER_0_50_177
*2004 FILLER_0_50_181
*2005 FILLER_0_50_193
*2006 FILLER_0_50_197
*2007 FILLER_0_50_209
*2008 FILLER_0_50_221
*2009 FILLER_0_50_233
*2010 FILLER_0_50_245
*2011 FILLER_0_50_251
*2012 FILLER_0_50_253
*2013 FILLER_0_50_265
*2014 FILLER_0_50_27
*2015 FILLER_0_50_277
*2016 FILLER_0_50_289
*2017 FILLER_0_50_29
*2018 FILLER_0_50_3
*2019 FILLER_0_50_301
*2020 FILLER_0_50_305
*2021 FILLER_0_50_41
*2022 FILLER_0_50_53
*2023 FILLER_0_50_65
*2024 FILLER_0_50_77
*2025 FILLER_0_50_83
*2026 FILLER_0_50_85
*2027 FILLER_0_50_97
*2028 FILLER_0_51_109
*2029 FILLER_0_51_113
*2030 FILLER_0_51_125
*2031 FILLER_0_51_137
*2032 FILLER_0_51_141
*2033 FILLER_0_51_15
*2034 FILLER_0_51_153
*2035 FILLER_0_51_165
*2036 FILLER_0_51_169
*2037 FILLER_0_51_181
*2038 FILLER_0_51_189
*2039 FILLER_0_51_195
*2040 FILLER_0_51_197
*2041 FILLER_0_51_209
*2042 FILLER_0_51_221
*2043 FILLER_0_51_225
*2044 FILLER_0_51_237
*2045 FILLER_0_51_249
*2046 FILLER_0_51_253
*2047 FILLER_0_51_265
*2048 FILLER_0_51_27
*2049 FILLER_0_51_277
*2050 FILLER_0_51_281
*2051 FILLER_0_51_29
*2052 FILLER_0_51_293
*2053 FILLER_0_51_3
*2054 FILLER_0_51_305
*2055 FILLER_0_51_41
*2056 FILLER_0_51_53
*2057 FILLER_0_51_57
*2058 FILLER_0_51_69
*2059 FILLER_0_51_81
*2060 FILLER_0_51_85
*2061 FILLER_0_51_97
*2062 FILLER_0_5_105
*2063 FILLER_0_5_111
*2064 FILLER_0_5_129
*2065 FILLER_0_5_139
*2066 FILLER_0_5_148
*2067 FILLER_0_5_15
*2068 FILLER_0_5_185
*2069 FILLER_0_5_194
*2070 FILLER_0_5_241
*2071 FILLER_0_5_253
*2072 FILLER_0_5_265
*2073 FILLER_0_5_27
*2074 FILLER_0_5_277
*2075 FILLER_0_5_281
*2076 FILLER_0_5_293
*2077 FILLER_0_5_3
*2078 FILLER_0_5_305
*2079 FILLER_0_5_39
*2080 FILLER_0_5_51
*2081 FILLER_0_5_55
*2082 FILLER_0_5_57
*2083 FILLER_0_5_69
*2084 FILLER_0_5_81
*2085 FILLER_0_5_93
*2086 FILLER_0_6_101
*2087 FILLER_0_6_113
*2088 FILLER_0_6_119
*2089 FILLER_0_6_137
*2090 FILLER_0_6_149
*2091 FILLER_0_6_15
*2092 FILLER_0_6_161
*2093 FILLER_0_6_181
*2094 FILLER_0_6_193
*2095 FILLER_0_6_204
*2096 FILLER_0_6_239
*2097 FILLER_0_6_251
*2098 FILLER_0_6_253
*2099 FILLER_0_6_265
*2100 FILLER_0_6_27
*2101 FILLER_0_6_277
*2102 FILLER_0_6_289
*2103 FILLER_0_6_29
*2104 FILLER_0_6_3
*2105 FILLER_0_6_301
*2106 FILLER_0_6_305
*2107 FILLER_0_6_41
*2108 FILLER_0_6_49
*2109 FILLER_0_6_71
*2110 FILLER_0_6_83
*2111 FILLER_0_7_107
*2112 FILLER_0_7_111
*2113 FILLER_0_7_144
*2114 FILLER_0_7_15
*2115 FILLER_0_7_150
*2116 FILLER_0_7_157
*2117 FILLER_0_7_164
*2118 FILLER_0_7_176
*2119 FILLER_0_7_188
*2120 FILLER_0_7_200
*2121 FILLER_0_7_211
*2122 FILLER_0_7_223
*2123 FILLER_0_7_233
*2124 FILLER_0_7_239
*2125 FILLER_0_7_243
*2126 FILLER_0_7_255
*2127 FILLER_0_7_267
*2128 FILLER_0_7_27
*2129 FILLER_0_7_279
*2130 FILLER_0_7_281
*2131 FILLER_0_7_293
*2132 FILLER_0_7_3
*2133 FILLER_0_7_305
*2134 FILLER_0_7_39
*2135 FILLER_0_7_66
*2136 FILLER_0_7_75
*2137 FILLER_0_7_95
*2138 FILLER_0_8_102
*2139 FILLER_0_8_145
*2140 FILLER_0_8_15
*2141 FILLER_0_8_153
*2142 FILLER_0_8_194
*2143 FILLER_0_8_226
*2144 FILLER_0_8_253
*2145 FILLER_0_8_261
*2146 FILLER_0_8_27
*2147 FILLER_0_8_283
*2148 FILLER_0_8_29
*2149 FILLER_0_8_295
*2150 FILLER_0_8_3
*2151 FILLER_0_8_303
*2152 FILLER_0_8_41
*2153 FILLER_0_8_72
*2154 FILLER_0_9_109
*2155 FILLER_0_9_113
*2156 FILLER_0_9_15
*2157 FILLER_0_9_159
*2158 FILLER_0_9_186
*2159 FILLER_0_9_220
*2160 FILLER_0_9_225
*2161 FILLER_0_9_231
*2162 FILLER_0_9_27
*2163 FILLER_0_9_279
*2164 FILLER_0_9_3
*2165 FILLER_0_9_301
*2166 FILLER_0_9_305
*2167 FILLER_0_9_46
*2168 FILLER_0_9_50
*2169 FILLER_0_9_54
*2170 FILLER_0_9_81
*2171 FILLER_0_9_91
*2172 FILLER_0_9_97
*2173 PHY_0
*2174 PHY_1
*2175 PHY_10
*2176 PHY_100
*2177 PHY_101
*2178 PHY_102
*2179 PHY_103
*2180 PHY_11
*2181 PHY_12
*2182 PHY_13
*2183 PHY_14
*2184 PHY_15
*2185 PHY_16
*2186 PHY_17
*2187 PHY_18
*2188 PHY_19
*2189 PHY_2
*2190 PHY_20
*2191 PHY_21
*2192 PHY_22
*2193 PHY_23
*2194 PHY_24
*2195 PHY_25
*2196 PHY_26
*2197 PHY_27
*2198 PHY_28
*2199 PHY_29
*2200 PHY_3
*2201 PHY_30
*2202 PHY_31
*2203 PHY_32
*2204 PHY_33
*2205 PHY_34
*2206 PHY_35
*2207 PHY_36
*2208 PHY_37
*2209 PHY_38
*2210 PHY_39
*2211 PHY_4
*2212 PHY_40
*2213 PHY_41
*2214 PHY_42
*2215 PHY_43
*2216 PHY_44
*2217 PHY_45
*2218 PHY_46
*2219 PHY_47
*2220 PHY_48
*2221 PHY_49
*2222 PHY_5
*2223 PHY_50
*2224 PHY_51
*2225 PHY_52
*2226 PHY_53
*2227 PHY_54
*2228 PHY_55
*2229 PHY_56
*2230 PHY_57
*2231 PHY_58
*2232 PHY_59
*2233 PHY_6
*2234 PHY_60
*2235 PHY_61
*2236 PHY_62
*2237 PHY_63
*2238 PHY_64
*2239 PHY_65
*2240 PHY_66
*2241 PHY_67
*2242 PHY_68
*2243 PHY_69
*2244 PHY_7
*2245 PHY_70
*2246 PHY_71
*2247 PHY_72
*2248 PHY_73
*2249 PHY_74
*2250 PHY_75
*2251 PHY_76
*2252 PHY_77
*2253 PHY_78
*2254 PHY_79
*2255 PHY_8
*2256 PHY_80
*2257 PHY_81
*2258 PHY_82
*2259 PHY_83
*2260 PHY_84
*2261 PHY_85
*2262 PHY_86
*2263 PHY_87
*2264 PHY_88
*2265 PHY_89
*2266 PHY_9
*2267 PHY_90
*2268 PHY_91
*2269 PHY_92
*2270 PHY_93
*2271 PHY_94
*2272 PHY_95
*2273 PHY_96
*2274 PHY_97
*2275 PHY_98
*2276 PHY_99
*2277 TAP_104
*2278 TAP_105
*2279 TAP_106
*2280 TAP_107
*2281 TAP_108
*2282 TAP_109
*2283 TAP_110
*2284 TAP_111
*2285 TAP_112
*2286 TAP_113
*2287 TAP_114
*2288 TAP_115
*2289 TAP_116
*2290 TAP_117
*2291 TAP_118
*2292 TAP_119
*2293 TAP_120
*2294 TAP_121
*2295 TAP_122
*2296 TAP_123
*2297 TAP_124
*2298 TAP_125
*2299 TAP_126
*2300 TAP_127
*2301 TAP_128
*2302 TAP_129
*2303 TAP_130
*2304 TAP_131
*2305 TAP_132
*2306 TAP_133
*2307 TAP_134
*2308 TAP_135
*2309 TAP_136
*2310 TAP_137
*2311 TAP_138
*2312 TAP_139
*2313 TAP_140
*2314 TAP_141
*2315 TAP_142
*2316 TAP_143
*2317 TAP_144
*2318 TAP_145
*2319 TAP_146
*2320 TAP_147
*2321 TAP_148
*2322 TAP_149
*2323 TAP_150
*2324 TAP_151
*2325 TAP_152
*2326 TAP_153
*2327 TAP_154
*2328 TAP_155
*2329 TAP_156
*2330 TAP_157
*2331 TAP_158
*2332 TAP_159
*2333 TAP_160
*2334 TAP_161
*2335 TAP_162
*2336 TAP_163
*2337 TAP_164
*2338 TAP_165
*2339 TAP_166
*2340 TAP_167
*2341 TAP_168
*2342 TAP_169
*2343 TAP_170
*2344 TAP_171
*2345 TAP_172
*2346 TAP_173
*2347 TAP_174
*2348 TAP_175
*2349 TAP_176
*2350 TAP_177
*2351 TAP_178
*2352 TAP_179
*2353 TAP_180
*2354 TAP_181
*2355 TAP_182
*2356 TAP_183
*2357 TAP_184
*2358 TAP_185
*2359 TAP_186
*2360 TAP_187
*2361 TAP_188
*2362 TAP_189
*2363 TAP_190
*2364 TAP_191
*2365 TAP_192
*2366 TAP_193
*2367 TAP_194
*2368 TAP_195
*2369 TAP_196
*2370 TAP_197
*2371 TAP_198
*2372 TAP_199
*2373 TAP_200
*2374 TAP_201
*2375 TAP_202
*2376 TAP_203
*2377 TAP_204
*2378 TAP_205
*2379 TAP_206
*2380 TAP_207
*2381 TAP_208
*2382 TAP_209
*2383 TAP_210
*2384 TAP_211
*2385 TAP_212
*2386 TAP_213
*2387 TAP_214
*2388 TAP_215
*2389 TAP_216
*2390 TAP_217
*2391 TAP_218
*2392 TAP_219
*2393 TAP_220
*2394 TAP_221
*2395 TAP_222
*2396 TAP_223
*2397 TAP_224
*2398 TAP_225
*2399 TAP_226
*2400 TAP_227
*2401 TAP_228
*2402 TAP_229
*2403 TAP_230
*2404 TAP_231
*2405 TAP_232
*2406 TAP_233
*2407 TAP_234
*2408 TAP_235
*2409 TAP_236
*2410 TAP_237
*2411 TAP_238
*2412 TAP_239
*2413 TAP_240
*2414 TAP_241
*2415 TAP_242
*2416 TAP_243
*2417 TAP_244
*2418 TAP_245
*2419 TAP_246
*2420 TAP_247
*2421 TAP_248
*2422 TAP_249
*2423 TAP_250
*2424 TAP_251
*2425 TAP_252
*2426 TAP_253
*2427 TAP_254
*2428 TAP_255
*2429 TAP_256
*2430 TAP_257
*2431 TAP_258
*2432 TAP_259
*2433 TAP_260
*2434 TAP_261
*2435 TAP_262
*2436 TAP_263
*2437 TAP_264
*2438 TAP_265
*2439 TAP_266
*2440 TAP_267
*2441 TAP_268
*2442 TAP_269
*2443 TAP_270
*2444 TAP_271
*2445 TAP_272
*2446 TAP_273
*2447 TAP_274
*2448 TAP_275
*2449 TAP_276
*2450 TAP_277
*2451 TAP_278
*2452 TAP_279
*2453 TAP_280
*2454 TAP_281
*2455 TAP_282
*2456 TAP_283
*2457 TAP_284
*2458 TAP_285
*2459 TAP_286
*2460 TAP_287
*2461 TAP_288
*2462 TAP_289
*2463 TAP_290
*2464 TAP_291
*2465 TAP_292
*2466 TAP_293
*2467 TAP_294
*2468 TAP_295
*2469 TAP_296
*2470 TAP_297
*2471 TAP_298
*2472 TAP_299
*2473 TAP_300
*2474 TAP_301
*2475 TAP_302
*2476 TAP_303
*2477 TAP_304
*2478 TAP_305
*2479 TAP_306
*2480 TAP_307
*2481 TAP_308
*2482 TAP_309
*2483 TAP_310
*2484 TAP_311
*2485 TAP_312
*2486 TAP_313
*2487 TAP_314
*2488 TAP_315
*2489 TAP_316
*2490 TAP_317
*2491 TAP_318
*2492 TAP_319
*2493 TAP_320
*2494 TAP_321
*2495 TAP_322
*2496 TAP_323
*2497 TAP_324
*2498 TAP_325
*2499 TAP_326
*2500 TAP_327
*2501 TAP_328
*2502 TAP_329
*2503 TAP_330
*2504 TAP_331
*2505 TAP_332
*2506 TAP_333
*2507 TAP_334
*2508 TAP_335
*2509 TAP_336
*2510 TAP_337
*2511 TAP_338
*2512 TAP_339
*2513 TAP_340
*2514 TAP_341
*2515 TAP_342
*2516 TAP_343
*2517 TAP_344
*2518 TAP_345
*2519 TAP_346
*2520 TAP_347
*2521 TAP_348
*2522 TAP_349
*2523 TAP_350
*2524 TAP_351
*2525 TAP_352
*2526 TAP_353
*2527 TAP_354
*2528 TAP_355
*2529 TAP_356
*2530 TAP_357
*2531 TAP_358
*2532 TAP_359
*2533 TAP_360
*2534 TAP_361
*2535 TAP_362
*2536 TAP_363
*2537 TAP_364
*2538 TAP_365
*2539 TAP_366
*2540 TAP_367
*2541 TAP_368
*2542 TAP_369
*2543 TAP_370
*2544 TAP_371
*2545 TAP_372
*2546 TAP_373
*2547 _0582_
*2548 _0583_
*2549 _0584_
*2550 _0585_
*2551 _0586_
*2552 _0587_
*2553 _0588_
*2554 _0589_
*2555 _0590_
*2556 _0591_
*2557 _0592_
*2558 _0593_
*2559 _0594_
*2560 _0595_
*2561 _0596_
*2562 _0597_
*2563 _0598_
*2564 _0599_
*2565 _0600_
*2566 _0601_
*2567 _0602_
*2568 _0603_
*2569 _0604_
*2570 _0605_
*2571 _0606_
*2572 _0607_
*2573 _0608_
*2574 _0609_
*2575 _0610_
*2576 _0611_
*2577 _0612_
*2578 _0613_
*2579 _0614_
*2580 _0615_
*2581 _0616_
*2582 _0617_
*2583 _0618_
*2584 _0619_
*2585 _0620_
*2586 _0621_
*2587 _0622_
*2588 _0623_
*2589 _0624_
*2590 _0625_
*2591 _0626_
*2592 _0627_
*2593 _0628_
*2594 _0629_
*2595 _0630_
*2596 _0631_
*2597 _0632_
*2598 _0633_
*2599 _0634_
*2600 _0635_
*2601 _0636_
*2602 _0637_
*2603 _0638_
*2604 _0639_
*2605 _0640_
*2606 _0641_
*2607 _0642_
*2608 _0643_
*2609 _0644_
*2610 _0645_
*2611 _0646_
*2612 _0647_
*2613 _0648_
*2614 _0649_
*2615 _0650_
*2616 _0651_
*2617 _0652_
*2618 _0653_
*2619 _0654_
*2620 _0655_
*2621 _0656_
*2622 _0657_
*2623 _0658_
*2624 _0659_
*2625 _0660_
*2626 _0661_
*2627 _0662_
*2628 _0663_
*2629 _0664_
*2630 _0665_
*2631 _0666_
*2632 _0667_
*2633 _0668_
*2634 _0669_
*2635 _0670_
*2636 _0671_
*2637 _0672_
*2638 _0673_
*2639 _0674_
*2640 _0675_
*2641 _0676_
*2642 _0677_
*2643 _0678_
*2644 _0679_
*2645 _0680_
*2646 _0681_
*2647 _0682_
*2648 _0683_
*2649 _0684_
*2650 _0685_
*2651 _0686_
*2652 _0687_
*2653 _0688_
*2654 _0689_
*2655 _0690_
*2656 _0691_
*2657 _0692_
*2658 _0693_
*2659 _0694_
*2660 _0695_
*2661 _0696_
*2662 _0697_
*2663 _0698_
*2664 _0699_
*2665 _0700_
*2666 _0701_
*2667 _0702_
*2668 _0703_
*2669 _0704_
*2670 _0705_
*2671 _0706_
*2672 _0707_
*2673 _0708_
*2674 _0709_
*2675 _0710_
*2676 _0711_
*2677 _0712_
*2678 _0713_
*2679 _0714_
*2680 _0715_
*2681 _0716_
*2682 _0717_
*2683 _0718_
*2684 _0719_
*2685 _0720_
*2686 _0721_
*2687 _0722_
*2688 _0723_
*2689 _0724_
*2690 _0725_
*2691 _0726_
*2692 _0727_
*2693 _0728_
*2694 _0729_
*2695 _0730_
*2696 _0731_
*2697 _0732_
*2698 _0733_
*2699 _0734_
*2700 _0735_
*2701 _0736_
*2702 _0737_
*2703 _0738_
*2704 _0739_
*2705 _0740_
*2706 _0741_
*2707 _0742_
*2708 _0743_
*2709 _0744_
*2710 _0745_
*2711 _0746_
*2712 _0747_
*2713 _0748_
*2714 _0749_
*2715 _0750_
*2716 _0751_
*2717 _0752_
*2718 _0753_
*2719 _0754_
*2720 _0755_
*2721 _0756_
*2722 _0757_
*2723 _0758_
*2724 _0759_
*2725 _0760_
*2726 _0761_
*2727 _0762_
*2728 _0763_
*2729 _0764_
*2730 _0765_
*2731 _0766_
*2732 _0767_
*2733 _0768_
*2734 _0769_
*2735 _0770_
*2736 _0771_
*2737 _0772_
*2738 _0773_
*2739 _0774_
*2740 _0775_
*2741 _0776_
*2742 _0777_
*2743 _0778_
*2744 _0779_
*2745 _0780_
*2746 _0781_
*2747 _0782_
*2748 _0783_
*2749 _0784_
*2750 _0785_
*2751 _0786_
*2752 _0787_
*2753 _0788_
*2754 _0789_
*2755 _0790_
*2756 _0791_
*2757 _0792_
*2758 _0793_
*2759 _0794_
*2760 _0795_
*2761 _0796_
*2762 _0797_
*2763 _0798_
*2764 _0799_
*2765 _0800_
*2766 _0801_
*2767 _0802_
*2768 _0803_
*2769 _0804_
*2770 _0805_
*2771 _0806_
*2772 _0807_
*2773 _0808_
*2774 _0809_
*2775 _0810_
*2776 _0811_
*2777 _0812_
*2778 _0813_
*2779 _0814_
*2780 _0815_
*2781 _0816_
*2782 _0817_
*2783 _0818_
*2784 _0819_
*2785 _0820_
*2786 _0821_
*2787 _0822_
*2788 _0823_
*2789 _0824_
*2790 _0825_
*2791 _0826_
*2792 _0827_
*2793 _0828_
*2794 _0829_
*2795 _0830_
*2796 _0831_
*2797 _0832_
*2798 _0833_
*2799 _0834_
*2800 _0835_
*2801 _0836_
*2802 _0837_
*2803 _0838_
*2804 _0839_
*2805 _0840_
*2806 _0841_
*2807 _0842_
*2808 _0843_
*2809 _0844_
*2810 _0845_
*2811 _0846_
*2812 _0847_
*2813 _0848_
*2814 _0849_
*2815 _0850_
*2816 _0851_
*2817 _0852_
*2818 _0853_
*2819 _0854_
*2820 _0855_
*2821 _0856_
*2822 _0857_
*2823 _0858_
*2824 _0859_
*2825 _0860_
*2826 _0861_
*2827 _0862_
*2828 _0863_
*2829 _0864_
*2830 _0865_
*2831 _0866_
*2832 _0867_
*2833 _0868_
*2834 _0869_
*2835 _0870_
*2836 _0871_
*2837 _0872_
*2838 _0873_
*2839 _0874_
*2840 _0875_
*2841 _0876_
*2842 _0877_
*2843 _0878_
*2844 _0879_
*2845 _0880_
*2846 _0881_
*2847 _0882_
*2848 _0883_
*2849 _0884_
*2850 _0885_
*2851 _0886_
*2852 _0887_
*2853 _0888_
*2854 _0889_
*2855 _0890_
*2856 _0891_
*2857 _0892_
*2858 _0893_
*2859 _0894_
*2860 _0895_
*2861 _0896_
*2862 _0897_
*2863 _0898_
*2864 _0899_
*2865 _0900_
*2866 _0901_
*2867 _0902_
*2868 _0903_
*2869 _0904_
*2870 _0905_
*2871 _0906_
*2872 _0907_
*2873 _0908_
*2874 _0909_
*2875 _0910_
*2876 _0911_
*2877 _0912_
*2878 _0913_
*2879 _0914_
*2880 _0915_
*2881 _0916_
*2882 _0917_
*2883 _0918_
*2884 _0919_
*2885 _0920_
*2886 _0921_
*2887 _0922_
*2888 _0923_
*2889 _0924_
*2890 _0925_
*2891 _0926_
*2892 _0927_
*2893 _0928_
*2894 _0929_
*2895 _0930_
*2896 _0931_
*2897 _0932_
*2898 _0933_
*2899 _0934_
*2900 _0935_
*2901 _0936_
*2902 _0937_
*2903 _0938_
*2904 _0939_
*2905 _0940_
*2906 _0941_
*2907 _0942_
*2908 _0943_
*2909 _0944_
*2910 _0945_
*2911 _0946_
*2912 _0947_
*2913 _0948_
*2914 _0949_
*2915 _0950_
*2916 _0951_
*2917 _0952_
*2918 _0953_
*2919 _0954_
*2920 _0955_
*2921 _0956_
*2922 _0957_
*2923 _0958_
*2924 _0959_
*2925 _0960_
*2926 _0961_
*2927 _0962_
*2928 _0963_
*2929 _0964_
*2930 _0965_
*2931 _0966_
*2932 _0967_
*2933 _0968_
*2934 _0969_
*2935 _0970_
*2936 _0971_
*2937 _0972_
*2938 _0973_
*2939 _0974_
*2940 _0975_
*2941 _0976_
*2942 _0977_
*2943 _0978_
*2944 _0979_
*2945 _0980_
*2946 _0981_
*2947 _0982_
*2948 _0983_
*2949 _0984_
*2950 _0985_
*2951 _0986_
*2952 _0987_
*2953 _0988_
*2954 _0989_
*2955 _0990_
*2956 _0991_
*2957 _0992_
*2958 _0993_
*2959 _0994_
*2960 _0995_
*2961 _0996_
*2962 _0997_
*2963 _0998_
*2964 _0999_
*2965 _1000_
*2966 _1001_
*2967 _1002_
*2968 _1003_
*2969 _1004_
*2970 _1005_
*2971 _1006_
*2972 _1007_
*2973 _1008_
*2974 _1009_
*2975 _1010_
*2976 _1011_
*2977 _1012_
*2978 _1013_
*2979 _1014_
*2980 _1015_
*2981 _1016_
*2982 _1017_
*2983 _1018_
*2984 _1019_
*2985 _1020_
*2986 _1021_
*2987 _1022_
*2988 _1023_
*2989 _1024_
*2990 _1025_
*2991 _1026_
*2992 _1027_
*2993 _1028_
*2994 _1029_
*2995 _1030_
*2996 _1031_
*2997 _1032_
*2998 _1033_
*2999 _1034_
*3000 _1035_
*3001 _1036_
*3002 _1037_
*3003 _1038_
*3004 _1039_
*3005 _1040_
*3006 _1041_
*3007 _1042_
*3008 _1043_
*3009 _1044_
*3010 _1045_
*3011 _1046_
*3012 _1047_
*3013 _1048_
*3014 _1049_
*3015 _1050_
*3016 _1051_
*3017 _1052_
*3018 _1053_
*3019 _1054_
*3020 _1055_
*3021 _1056_
*3022 _1057_
*3023 _1058_
*3024 _1059_
*3025 _1060_
*3026 _1061_
*3027 _1062_
*3028 _1063_
*3029 _1064_
*3030 _1065_
*3031 _1066_
*3032 _1067_
*3033 _1068_
*3034 _1069_
*3035 _1070_
*3036 _1071_
*3037 _1072_
*3038 _1073_
*3039 _1074_
*3040 _1075_
*3041 _1076_
*3042 _1077_
*3043 _1078_
*3044 _1079_
*3045 _1080_
*3046 _1081_
*3047 _1082_
*3048 _1083_
*3049 _1084_
*3050 _1085_
*3051 _1086_
*3052 _1087_
*3053 _1088_
*3054 _1089_
*3055 _1090_
*3056 _1091_
*3057 _1092_
*3058 _1093_
*3059 _1094_
*3060 _1095_
*3061 _1096_
*3062 _1097_
*3063 _1098_
*3064 _1099_
*3065 _1100_
*3066 _1101_
*3067 _1102_
*3068 _1103_
*3069 _1104_
*3070 _1105_
*3071 _1106_
*3072 _1107_
*3073 _1108_
*3074 _1109_
*3075 _1110_
*3076 _1111_
*3077 _1112_
*3078 _1113_
*3079 _1114_
*3080 _1115_
*3081 _1116_
*3082 _1117_
*3083 _1118_
*3084 _1119_
*3085 _1120_
*3086 _1121_
*3087 _1122_
*3088 _1123_
*3089 _1124_
*3090 _1125_
*3091 _1126_
*3092 _1127_
*3093 _1128_
*3094 _1129_
*3095 _1130_
*3096 _1131_
*3097 _1132_
*3098 _1133_
*3099 _1134_
*3100 _1135_
*3101 _1136_
*3102 _1137_
*3103 _1138_
*3104 _1139_
*3105 _1140_
*3106 _1141_
*3107 _1142_
*3108 _1143_
*3109 _1144_
*3110 _1145_
*3111 _1146_
*3112 _1147_
*3113 _1148_
*3114 _1149_
*3115 _1150_
*3116 _1151_
*3117 _1152_
*3118 _1153_
*3119 _1154_
*3120 _1155_
*3121 _1156_
*3122 _1157_
*3123 _1158_
*3124 _1159_
*3125 _1160_
*3126 _1161_
*3127 _1162_
*3128 _1163_
*3129 _1164_
*3130 _1165_
*3131 _1166_
*3132 _1167_
*3133 _1168_
*3134 _1169_
*3135 _1170_
*3136 _1171_
*3137 _1172_
*3138 _1173_
*3139 _1174_
*3140 _1175_
*3141 _1176_
*3142 _1177_
*3143 _1178_
*3144 _1179_
*3145 _1180_
*3146 _1181_
*3147 _1182_
*3148 _1183_
*3149 _1184_
*3150 _1185_
*3151 _1186_
*3152 _1187_
*3153 _1188_
*3154 _1189_
*3155 _1190_
*3156 _1191_
*3157 _1192_
*3158 _1193_
*3159 _1194_
*3160 _1195_
*3161 _1196_
*3162 _1197_
*3163 _1198_
*3164 _1199_
*3165 _1200_
*3166 _1201_
*3167 _1202_
*3168 _1203_
*3169 _1204_
*3170 _1205_
*3171 _1206_
*3172 _1207_
*3173 _1208_
*3174 _1209_
*3175 _1210_
*3176 _1211_
*3177 _1212_
*3178 _1213_
*3179 _1214_
*3180 _1215_
*3181 _1216_
*3182 _1217_
*3183 _1218_
*3184 _1219_
*3185 _1220_
*3186 _1221_
*3187 _1222_
*3188 _1223_
*3189 _1224_
*3190 _1225_
*3191 _1226_
*3192 _1227_
*3193 _1228_
*3194 _1229_
*3195 _1230_
*3196 _1231_
*3197 _1232_
*3198 _1233_
*3199 _1234_
*3200 _1235_
*3201 _1236_
*3202 _1237_
*3203 _1238_
*3204 _1239_
*3205 _1240_
*3206 _1241_
*3207 _1242_
*3208 _1243_
*3209 _1244_
*3210 _1245_
*3211 _1246_
*3212 _1247_
*3213 _1248_
*3214 _1249_
*3215 _1250_
*3216 _1251_
*3217 _1252_
*3218 _1253_
*3219 _1254_
*3220 _1255_
*3221 _1256_
*3222 _1257_
*3223 _1258_
*3224 _1259_
*3225 _1260_
*3226 _1261_
*3227 _1262_
*3228 _1263_
*3229 _1264_
*3230 _1265_
*3231 _1266_
*3232 _1267_
*3233 _1268_
*3234 _1269_
*3235 _1270_
*3236 _1271_
*3237 _1272_
*3238 _1273_
*3239 _1274_
*3240 _1275_
*3241 _1276_
*3242 _1277_
*3243 _1278_
*3244 _1279_
*3245 _1280_
*3246 _1281_
*3247 _1282_
*3248 _1283_
*3249 _1284_
*3250 _1285_
*3251 _1286_
*3252 _1287_
*3253 _1288_
*3254 _1289_
*3255 _1290_
*3256 _1291_
*3257 _1292_
*3258 _1293_
*3259 _1294_
*3260 _1295_
*3261 _1296_
*3262 _1297_
*3263 _1298_
*3264 _1299_
*3265 _1300_
*3266 _1301_
*3267 _1302_
*3268 _1303_
*3269 _1304_
*3270 _1305_
*3271 _1306_
*3272 _1307_
*3273 _1308_
*3274 _1309_
*3275 _1310_
*3276 _1311_
*3277 _1312_
*3278 _1313_
*3279 _1314_
*3280 _1315_
*3281 _1316_
*3282 _1317_
*3283 _1318_
*3284 _1319_
*3285 _1320_
*3286 _1321_
*3287 _1322_
*3288 _1323_
*3289 _1324_
*3290 _1325_
*3291 _1326_
*3292 _1327_
*3293 _1328_
*3294 _1329_
*3295 clkbuf_0_clk
*3296 clkbuf_4_0_0_clk
*3297 clkbuf_4_10_0_clk
*3298 clkbuf_4_11_0_clk
*3299 clkbuf_4_12_0_clk
*3300 clkbuf_4_13_0_clk
*3301 clkbuf_4_14_0_clk
*3302 clkbuf_4_15_0_clk
*3303 clkbuf_4_1_0_clk
*3304 clkbuf_4_2_0_clk
*3305 clkbuf_4_3_0_clk
*3306 clkbuf_4_4_0_clk
*3307 clkbuf_4_5_0_clk
*3308 clkbuf_4_6_0_clk
*3309 clkbuf_4_7_0_clk
*3310 clkbuf_4_8_0_clk
*3311 clkbuf_4_9_0_clk
*3312 fanout12
*3313 fanout13
*3314 fanout14
*3315 fanout15
*3316 fanout16
*3317 hold1
*3318 hold10
*3319 hold100
*3320 hold101
*3321 hold102
*3322 hold103
*3323 hold104
*3324 hold105
*3325 hold106
*3326 hold107
*3327 hold108
*3328 hold109
*3329 hold11
*3330 hold110
*3331 hold111
*3332 hold112
*3333 hold113
*3334 hold114
*3335 hold115
*3336 hold116
*3337 hold117
*3338 hold118
*3339 hold119
*3340 hold12
*3341 hold120
*3342 hold121
*3343 hold122
*3344 hold123
*3345 hold124
*3346 hold125
*3347 hold126
*3348 hold127
*3349 hold128
*3350 hold129
*3351 hold13
*3352 hold130
*3353 hold131
*3354 hold132
*3355 hold133
*3356 hold134
*3357 hold135
*3358 hold136
*3359 hold137
*3360 hold138
*3361 hold139
*3362 hold14
*3363 hold140
*3364 hold141
*3365 hold142
*3366 hold143
*3367 hold144
*3368 hold145
*3369 hold15
*3370 hold16
*3371 hold17
*3372 hold18
*3373 hold19
*3374 hold2
*3375 hold20
*3376 hold21
*3377 hold22
*3378 hold23
*3379 hold24
*3380 hold25
*3381 hold26
*3382 hold27
*3383 hold28
*3384 hold29
*3385 hold3
*3386 hold30
*3387 hold31
*3388 hold32
*3389 hold33
*3390 hold34
*3391 hold35
*3392 hold36
*3393 hold37
*3394 hold38
*3395 hold39
*3396 hold4
*3397 hold40
*3398 hold41
*3399 hold42
*3400 hold43
*3401 hold44
*3402 hold45
*3403 hold46
*3404 hold47
*3405 hold48
*3406 hold49
*3407 hold5
*3408 hold50
*3409 hold51
*3410 hold52
*3411 hold53
*3412 hold54
*3413 hold55
*3414 hold56
*3415 hold57
*3416 hold58
*3417 hold59
*3418 hold6
*3419 hold60
*3420 hold61
*3421 hold62
*3422 hold63
*3423 hold64
*3424 hold65
*3425 hold66
*3426 hold67
*3427 hold68
*3428 hold69
*3429 hold7
*3430 hold70
*3431 hold71
*3432 hold72
*3433 hold73
*3434 hold74
*3435 hold75
*3436 hold76
*3437 hold77
*3438 hold78
*3439 hold79
*3440 hold8
*3441 hold80
*3442 hold81
*3443 hold82
*3444 hold83
*3445 hold84
*3446 hold85
*3447 hold86
*3448 hold87
*3449 hold88
*3450 hold89
*3451 hold9
*3452 hold90
*3453 hold91
*3454 hold92
*3455 hold93
*3456 hold94
*3457 hold95
*3458 hold96
*3459 hold97
*3460 hold98
*3461 hold99
*3462 input1
*3463 input2
*3464 max_cap1
*3465 max_cap10
*3466 max_cap11
*3467 max_cap2
*3468 max_cap5
*3469 max_cap6
*3470 max_cap7
*3471 max_cap8
*3472 max_cap9
*3473 output3
*3474 output4

*PORTS
clk I
done O
pass_fail O
rst_n I
start I

*D_NET *3 0.0168673
*CONN
*P clk I
*I *3295:A I *D sky130_fd_sc_hd__clkbuf_16
*CAP
1 clk 0.00798752
2 *3295:A 0.00798752
3 *3295:A *3233:CLK 2.11419e-05
4 *3295:A *202:14 1.01912e-05
5 *3295:A *231:26 0
6 *3295:A *258:28 0.000215283
7 *3295:A *350:93 0.000122494
8 *3295:A *369:74 2.39223e-05
9 *3295:A *430:20 0.000112662
10 *3295:A *442:154 0.000120342
11 *3295:A *445:124 0.000132088
12 *3295:A *500:131 0
13 *3295:A *602:59 0.000134186
*RES
1 clk *3295:A 43.4859 
*END

*D_NET *4 0.00142033
*CONN
*P done O
*I *3473:X O *D sky130_fd_sc_hd__clkbuf_4
*CAP
1 done 0.000710163
2 *3473:X 0.000710163
*RES
1 *3473:X done 27.2821 
*END

*D_NET *5 0.000833897
*CONN
*P pass_fail O
*I *3474:X O *D sky130_fd_sc_hd__buf_2
*CAP
1 pass_fail 0.000416949
2 *3474:X 0.000416949
*RES
1 *3474:X pass_fail 21.5317 
*END

*D_NET *6 0.000984957
*CONN
*P rst_n I
*I *3462:A I *D sky130_fd_sc_hd__clkbuf_2
*CAP
1 rst_n 0.000492479
2 *3462:A 0.000492479
*RES
1 rst_n *3462:A 23.1571 
*END

*D_NET *7 0.000813598
*CONN
*P start I
*I *3463:A I *D sky130_fd_sc_hd__buf_1
*CAP
1 start 0.000406799
2 *3463:A 0.000406799
*RES
1 start *3463:A 21.9607 
*END

*D_NET *8 0.00468394
*CONN
*I *2643:A2 I *D sky130_fd_sc_hd__a22o_1
*I *2848:B1_N I *D sky130_fd_sc_hd__o21ba_2
*I *3136:D I *D sky130_fd_sc_hd__dfstp_1
*I *2826:X O *D sky130_fd_sc_hd__buf_1
*CAP
1 *2643:A2 0.000439667
2 *2848:B1_N 0.000206427
3 *3136:D 8.34953e-05
4 *2826:X 0
5 *8:10 0.000987516
6 *8:4 0.00113726
7 *2643:A2 *2643:A1 7.57716e-05
8 *2643:A2 *2643:B1 5.33005e-05
9 *2643:A2 *2643:B2 4.30073e-05
10 *2643:A2 *2820:A 3.99614e-06
11 *2643:A2 *2824:B2 0.000131267
12 *2643:A2 *3137:CLK 9.41642e-05
13 *2643:A2 *3318:A 0.00017309
14 *2643:A2 *310:12 5.33882e-05
15 *2643:A2 *596:40 0.000185118
16 *2643:A2 *596:44 5.49257e-05
17 *2643:A2 *780:12 0.000143652
18 *2848:B1_N *2823:D 0
19 *2848:B1_N *2847:B1 0
20 *2848:B1_N *3278:D 3.34687e-05
21 *2848:B1_N *334:10 0
22 *2848:B1_N *590:138 7.79781e-06
23 *2848:B1_N *596:12 6.65302e-05
24 *2848:B1_N *597:14 0
25 *2848:B1_N *674:20 0
26 *3136:D *3278:D 4.81157e-05
27 *3136:D *590:138 6.8646e-06
28 *3136:D *596:12 3.17163e-05
29 *3136:D *596:14 9.90431e-05
30 *3136:D *596:40 4.18895e-05
31 *8:10 *596:14 2.89016e-05
32 *8:10 *596:40 0.000453563
*RES
1 *2826:X *8:4 9.3 
2 *8:4 *8:10 13.7857 
3 *8:10 *3136:D 16.1929 
4 *8:10 *2848:B1_N 17.8714 
5 *8:4 *2643:A2 29.2554 
*END

*D_NET *9 0.000156798
*CONN
*I *3137:D I *D sky130_fd_sc_hd__dfrtp_1
*I *2669:X O *D sky130_fd_sc_hd__clkbuf_1
*CAP
1 *3137:D 7.83991e-05
2 *2669:X 7.83991e-05
3 *3137:D *3474:A 0
*RES
1 *2669:X *3137:D 28.9393 
*END

*D_NET *10 0.00609689
*CONN
*I *3292:D I *D sky130_fd_sc_hd__dfrtp_1
*I *2673:C1 I *D sky130_fd_sc_hd__a211o_1
*I *2645:A I *D sky130_fd_sc_hd__inv_2
*I *2671:X O *D sky130_fd_sc_hd__buf_1
*CAP
1 *3292:D 0.000431617
2 *2673:C1 0.000146114
3 *2645:A 0.000530935
4 *2671:X 0
5 *10:29 0.00151233
6 *10:4 0.00146554
7 *2645:A *2646:B2 0.000222784
8 *2645:A *2648:A1 0.000184677
9 *2645:A *2670:B 8.07313e-05
10 *2645:A *2671:A 0.000380398
11 *2645:A *2674:A2 1.92789e-05
12 *2645:A *2674:B1 0.00014576
13 *2645:A *3340:A 4.46186e-06
14 *2645:A *793:16 0.000111718
15 *2673:C1 *2673:A1 5.74242e-05
16 *2673:C1 *2673:A2 0.000152905
17 *2673:C1 *2673:B1 4.15938e-05
18 *2673:C1 *593:95 1.95287e-05
19 *3292:D *2673:A1 0.000173751
20 *3292:D *3288:D 9.47584e-05
21 *3292:D *593:95 0
22 *3292:D *641:20 0
23 *3292:D *786:12 0.000145123
24 *10:29 *2657:A 5.79714e-05
25 *10:29 *2657:B 2.83425e-05
26 *10:29 *2671:A 1.65558e-05
27 *10:29 *2674:B1 7.25917e-05
*RES
1 *2671:X *10:4 9.3 
2 *10:4 *2645:A 31.5321 
3 *10:4 *10:29 22.3036 
4 *10:29 *2673:C1 21.7821 
5 *10:29 *3292:D 27.7643 
*END

*D_NET *11 0.00962836
*CONN
*I *2648:S I *D sky130_fd_sc_hd__mux2_1
*I *2663:C1 I *D sky130_fd_sc_hd__a221o_1
*I *2666:A I *D sky130_fd_sc_hd__or3b_1
*I *3294:D I *D sky130_fd_sc_hd__dfrtp_1
*I *2870:A2 I *D sky130_fd_sc_hd__o21bai_1
*I *2662:X O *D sky130_fd_sc_hd__clkbuf_2
*CAP
1 *2648:S 0.000217016
2 *2663:C1 0
3 *2666:A 0
4 *3294:D 0.00127914
5 *2870:A2 0.000400208
6 *2662:X 0
7 *11:43 0.0019553
8 *11:29 0.00120904
9 *11:15 0.000968689
10 *11:4 0.000619006
11 *2870:A2 *2870:A1 0.000269379
12 *2870:A2 *3145:D 0.000143427
13 *2870:A2 *3407:A 6.98103e-05
14 *3294:D *2660:A_N 1.69115e-05
15 *3294:D *2666:B 0.000185124
16 *3294:D *2667:A 7.2754e-05
17 *3294:D *3293:D 6.97972e-05
18 *3294:D *3294:RESET_B 2.46559e-06
19 *3294:D *163:32 0
20 *3294:D *315:12 0
21 *3294:D *682:14 0.000390545
22 *11:29 *2648:A0 3.82216e-05
23 *11:29 *2648:A1 0
24 *11:29 *2649:A 0.00015078
25 *11:29 *3289:D 0.000193118
26 *11:29 *3289:RESET_B 4.79842e-05
27 *11:29 *157:18 9.55179e-05
28 *11:29 *641:22 0.000137226
29 *11:29 *793:16 0.000145753
30 *11:29 *795:12 7.2745e-05
31 *11:43 *2660:A_N 0
32 *11:43 *2663:A1 0.00018372
33 *11:43 *2663:A2 1.5424e-05
34 *11:43 *2663:B2 2.84269e-05
35 *11:43 *2676:A 7.49387e-06
36 *11:43 *2677:B 4.43256e-05
37 *11:43 *3289:D 3.57366e-05
38 *11:43 *157:27 6.18091e-05
39 *11:43 *630:54 0.000353015
40 *11:43 *793:24 0.000148449
*RES
1 *2662:X *11:4 9.3 
2 *11:4 *2870:A2 16.8357 
3 *11:4 *11:15 3 
4 *11:15 *11:29 23.1964 
5 *11:29 *11:43 19.8571 
6 *11:43 *3294:D 41.8 
7 *11:43 *2666:A 9.3 
8 *11:29 *2663:C1 9.3 
9 *11:15 *2648:S 12.6214 
*END

*D_NET *12 0.00375289
*CONN
*I *3281:D I *D sky130_fd_sc_hd__dfrtp_1
*I *2819:X O *D sky130_fd_sc_hd__o31a_1
*CAP
1 *3281:D 0.000840241
2 *2819:X 0.000840241
3 *3281:D *2633:S 0.000197459
4 *3281:D *2634:A 5.33005e-05
5 *3281:D *2818:A1 9.90431e-05
6 *3281:D *2819:A1 0.000100262
7 *3281:D *2819:A2 7.90323e-05
8 *3281:D *2819:A3 0.000185118
9 *3281:D *2819:B1 0.000362083
10 *3281:D *2837:A 5.65955e-05
11 *3281:D *3280:D 0.000197984
12 *3281:D *3351:A 0.000312215
13 *3281:D *316:22 4.43256e-05
14 *3281:D *316:36 2.89016e-05
15 *3281:D *325:8 3.96825e-05
16 *3281:D *351:150 0.000316402
*RES
1 *2819:X *3281:D 48.4214 
*END

*D_NET *13 0.00154305
*CONN
*I *3280:D I *D sky130_fd_sc_hd__dfrtp_1
*I *2763:X O *D sky130_fd_sc_hd__o221a_1
*CAP
1 *3280:D 0.000429928
2 *2763:X 0.000429928
3 *3280:D *2763:C1 2.35097e-05
4 *3280:D *2818:A1 0
5 *3280:D *2818:A2 0.000196968
6 *3280:D *2818:B1 0.000156688
7 *3280:D *351:150 9.9784e-05
8 *3280:D *680:8 8.25843e-06
9 *3281:D *3280:D 0.000197984
*RES
1 *2763:X *3280:D 37.225 
*END

*D_NET *14 0.000454496
*CONN
*I *3134:D I *D sky130_fd_sc_hd__dfxtp_1
*I *2840:X O *D sky130_fd_sc_hd__clkbuf_1
*CAP
1 *3134:D 0.00016793
2 *2840:X 0.00016793
3 *3134:D *599:61 7.89362e-05
4 *3134:D *693:32 3.96997e-05
*RES
1 *2840:X *3134:D 30.6938 
*END

*D_NET *15 0.000997885
*CONN
*I *3135:D I *D sky130_fd_sc_hd__dfxtp_1
*I *2843:X O *D sky130_fd_sc_hd__clkbuf_1
*CAP
1 *3135:D 0.000229933
2 *2843:X 0.000229933
3 *3135:D *2840:A 0.000148047
4 *3135:D *2896:A 0.000146491
5 *3135:D *187:112 9.55684e-05
6 *3135:D *599:59 0.000137824
7 *3135:D *599:61 1.00887e-05
*RES
1 *2843:X *3135:D 32.5509 
*END

*D_NET *16 0.000422919
*CONN
*I *3138:D I *D sky130_fd_sc_hd__dfrtp_1
*I *2850:X O *D sky130_fd_sc_hd__o21a_1
*CAP
1 *3138:D 0.000121119
2 *2850:X 0.000121119
3 *3138:D *2857:A3 5.17614e-05
4 *3138:D *3139:D 0
5 *3138:D *318:117 2.56601e-05
6 *3138:D *663:34 0.00010326
*RES
1 *2850:X *3138:D 29.8857 
*END

*D_NET *17 0.00178543
*CONN
*I *3139:D I *D sky130_fd_sc_hd__dfrtp_1
*I *2854:X O *D sky130_fd_sc_hd__a2bb2o_1
*CAP
1 *3139:D 0.000463466
2 *2854:X 0.000463466
3 *3139:D *2831:A 5.71472e-05
4 *3139:D *2854:B1 0
5 *3139:D *2859:A 0.000218026
6 *3139:D *3141:D 5.33882e-05
7 *3139:D *318:117 0.000139653
8 *3139:D *318:123 7.48268e-05
9 *3139:D *340:10 1.50087e-05
10 *3139:D *595:10 0.000268575
11 *3139:D *663:32 0
12 *3139:D *773:18 3.18676e-05
13 *3138:D *3139:D 0
*RES
1 *2854:X *3139:D 38.8679 
*END

*D_NET *18 0.000582889
*CONN
*I *3140:D I *D sky130_fd_sc_hd__dfrtp_2
*I *2859:X O *D sky130_fd_sc_hd__clkbuf_1
*CAP
1 *3140:D 0.000157716
2 *2859:X 0.000157716
3 *3140:D *2859:A 0
4 *3140:D *3274:RESET_B 4.90803e-05
5 *3140:D *595:36 0
6 *3140:D *663:24 0.000186662
7 *3140:D *663:30 3.17148e-05
*RES
1 *2859:X *3140:D 30.4036 
*END

*D_NET *19 0.00069348
*CONN
*I *3141:D I *D sky130_fd_sc_hd__dfrtp_4
*I *2863:X O *D sky130_fd_sc_hd__a2bb2o_1
*CAP
1 *3141:D 0.000179505
2 *2863:X 0.000179505
3 *3141:D *2863:B1 0.000177821
4 *3141:D *340:10 0.00010326
5 *3139:D *3141:D 5.33882e-05
*RES
1 *2863:X *3141:D 30.7071 
*END

*D_NET *20 0.00101015
*CONN
*I *3142:D I *D sky130_fd_sc_hd__dfrtp_4
*I *2867:X O *D sky130_fd_sc_hd__clkbuf_1
*CAP
1 *3142:D 0.000265281
2 *2867:X 0.000265281
3 *3142:D *2853:A 6.62302e-05
4 *3142:D *2853:B 3.50746e-05
5 *3142:D *3142:CLK 0.000100165
6 *3142:D *334:21 1.00887e-05
7 *3142:D *334:40 0.00026803
*RES
1 *2867:X *3142:D 34.225 
*END

*D_NET *21 0.000316091
*CONN
*I *3143:D I *D sky130_fd_sc_hd__dfrtp_4
*I *2869:X O *D sky130_fd_sc_hd__a2bb2o_1
*CAP
1 *3143:D 7.12664e-05
2 *2869:X 7.12664e-05
3 *3143:D *2869:B1 9.87041e-05
4 *3143:D *3143:CLK 7.4854e-05
*RES
1 *2869:X *3143:D 20.7964 
*END

*D_NET *22 0.000744352
*CONN
*I *3407:A I *D sky130_fd_sc_hd__dlygate4sd3_1
*I *2870:Y O *D sky130_fd_sc_hd__o21bai_1
*CAP
1 *3407:A 0.000202581
2 *2870:Y 0.000202581
3 *3407:A *2870:A1 0.000269379
4 *2870:A2 *3407:A 6.98103e-05
*RES
1 *2870:Y *3407:A 22.85 
*END

*D_NET *23 0.000581269
*CONN
*I *3146:D I *D sky130_fd_sc_hd__dfxtp_1
*I *2879:X O *D sky130_fd_sc_hd__clkbuf_1
*CAP
1 *3146:D 0.000253893
2 *2879:X 0.000253893
3 *3146:D *2879:A 7.34832e-05
*RES
1 *2879:X *3146:D 31.1714 
*END

*D_NET *24 0.000890603
*CONN
*I *3147:D I *D sky130_fd_sc_hd__dfxtp_1
*I *2883:X O *D sky130_fd_sc_hd__clkbuf_1
*CAP
1 *3147:D 0.000203472
2 *2883:X 0.000203472
3 *3147:D *2883:A 0.000128154
4 *3147:D *2969:A 0.000128315
5 *3147:D *3147:CLK 9.90367e-05
6 *3147:D *921:10 0.000128154
*RES
1 *2883:X *3147:D 32.7071 
*END

*D_NET *25 0.00126745
*CONN
*I *3148:D I *D sky130_fd_sc_hd__dfxtp_1
*I *2887:X O *D sky130_fd_sc_hd__clkbuf_1
*CAP
1 *3148:D 0.00020823
2 *2887:X 0.00020823
3 *3148:D *202:14 4.84319e-05
4 *3148:D *359:12 0.0004807
5 *3148:D *606:27 0.000273426
6 *3148:D *715:58 4.84319e-05
*RES
1 *2887:X *3148:D 33.6223 
*END

*D_NET *26 0.000793735
*CONN
*I *3149:D I *D sky130_fd_sc_hd__dfxtp_1
*I *2889:X O *D sky130_fd_sc_hd__clkbuf_1
*CAP
1 *3149:D 0.000178389
2 *2889:X 0.000178389
3 *3149:D *2889:A 4.15914e-05
4 *3149:D *2935:B 0.000102619
5 *3149:D *299:22 4.01643e-05
6 *3149:D *371:79 0
7 *3149:D *391:43 0.000141849
8 *3149:D *606:42 1.00375e-05
9 *3149:D *893:35 0.000100695
*RES
1 *2889:X *3149:D 32.3545 
*END

*D_NET *27 0.000720954
*CONN
*I *3150:D I *D sky130_fd_sc_hd__dfxtp_1
*I *2893:X O *D sky130_fd_sc_hd__clkbuf_1
*CAP
1 *3150:D 0.000168511
2 *2893:X 0.000168511
3 *3150:D *3150:CLK 0.000124214
4 *3150:D *3328:A 3.51442e-05
5 *3150:D *208:26 6.07232e-05
6 *3150:D *358:22 1.15172e-05
7 *3150:D *385:10 0.000152333
*RES
1 *2893:X *3150:D 31.6045 
*END

*D_NET *28 0.000956697
*CONN
*I *3151:D I *D sky130_fd_sc_hd__dfxtp_1
*I *2895:X O *D sky130_fd_sc_hd__clkbuf_1
*CAP
1 *3151:D 0.00019056
2 *2895:X 0.00019056
3 *3151:D *2735:B2 6.8448e-05
4 *3151:D *2895:A 7.07541e-05
5 *3151:D *187:112 0.000127114
6 *3151:D *208:58 0.00030926
*RES
1 *2895:X *3151:D 32.9973 
*END

*D_NET *29 0.00106432
*CONN
*I *3152:D I *D sky130_fd_sc_hd__dfxtp_1
*I *2901:X O *D sky130_fd_sc_hd__clkbuf_1
*CAP
1 *3152:D 0.000259906
2 *2901:X 0.000259906
3 *3152:D *2901:A 0.000122091
4 *3152:D *2926:A1 0.000193125
5 *3152:D *374:40 2.31791e-05
6 *3152:D *605:31 0.000115082
7 *3152:D *605:37 4.46186e-06
8 *3152:D *605:73 8.65694e-05
*RES
1 *2901:X *3152:D 33.4929 
*END

*D_NET *30 0.000217311
*CONN
*I *3153:D I *D sky130_fd_sc_hd__dfxtp_1
*I *2904:X O *D sky130_fd_sc_hd__clkbuf_1
*CAP
1 *3153:D 7.37441e-05
2 *2904:X 7.37441e-05
3 *3153:D *2904:A 5.33882e-05
4 *3153:D *2926:A0 0
5 *3153:D *605:37 1.64343e-05
*RES
1 *2904:X *3153:D 29.1045 
*END

*D_NET *31 0.00118875
*CONN
*I *3154:D I *D sky130_fd_sc_hd__dfxtp_1
*I *2908:X O *D sky130_fd_sc_hd__clkbuf_1
*CAP
1 *3154:D 0.000373437
2 *2908:X 0.000373437
3 *3154:D *2582:A 2.77725e-05
4 *3154:D *2745:B1 0.000166085
5 *3154:D *2748:C1 5.92518e-05
6 *3154:D *2799:C1 4.61656e-05
7 *3154:D *231:38 4.42631e-05
8 *3154:D *231:44 9.83388e-05
*RES
1 *2908:X *3154:D 33.7473 
*END

*D_NET *32 0.00160187
*CONN
*I *3155:D I *D sky130_fd_sc_hd__dfxtp_1
*I *2910:X O *D sky130_fd_sc_hd__clkbuf_1
*CAP
1 *3155:D 0.000344797
2 *2910:X 0.000344797
3 *3155:D *2744:B 0.000162932
4 *3155:D *2910:A 0.00025383
5 *3155:D *3006:B 5.49489e-05
6 *3155:D *3220:CLK 0.000401697
7 *3155:D *231:26 1.90936e-05
8 *3155:D *380:38 1.9774e-05
*RES
1 *2910:X *3155:D 36.0687 
*END

*D_NET *33 0.00125936
*CONN
*I *3156:D I *D sky130_fd_sc_hd__dfxtp_1
*I *2914:X O *D sky130_fd_sc_hd__clkbuf_1
*CAP
1 *3156:D 0.000451209
2 *2914:X 0.000451209
3 *3156:D *2798:A1 0.000181899
4 *3156:D *2798:B1 6.84059e-06
5 *3156:D *2914:A 2.34847e-05
6 *3156:D *174:112 2.85321e-05
7 *3156:D *316:60 8.80339e-05
8 *3156:D *600:81 2.81539e-05
*RES
1 *2914:X *3156:D 25.3857 
*END

*D_NET *34 0.000439196
*CONN
*I *3157:D I *D sky130_fd_sc_hd__dfxtp_1
*I *2916:X O *D sky130_fd_sc_hd__clkbuf_1
*CAP
1 *3157:D 9.86701e-05
2 *2916:X 9.86701e-05
3 *3157:D *2572:A 1.64343e-05
4 *3157:D *395:57 9.96264e-05
5 *3157:D *528:28 5.33005e-05
6 *3157:D *528:62 9.25014e-06
7 *3157:D *600:12 3.81876e-05
8 *3157:D *600:18 1.64343e-05
9 *3157:D *600:66 8.6229e-06
*RES
1 *2916:X *3157:D 29.6402 
*END

*D_NET *35 0.00083013
*CONN
*I *3158:D I *D sky130_fd_sc_hd__dfxtp_1
*I *2920:X O *D sky130_fd_sc_hd__clkbuf_1
*CAP
1 *3158:D 0.000363431
2 *2920:X 0.000363431
3 *3158:D *2919:A1 0
4 *3158:D *2937:A 0.000103267
5 *3158:D *901:16 0
*RES
1 *2920:X *3158:D 34.1937 
*END

*D_NET *36 0.000742838
*CONN
*I *3159:D I *D sky130_fd_sc_hd__dfxtp_1
*I *2922:X O *D sky130_fd_sc_hd__clkbuf_1
*CAP
1 *3159:D 0.000282395
2 *2922:X 0.000282395
3 *3159:D *3158:CLK 0.000111509
4 *3159:D *599:88 6.65398e-05
*RES
1 *2922:X *3159:D 32.4795 
*END

*D_NET *37 0.000508596
*CONN
*I *3160:D I *D sky130_fd_sc_hd__dfxtp_1
*I *2925:X O *D sky130_fd_sc_hd__clkbuf_1
*CAP
1 *3160:D 0.000123969
2 *2925:X 0.000123969
3 *3160:D *2812:B2 3.2534e-05
4 *3160:D *2919:A0 0.000170976
5 *3160:D *2926:S 0
6 *3160:D *3160:CLK 5.71472e-05
*RES
1 *2925:X *3160:D 30.5688 
*END

*D_NET *38 0.000336541
*CONN
*I *3161:D I *D sky130_fd_sc_hd__dfxtp_1
*I *2927:X O *D sky130_fd_sc_hd__clkbuf_1
*CAP
1 *3161:D 9.6638e-05
2 *2927:X 9.6638e-05
3 *3161:D *3161:CLK 0.00013001
4 *3161:D *907:8 1.32552e-05
*RES
1 *2927:X *3161:D 20.658 
*END

*D_NET *39 0.000613466
*CONN
*I *3162:D I *D sky130_fd_sc_hd__dfxtp_1
*I *2931:X O *D sky130_fd_sc_hd__clkbuf_1
*CAP
1 *3162:D 0.000217147
2 *2931:X 0.000217147
3 *3162:D *2735:A2 0
4 *3162:D *2797:B2 0
5 *3162:D *2838:A 2.16394e-05
6 *3162:D *3151:CLK 0.000157532
*RES
1 *2931:X *3162:D 31.7116 
*END

*D_NET *40 0.000642538
*CONN
*I *3163:D I *D sky130_fd_sc_hd__dfxtp_1
*I *2933:X O *D sky130_fd_sc_hd__clkbuf_1
*CAP
1 *3163:D 0.000108147
2 *2933:X 0.000108147
3 *3163:D *2735:A2 3.25247e-05
4 *3163:D *2811:A2 4.41309e-05
5 *3163:D *183:85 1.73686e-05
6 *3163:D *359:18 0.000100823
7 *3163:D *371:79 0.000231396
*RES
1 *2933:X *3163:D 31.158 
*END

*D_NET *41 0.000380177
*CONN
*I *3164:D I *D sky130_fd_sc_hd__dfxtp_1
*I *2937:X O *D sky130_fd_sc_hd__clkbuf_1
*CAP
1 *3164:D 0.000122313
2 *2937:X 0.000122313
3 *3164:D *2937:A 0.000135551
*RES
1 *2937:X *3164:D 21.2607 
*END

*D_NET *42 0.00067723
*CONN
*I *3165:D I *D sky130_fd_sc_hd__dfxtp_1
*I *2939:X O *D sky130_fd_sc_hd__clkbuf_1
*CAP
1 *3165:D 0.000309369
2 *2939:X 0.000309369
3 *3165:D *2922:A 0
4 *3165:D *599:65 0
5 *3165:D *599:75 2.07878e-05
6 *3165:D *599:88 3.77053e-05
*RES
1 *2939:X *3165:D 32.1937 
*END

*D_NET *43 0.000878424
*CONN
*I *3166:D I *D sky130_fd_sc_hd__dfxtp_1
*I *2943:X O *D sky130_fd_sc_hd__clkbuf_1
*CAP
1 *3166:D 0.000153776
2 *2943:X 0.000153776
3 *3166:D *2943:A 0.000126931
4 *3166:D *2945:A 0.000123263
5 *3166:D *3166:CLK 9.58126e-05
6 *3166:D *3167:D 0.000183291
7 *3166:D *737:46 4.1575e-05
*RES
1 *2943:X *3166:D 23.725 
*END

*D_NET *44 0.00101375
*CONN
*I *3167:D I *D sky130_fd_sc_hd__dfxtp_1
*I *2945:X O *D sky130_fd_sc_hd__clkbuf_1
*CAP
1 *3167:D 0.000140618
2 *2945:X 0.000140618
3 *3167:D *2943:A 0.000185221
4 *3167:D *2945:A 0.000121573
5 *3167:D *231:116 2.05938e-05
6 *3167:D *374:76 1.64343e-05
7 *3167:D *606:8 1.64343e-05
8 *3167:D *759:34 0.000188967
9 *3166:D *3167:D 0.000183291
*RES
1 *2945:X *3167:D 32.0866 
*END

*D_NET *45 0.000243728
*CONN
*I *3168:D I *D sky130_fd_sc_hd__dfxtp_1
*I *2949:X O *D sky130_fd_sc_hd__clkbuf_1
*CAP
1 *3168:D 5.63793e-05
2 *2949:X 5.63793e-05
3 *3168:D *2812:B2 4.79773e-05
4 *3168:D *3168:CLK 1.64343e-05
5 *3168:D *369:132 1.64343e-05
6 *3168:D *715:58 5.01234e-05
*RES
1 *2949:X *3168:D 29.1045 
*END

*D_NET *46 0.000333401
*CONN
*I *3169:D I *D sky130_fd_sc_hd__dfxtp_1
*I *2951:X O *D sky130_fd_sc_hd__clkbuf_1
*CAP
1 *3169:D 0.000158965
2 *2951:X 0.000158965
3 *3169:D *2951:A 1.5471e-05
*RES
1 *2951:X *3169:D 21.0688 
*END

*D_NET *47 0.000427692
*CONN
*I *3170:D I *D sky130_fd_sc_hd__dfxtp_1
*I *2955:X O *D sky130_fd_sc_hd__clkbuf_1
*CAP
1 *3170:D 0.000187179
2 *2955:X 0.000187179
3 *3170:D *3170:CLK 5.33334e-05
*RES
1 *2955:X *3170:D 21.1938 
*END

*D_NET *48 0.000630762
*CONN
*I *3171:D I *D sky130_fd_sc_hd__dfxtp_1
*I *2957:X O *D sky130_fd_sc_hd__clkbuf_1
*CAP
1 *3171:D 8.37333e-05
2 *2957:X 8.37333e-05
3 *3171:D *2954:A1 0.00010182
4 *3171:D *3171:CLK 0.000100115
5 *3171:D *359:119 0.000173021
6 *3171:D *592:28 7.36697e-05
7 *3171:D *592:30 1.46689e-05
*RES
1 *2957:X *3171:D 30.8366 
*END

*D_NET *49 0.000763816
*CONN
*I *3172:D I *D sky130_fd_sc_hd__dfxtp_1
*I *2961:X O *D sky130_fd_sc_hd__clkbuf_1
*CAP
1 *3172:D 0.000167267
2 *2961:X 0.000167267
3 *3172:D *2737:A1 8.63855e-05
4 *3172:D *2737:A2 2.64791e-05
5 *3172:D *3395:A 4.93118e-06
6 *3172:D *218:126 0.000148903
7 *3172:D *605:8 1.02504e-05
8 *3172:D *605:18 0.000152333
*RES
1 *2961:X *3172:D 31.35 
*END

*D_NET *50 0.0010957
*CONN
*I *3173:D I *D sky130_fd_sc_hd__dfxtp_1
*I *2963:X O *D sky130_fd_sc_hd__clkbuf_1
*CAP
1 *3173:D 0.000254151
2 *2963:X 0.000254151
3 *3173:D *2737:A2 8.36293e-05
4 *3173:D *211:47 0.000150618
5 *3173:D *300:20 0.000223558
6 *3173:D *350:42 8.52807e-05
7 *3173:D *359:111 4.43142e-05
*RES
1 *2963:X *3173:D 32.5821 
*END

*D_NET *51 0.000641677
*CONN
*I *3174:D I *D sky130_fd_sc_hd__dfxtp_1
*I *2967:X O *D sky130_fd_sc_hd__clkbuf_1
*CAP
1 *3174:D 0.000276383
2 *2967:X 0.000276383
3 *3174:D *2919:A0 8.89117e-05
4 *3174:D *3146:CLK 0
*RES
1 *2967:X *3174:D 31.7607 
*END

*D_NET *52 0.00110535
*CONN
*I *3175:D I *D sky130_fd_sc_hd__dfxtp_1
*I *2969:X O *D sky130_fd_sc_hd__clkbuf_1
*CAP
1 *3175:D 0.000158058
2 *2969:X 0.000158058
3 *3175:D *2883:A 3.67452e-05
4 *3175:D *2968:A1 0
5 *3175:D *3175:CLK 0.000354369
6 *3175:D *3357:A 0.000398125
*RES
1 *2969:X *3175:D 33.2786 
*END

*D_NET *53 0.00156407
*CONN
*I *3176:D I *D sky130_fd_sc_hd__dfxtp_1
*I *2975:X O *D sky130_fd_sc_hd__clkbuf_1
*CAP
1 *3176:D 0.000496382
2 *2975:X 0.000496382
3 *3176:D *207:12 0.000112959
4 *3176:D *207:86 0
5 *3176:D *365:64 0.000112959
6 *3176:D *376:44 0.00014067
7 *3176:D *590:246 0.000204722
*RES
1 *2975:X *3176:D 36.3277 
*END

*D_NET *54 0.000694571
*CONN
*I *3177:D I *D sky130_fd_sc_hd__dfxtp_1
*I *2977:X O *D sky130_fd_sc_hd__clkbuf_1
*CAP
1 *3177:D 0.00012939
2 *2977:X 0.00012939
3 *3177:D *2990:B 0.000206878
4 *3177:D *376:44 0.000228913
*RES
1 *2977:X *3177:D 21.8902 
*END

*D_NET *55 0.000359639
*CONN
*I *3178:D I *D sky130_fd_sc_hd__dfxtp_1
*I *2980:X O *D sky130_fd_sc_hd__clkbuf_1
*CAP
1 *3178:D 0.000107474
2 *2980:X 0.000107474
3 *3178:D *3178:CLK 1.02301e-05
4 *3178:D *3268:CLK 2.85234e-05
5 *3178:D *593:57 0.000105937
*RES
1 *2980:X *3178:D 21.2607 
*END

*D_NET *56 0.00139931
*CONN
*I *3179:D I *D sky130_fd_sc_hd__dfxtp_1
*I *2982:X O *D sky130_fd_sc_hd__clkbuf_1
*CAP
1 *3179:D 0.000617479
2 *2982:X 0.000617479
3 *3179:D *2790:A1 2.27416e-05
4 *3179:D *884:10 0.000141611
*RES
1 *2982:X *3179:D 27.9438 
*END

*D_NET *57 0.000414212
*CONN
*I *3180:D I *D sky130_fd_sc_hd__dfxtp_1
*I *2985:X O *D sky130_fd_sc_hd__clkbuf_1
*CAP
1 *3180:D 0.000207106
2 *2985:X 0.000207106
3 *3180:D *323:54 0
4 *3180:D *593:77 0
*RES
1 *2985:X *3180:D 30.7473 
*END

*D_NET *58 0.000268615
*CONN
*I *3181:D I *D sky130_fd_sc_hd__dfxtp_1
*I *2988:X O *D sky130_fd_sc_hd__clkbuf_1
*CAP
1 *3181:D 0.000113512
2 *2988:X 0.000113512
3 *3181:D *2988:A 4.15914e-05
4 *3181:D *3181:CLK 0
*RES
1 *2988:X *3181:D 29.6402 
*END

*D_NET *59 0.000455273
*CONN
*I *3182:D I *D sky130_fd_sc_hd__dfxtp_1
*I *2992:X O *D sky130_fd_sc_hd__clkbuf_1
*CAP
1 *3182:D 0.000146741
2 *2992:X 0.000146741
3 *3182:D *2992:A 2.89016e-05
4 *3182:D *3182:CLK 0.00013001
5 *3182:D *197:108 2.88018e-06
*RES
1 *2992:X *3182:D 21.1938 
*END

*D_NET *60 0.000253753
*CONN
*I *3183:D I *D sky130_fd_sc_hd__dfxtp_1
*I *2994:X O *D sky130_fd_sc_hd__clkbuf_1
*CAP
1 *3183:D 6.6433e-05
2 *2994:X 6.6433e-05
3 *3183:D *430:74 1.76204e-05
4 *3183:D *432:143 0.000103267
*RES
1 *2994:X *3183:D 29.1045 
*END

*D_NET *61 0.000860971
*CONN
*I *3184:D I *D sky130_fd_sc_hd__dfxtp_1
*I *2997:X O *D sky130_fd_sc_hd__clkbuf_1
*CAP
1 *3184:D 0.000250035
2 *2997:X 0.000250035
3 *3184:D *2592:C 6.27272e-06
4 *3184:D *2595:A0 4.87669e-06
5 *3184:D *2761:C 0.000192805
6 *3184:D *2761:D 9.9403e-05
7 *3184:D *2997:A 3.08664e-05
8 *3184:D *370:33 0
9 *3184:D *370:54 0
10 *3184:D *606:102 1.64343e-05
11 *3184:D *759:22 1.02433e-05
*RES
1 *2997:X *3184:D 32.6759 
*END

*D_NET *62 0.000511842
*CONN
*I *3185:D I *D sky130_fd_sc_hd__dfxtp_1
*I *2999:X O *D sky130_fd_sc_hd__clkbuf_1
*CAP
1 *3185:D 0.000118202
2 *2999:X 0.000118202
3 *3185:D *2761:C 8.07903e-05
4 *3185:D *2996:A1 8.45695e-05
5 *3185:D *2999:A 1.02504e-05
6 *3185:D *3185:CLK 3.51442e-05
7 *3185:D *370:54 4.52914e-05
8 *3185:D *436:14 1.93923e-05
*RES
1 *2999:X *3185:D 30.658 
*END

*D_NET *63 0.00130746
*CONN
*I *3186:D I *D sky130_fd_sc_hd__dfxtp_1
*I *3002:X O *D sky130_fd_sc_hd__clkbuf_1
*CAP
1 *3186:D 0.000325629
2 *3002:X 0.000325629
3 *3186:D *2775:A1 0
4 *3186:D *2775:B2 0.000203946
5 *3186:D *2993:A1 6.42338e-05
6 *3186:D *3186:CLK 0.000103041
7 *3186:D *181:16 6.91215e-06
8 *3186:D *181:134 9.4171e-05
9 *3186:D *207:39 0.000101117
10 *3186:D *424:22 8.27814e-05
*RES
1 *3002:X *3186:D 35.6937 
*END

*D_NET *64 0.0011309
*CONN
*I *3187:D I *D sky130_fd_sc_hd__dfxtp_1
*I *3004:X O *D sky130_fd_sc_hd__clkbuf_1
*CAP
1 *3187:D 0.000251845
2 *3004:X 0.000251845
3 *3187:D *3002:A 3.0285e-05
4 *3187:D *3004:A 0.000234136
5 *3187:D *3187:CLK 0.000126512
6 *3187:D *197:108 2.41649e-05
7 *3187:D *215:20 0.000212112
*RES
1 *3004:X *3187:D 32.7473 
*END

*D_NET *65 0.000893513
*CONN
*I *3188:D I *D sky130_fd_sc_hd__dfxtp_1
*I *3008:X O *D sky130_fd_sc_hd__clkbuf_1
*CAP
1 *3188:D 0.000216961
2 *3008:X 0.000216961
3 *3188:D *3008:A 0.000183713
4 *3188:D *3188:CLK 8.82363e-05
5 *3188:D *399:73 0.000125724
6 *3188:D *748:24 6.19181e-05
*RES
1 *3008:X *3188:D 31.8679 
*END

*D_NET *66 0.000423817
*CONN
*I *3189:D I *D sky130_fd_sc_hd__dfxtp_1
*I *3011:X O *D sky130_fd_sc_hd__clkbuf_1
*CAP
1 *3189:D 4.91809e-05
2 *3011:X 4.91809e-05
3 *3189:D *3008:A 1.76204e-05
4 *3189:D *212:91 4.87669e-06
5 *3189:D *399:73 0.000152333
6 *3189:D *748:24 0.000150625
*RES
1 *3011:X *3189:D 29.7116 
*END

*D_NET *67 0.0021362
*CONN
*I *3190:D I *D sky130_fd_sc_hd__dfxtp_1
*I *3014:X O *D sky130_fd_sc_hd__clkbuf_1
*CAP
1 *3190:D 0.000564806
2 *3014:X 0.000564806
3 *3190:D *3014:A 2.84109e-05
4 *3190:D *3457:A 1.00887e-05
5 *3190:D *317:66 0.000230208
6 *3190:D *336:25 0.000266784
7 *3190:D *678:12 7.73675e-05
8 *3190:D *759:12 0.000393727
*RES
1 *3014:X *3190:D 39.3545 
*END

*D_NET *68 0.000433825
*CONN
*I *3191:D I *D sky130_fd_sc_hd__dfxtp_1
*I *3016:X O *D sky130_fd_sc_hd__clkbuf_1
*CAP
1 *3191:D 0.000196117
2 *3016:X 0.000196117
3 *3191:D *3016:A 4.15914e-05
4 *3191:D *183:56 0
*RES
1 *3016:X *3191:D 30.8723 
*END

*D_NET *69 0.000483692
*CONN
*I *3192:D I *D sky130_fd_sc_hd__dfxtp_1
*I *3019:X O *D sky130_fd_sc_hd__clkbuf_1
*CAP
1 *3192:D 0.000108754
2 *3019:X 0.000108754
3 *3192:D *3080:A 1.64343e-05
4 *3192:D *445:70 4.87669e-06
5 *3192:D *474:49 7.85681e-05
6 *3192:D *590:222 0.000166306
*RES
1 *3019:X *3192:D 30.2473 
*END

*D_NET *70 0.00216932
*CONN
*I *3193:D I *D sky130_fd_sc_hd__dfxtp_1
*I *3021:X O *D sky130_fd_sc_hd__clkbuf_1
*CAP
1 *3193:D 0.000444233
2 *3021:X 0.000444233
3 *3193:D *3080:A 0.000744446
4 *3193:D *3449:A 0.000124521
5 *3193:D *285:22 0
6 *3193:D *590:222 4.72325e-05
7 *3193:D *603:39 1.15797e-05
8 *3193:D *868:6 0.000353079
*RES
1 *3021:X *3193:D 38.1402 
*END

*D_NET *71 0.000399503
*CONN
*I *3194:D I *D sky130_fd_sc_hd__dfxtp_1
*I *3024:X O *D sky130_fd_sc_hd__clkbuf_1
*CAP
1 *3194:D 0.000197521
2 *3024:X 0.000197521
3 *3194:D *3194:CLK 4.46186e-06
4 *3194:D *3195:CLK 0
*RES
1 *3024:X *3194:D 30.3545 
*END

*D_NET *72 0.000278356
*CONN
*I *3195:D I *D sky130_fd_sc_hd__dfxtp_1
*I *3026:X O *D sky130_fd_sc_hd__clkbuf_1
*CAP
1 *3195:D 8.74993e-05
2 *3026:X 8.74993e-05
3 *3195:D *3024:A 1.76204e-05
4 *3195:D *3026:A 8.16036e-05
5 *3195:D *3195:CLK 4.1331e-06
*RES
1 *3026:X *3195:D 29.7116 
*END

*D_NET *73 0.000390439
*CONN
*I *3196:D I *D sky130_fd_sc_hd__dfxtp_1
*I *3029:X O *D sky130_fd_sc_hd__clkbuf_1
*CAP
1 *3196:D 0.000157139
2 *3029:X 0.000157139
3 *3196:D *3029:A 5.33005e-05
4 *3196:D *3196:CLK 2.28598e-05
*RES
1 *3029:X *3196:D 21.0688 
*END

*D_NET *74 0.00131334
*CONN
*I *3197:D I *D sky130_fd_sc_hd__dfxtp_1
*I *3031:X O *D sky130_fd_sc_hd__clkbuf_1
*CAP
1 *3197:D 0.000348469
2 *3031:X 0.000348469
3 *3197:D *3023:A0 0.000139907
4 *3197:D *3029:A 6.05161e-06
5 *3197:D *3031:A 0.000173178
6 *3197:D *3196:CLK 0.000201127
7 *3197:D *3197:CLK 4.09103e-05
8 *3197:D *866:8 5.52238e-05
*RES
1 *3031:X *3197:D 35.1045 
*END

*D_NET *75 0.000302078
*CONN
*I *3198:D I *D sky130_fd_sc_hd__dfxtp_1
*I *3034:X O *D sky130_fd_sc_hd__clkbuf_1
*CAP
1 *3198:D 0.000138147
2 *3034:X 0.000138147
3 *3198:D *604:53 9.44309e-06
4 *3198:D *604:55 1.63414e-05
*RES
1 *3034:X *3198:D 29.9259 
*END

*D_NET *76 0.000865254
*CONN
*I *3199:D I *D sky130_fd_sc_hd__dfxtp_1
*I *3036:X O *D sky130_fd_sc_hd__clkbuf_1
*CAP
1 *3199:D 0.000120769
2 *3036:X 0.000120769
3 *3199:D *2692:B1 0.000150043
4 *3199:D *2764:B2 3.50522e-05
5 *3199:D *3036:A 7.89362e-05
6 *3199:D *430:116 0.000257504
7 *3199:D *432:133 0.00010218
*RES
1 *3036:X *3199:D 32.0464 
*END

*D_NET *77 0.000762383
*CONN
*I *3200:D I *D sky130_fd_sc_hd__dfxtp_1
*I *3039:X O *D sky130_fd_sc_hd__clkbuf_1
*CAP
1 *3200:D 0.00034039
2 *3039:X 0.00034039
3 *3200:D *3039:A 8.16036e-05
*RES
1 *3039:X *3200:D 33.8187 
*END

*D_NET *78 0.000991333
*CONN
*I *3201:D I *D sky130_fd_sc_hd__dfxtp_1
*I *3041:X O *D sky130_fd_sc_hd__clkbuf_1
*CAP
1 *3201:D 0.000199488
2 *3041:X 0.000199488
3 *3201:D *3041:A 6.42338e-05
4 *3201:D *604:156 0.000404114
5 *3201:D *861:14 0.00012401
*RES
1 *3041:X *3201:D 33.1045 
*END

*D_NET *79 0.000547773
*CONN
*I *3202:D I *D sky130_fd_sc_hd__dfxtp_1
*I *3044:X O *D sky130_fd_sc_hd__clkbuf_1
*CAP
1 *3202:D 0.000246872
2 *3044:X 0.000246872
3 *3202:D *2697:B2 1.24368e-05
4 *3202:D *3044:A 4.15914e-05
*RES
1 *3044:X *3202:D 31.6938 
*END

*D_NET *80 0.000372033
*CONN
*I *3203:D I *D sky130_fd_sc_hd__dfxtp_1
*I *3046:X O *D sky130_fd_sc_hd__clkbuf_1
*CAP
1 *3203:D 9.52133e-05
2 *3046:X 9.52133e-05
3 *3203:D *2765:A1 0.000105689
4 *3203:D *3202:CLK 4.97918e-05
5 *3203:D *3203:CLK 1.64343e-05
6 *3203:D *595:97 9.69119e-06
*RES
1 *3046:X *3203:D 30.0152 
*END

*D_NET *81 0.000451388
*CONN
*I *3204:D I *D sky130_fd_sc_hd__dfxtp_1
*I *3049:X O *D sky130_fd_sc_hd__clkbuf_1
*CAP
1 *3204:D 0.000181574
2 *3049:X 0.000181574
3 *3204:D *2765:B2 7.99677e-06
4 *3204:D *3205:CLK 2.8266e-06
5 *3204:D *3205:D 7.74154e-05
6 *3204:D *3461:A 0
*RES
1 *3049:X *3204:D 30.658 
*END

*D_NET *82 0.00115487
*CONN
*I *3205:D I *D sky130_fd_sc_hd__dfxtp_1
*I *3051:X O *D sky130_fd_sc_hd__clkbuf_1
*CAP
1 *3205:D 0.000538727
2 *3051:X 0.000538727
3 *3205:D *2765:B1 0
4 *3205:D *3041:A 0
5 *3205:D *3205:CLK 0
6 *3204:D *3205:D 7.74154e-05
*RES
1 *3051:X *3205:D 36.8009 
*END

*D_NET *83 0.00116041
*CONN
*I *3206:D I *D sky130_fd_sc_hd__dfxtp_1
*I *3054:X O *D sky130_fd_sc_hd__clkbuf_1
*CAP
1 *3206:D 0.000346346
2 *3054:X 0.000346346
3 *3206:D *3053:A1 0.000125599
4 *3206:D *3054:A 3.9733e-05
5 *3206:D *595:65 0.000185118
6 *3206:D *595:82 0.000117263
*RES
1 *3054:X *3206:D 35.4393 
*END

*D_NET *84 0.000485897
*CONN
*I *3207:D I *D sky130_fd_sc_hd__dfxtp_1
*I *3056:X O *D sky130_fd_sc_hd__clkbuf_1
*CAP
1 *3207:D 0.000158617
2 *3056:X 0.000158617
3 *3207:D *2766:A1 1.64343e-05
4 *3207:D *3043:A0 7.09043e-05
5 *3207:D *3053:A0 5.66971e-05
6 *3207:D *595:82 2.46282e-05
*RES
1 *3056:X *3207:D 30.9795 
*END

*D_NET *85 0.000691238
*CONN
*I *3208:D I *D sky130_fd_sc_hd__dfxtp_1
*I *3062:X O *D sky130_fd_sc_hd__clkbuf_1
*CAP
1 *3208:D 0.000253648
2 *3062:X 0.000253648
3 *3208:D *3209:CLK 5.5782e-05
4 *3208:D *3209:D 0.000128161
*RES
1 *3062:X *3208:D 32.4795 
*END

*D_NET *86 0.000638473
*CONN
*I *3209:D I *D sky130_fd_sc_hd__dfxtp_1
*I *3064:X O *D sky130_fd_sc_hd__clkbuf_1
*CAP
1 *3209:D 0.000255156
2 *3064:X 0.000255156
3 *3209:D *3063:A1 0
4 *3209:D *3209:CLK 0
5 *3209:D *602:59 0
6 *3208:D *3209:D 0.000128161
*RES
1 *3064:X *3209:D 32.0687 
*END

*D_NET *87 0.0011304
*CONN
*I *3210:D I *D sky130_fd_sc_hd__dfxtp_1
*I *3067:X O *D sky130_fd_sc_hd__clkbuf_1
*CAP
1 *3210:D 0.000366213
2 *3067:X 0.000366213
3 *3210:D *3210:CLK 0.000177459
4 *3210:D *361:30 7.74068e-05
5 *3210:D *407:14 7.74068e-05
6 *3210:D *415:50 6.05161e-06
7 *3210:D *775:57 5.96516e-05
*RES
1 *3067:X *3210:D 32.8723 
*END

*D_NET *88 0.000351758
*CONN
*I *3211:D I *D sky130_fd_sc_hd__dfxtp_1
*I *3069:X O *D sky130_fd_sc_hd__clkbuf_1
*CAP
1 *3211:D 0.000167662
2 *3069:X 0.000167662
3 *3211:D *3239:CLK 1.64343e-05
4 *3211:D *323:54 0
5 *3211:D *597:14 0
*RES
1 *3069:X *3211:D 29.9438 
*END

*D_NET *89 0.000438307
*CONN
*I *3212:D I *D sky130_fd_sc_hd__dfxtp_1
*I *3072:X O *D sky130_fd_sc_hd__clkbuf_1
*CAP
1 *3212:D 0.000157147
2 *3072:X 0.000157147
3 *3212:D *3072:A 3.9733e-05
4 *3212:D *3212:CLK 8.42801e-05
5 *3212:D *3213:CLK 0
*RES
1 *3072:X *3212:D 30.658 
*END

*D_NET *90 0.000348953
*CONN
*I *3213:D I *D sky130_fd_sc_hd__dfxtp_1
*I *3074:X O *D sky130_fd_sc_hd__clkbuf_1
*CAP
1 *3213:D 0.000126217
2 *3074:X 0.000126217
3 *3213:D *3074:A 4.152e-05
4 *3213:D *3213:CLK 5.49995e-05
*RES
1 *3074:X *3213:D 21.0688 
*END

*D_NET *91 0.000739518
*CONN
*I *3214:D I *D sky130_fd_sc_hd__dfxtp_1
*I *3077:X O *D sky130_fd_sc_hd__clkbuf_1
*CAP
1 *3214:D 0.000118492
2 *3077:X 0.000118492
3 *3214:D *2743:B1 0.000148903
4 *3214:D *3076:A1 0.000150625
5 *3214:D *197:108 8.01067e-05
6 *3214:D *285:12 0.000122899
*RES
1 *3077:X *3214:D 31.7652 
*END

*D_NET *92 0.000512539
*CONN
*I *3215:D I *D sky130_fd_sc_hd__dfxtp_1
*I *3079:X O *D sky130_fd_sc_hd__clkbuf_1
*CAP
1 *3215:D 0.000197827
2 *3079:X 0.000197827
3 *3215:D *2741:A1 0
4 *3215:D *2792:A1 2.56694e-05
5 *3215:D *2792:B2 0
6 *3215:D *442:108 1.12499e-05
7 *3215:D *602:101 7.99653e-05
*RES
1 *3079:X *3215:D 30.9616 
*END

*D_NET *93 0.00055573
*CONN
*I *3216:D I *D sky130_fd_sc_hd__dfxtp_1
*I *3082:X O *D sky130_fd_sc_hd__clkbuf_1
*CAP
1 *3216:D 0.0001545
2 *3082:X 0.0001545
3 *3216:D *3084:A 5.5782e-05
4 *3216:D *3216:CLK 0.000190948
*RES
1 *3082:X *3216:D 31.3545 
*END

*D_NET *94 0.000416548
*CONN
*I *3217:D I *D sky130_fd_sc_hd__dfxtp_1
*I *3084:X O *D sky130_fd_sc_hd__clkbuf_1
*CAP
1 *3217:D 0.000114735
2 *3084:X 0.000114735
3 *3217:D *3084:A 1.32552e-05
4 *3217:D *602:53 0.000116676
5 *3217:D *602:59 5.71472e-05
*RES
1 *3084:X *3217:D 21.0688 
*END

*D_NET *95 0.00140147
*CONN
*I *3218:D I *D sky130_fd_sc_hd__dfxtp_1
*I *3087:X O *D sky130_fd_sc_hd__clkbuf_1
*CAP
1 *3218:D 0.000320665
2 *3087:X 0.000320665
3 *3218:D *3082:A 0.000265634
4 *3218:D *3089:A 8.33655e-05
5 *3218:D *3341:A 0.000125731
6 *3218:D *442:64 0.000121573
7 *3218:D *442:77 0.00016384
*RES
1 *3087:X *3218:D 35.2295 
*END

*D_NET *96 0.00130386
*CONN
*I *3219:D I *D sky130_fd_sc_hd__dfxtp_1
*I *3089:X O *D sky130_fd_sc_hd__clkbuf_1
*CAP
1 *3219:D 0.00051514
2 *3089:X 0.00051514
3 *3219:D *3084:A 0.000247377
4 *3219:D *3219:CLK 2.62061e-05
5 *3219:D *602:25 0
6 *3219:D *602:53 0
7 *3219:D *602:59 0
8 *3219:D *843:18 0
*RES
1 *3089:X *3219:D 37.2384 
*END

*D_NET *97 0.00135316
*CONN
*I *3220:D I *D sky130_fd_sc_hd__dfxtp_1
*I *3092:X O *D sky130_fd_sc_hd__clkbuf_1
*CAP
1 *3220:D 0.000200662
2 *3092:X 0.000200662
3 *3220:D *3221:D 0.000262092
4 *3220:D *193:26 5.92278e-05
5 *3220:D *193:56 0.000104077
6 *3220:D *291:16 5.7298e-05
7 *3220:D *391:43 0.000469146
*RES
1 *3092:X *3220:D 34.3723 
*END

*D_NET *98 0.00089232
*CONN
*I *3221:D I *D sky130_fd_sc_hd__dfxtp_1
*I *3094:X O *D sky130_fd_sc_hd__clkbuf_1
*CAP
1 *3221:D 0.00014762
2 *3094:X 0.00014762
3 *3221:D *2800:A1 5.33005e-05
4 *3221:D *3091:A0 1.64343e-05
5 *3221:D *3091:S 4.87669e-06
6 *3221:D *193:56 0.000260377
7 *3220:D *3221:D 0.000262092
*RES
1 *3094:X *3221:D 31.7652 
*END

*D_NET *99 0.000565201
*CONN
*I *3222:D I *D sky130_fd_sc_hd__dfxtp_1
*I *3097:X O *D sky130_fd_sc_hd__clkbuf_1
*CAP
1 *3222:D 0.000108956
2 *3097:X 0.000108956
3 *3222:D *2704:B1 5.52302e-05
4 *3222:D *183:56 4.87669e-06
5 *3222:D *374:141 0.00014228
6 *3222:D *376:80 0.000144902
*RES
1 *3097:X *3222:D 30.2473 
*END

*D_NET *100 0.00103779
*CONN
*I *3223:D I *D sky130_fd_sc_hd__dfxtp_1
*I *3100:X O *D sky130_fd_sc_hd__clkbuf_1
*CAP
1 *3223:D 0.000287764
2 *3100:X 0.000287764
3 *3223:D *2772:A1 0.000178043
4 *3223:D *2772:A3 1.90303e-05
5 *3223:D *2772:B1 0.000200233
6 *3223:D *2778:B 5.66971e-05
7 *3223:D *194:41 8.25843e-06
*RES
1 *3100:X *3223:D 24.6714 
*END

*D_NET *101 0.00095198
*CONN
*I *3224:D I *D sky130_fd_sc_hd__dfxtp_1
*I *3103:X O *D sky130_fd_sc_hd__clkbuf_1
*CAP
1 *3224:D 0.000213691
2 *3103:X 0.000213691
3 *3224:D *2776:A1 5.33005e-05
4 *3224:D *3130:A0 1.76204e-05
5 *3224:D *3225:D 0.000101908
6 *3224:D *197:128 0
7 *3224:D *601:10 0.000124083
8 *3224:D *601:12 0.000146208
9 *3224:D *601:14 8.14787e-05
*RES
1 *3103:X *3224:D 32.6759 
*END

*D_NET *102 0.000380904
*CONN
*I *3225:D I *D sky130_fd_sc_hd__dfxtp_1
*I *3105:X O *D sky130_fd_sc_hd__clkbuf_1
*CAP
1 *3225:D 0.000109802
2 *3105:X 0.000109802
3 *3225:D *2714:A1 4.68707e-06
4 *3225:D *2776:A1 5.47047e-05
5 *3224:D *3225:D 0.000101908
*RES
1 *3105:X *3225:D 29.6402 
*END

*D_NET *103 0.000429029
*CONN
*I *3226:D I *D sky130_fd_sc_hd__dfxtp_1
*I *3108:X O *D sky130_fd_sc_hd__clkbuf_1
*CAP
1 *3226:D 0.000112826
2 *3108:X 0.000112826
3 *3226:D *358:114 9.35012e-05
4 *3226:D *476:56 0.000109876
*RES
1 *3108:X *3226:D 21.6402 
*END

*D_NET *104 0.00103716
*CONN
*I *3227:D I *D sky130_fd_sc_hd__dfxtp_1
*I *3110:X O *D sky130_fd_sc_hd__clkbuf_1
*CAP
1 *3227:D 0.000250314
2 *3110:X 0.000250314
3 *3227:D *3112:S 2.49484e-05
4 *3227:D *3114:A0 0.000150257
5 *3227:D *235:20 0
6 *3227:D *350:93 0
7 *3227:D *399:34 0.000220088
8 *3227:D *500:131 0.000141237
9 *3227:D *748:24 0
*RES
1 *3110:X *3227:D 33.3723 
*END

*D_NET *105 0.000602065
*CONN
*I *3228:D I *D sky130_fd_sc_hd__dfxtp_1
*I *3113:X O *D sky130_fd_sc_hd__clkbuf_1
*CAP
1 *3228:D 0.000128599
2 *3113:X 0.000128599
3 *3228:D *2622:A 0.00012501
4 *3228:D *2773:A 0.000128585
5 *3228:D *3127:B 5.49544e-05
6 *3228:D *3227:CLK 1.64343e-05
7 *3228:D *267:44 1.98839e-05
*RES
1 *3113:X *3228:D 30.3545 
*END

*D_NET *106 0.000580251
*CONN
*I *3229:D I *D sky130_fd_sc_hd__dfxtp_1
*I *3115:X O *D sky130_fd_sc_hd__clkbuf_1
*CAP
1 *3229:D 9.1724e-05
2 *3115:X 9.1724e-05
3 *3229:D *3117:A 8.72041e-05
4 *3229:D *3229:CLK 0.00012465
5 *3229:D *445:8 1.18064e-05
6 *3229:D *726:38 0.000147836
7 *3229:D *829:14 2.53061e-05
*RES
1 *3115:X *3229:D 30.4036 
*END

*D_NET *107 0.000579086
*CONN
*I *3230:D I *D sky130_fd_sc_hd__dfxtp_1
*I *3119:X O *D sky130_fd_sc_hd__clkbuf_1
*CAP
1 *3230:D 0.000168781
2 *3119:X 0.000168781
3 *3230:D *3121:A 0.000112736
4 *3230:D *3128:A0 5.33005e-05
5 *3230:D *601:22 7.54868e-05
*RES
1 *3119:X *3230:D 30.9616 
*END

*D_NET *108 0.000480597
*CONN
*I *3231:D I *D sky130_fd_sc_hd__dfxtp_1
*I *3121:X O *D sky130_fd_sc_hd__clkbuf_1
*CAP
1 *3231:D 0.000201042
2 *3121:X 0.000201042
3 *3231:D *3231:CLK 7.85137e-05
*RES
1 *3121:X *3231:D 30.6938 
*END

*D_NET *109 0.00292933
*CONN
*I *3232:D I *D sky130_fd_sc_hd__dfxtp_1
*I *3124:X O *D sky130_fd_sc_hd__clkbuf_1
*CAP
1 *3232:D 0.000519877
2 *3124:X 0.000519877
3 *3232:D *2791:C 0.000288605
4 *3232:D *3232:CLK 6.58992e-05
5 *3232:D *187:64 0.000102574
6 *3232:D *282:22 0.000415371
7 *3232:D *358:138 0.00061102
8 *3232:D *370:54 9.10431e-06
9 *3232:D *594:26 0.000397003
*RES
1 *3124:X *3232:D 41.533 
*END

*D_NET *110 0.00160748
*CONN
*I *3233:D I *D sky130_fd_sc_hd__dfxtp_1
*I *3126:X O *D sky130_fd_sc_hd__clkbuf_1
*CAP
1 *3233:D 0.000454044
2 *3126:X 0.000454044
3 *3233:D *3124:A 3.92757e-05
4 *3233:D *3233:CLK 0.000124027
5 *3233:D *202:14 0
6 *3233:D *231:98 2.34337e-05
7 *3233:D *350:83 0.000139907
8 *3233:D *737:34 0.00037275
*RES
1 *3126:X *3233:D 38.3545 
*END

*D_NET *111 0.000290862
*CONN
*I *3234:D I *D sky130_fd_sc_hd__dfxtp_1
*I *3129:X O *D sky130_fd_sc_hd__clkbuf_1
*CAP
1 *3234:D 0.000116857
2 *3129:X 0.000116857
3 *3234:D *3234:CLK 5.71472e-05
*RES
1 *3129:X *3234:D 20.658 
*END

*D_NET *112 0.000658953
*CONN
*I *3235:D I *D sky130_fd_sc_hd__dfxtp_1
*I *3131:X O *D sky130_fd_sc_hd__clkbuf_1
*CAP
1 *3235:D 0.000292686
2 *3131:X 0.000292686
3 *3235:D *3129:A 5.71472e-05
4 *3235:D *3131:A 0
5 *3235:D *3234:CLK 0
6 *3235:D *601:99 1.64343e-05
*RES
1 *3131:X *3235:D 32.6759 
*END

*D_NET *113 0.000602741
*CONN
*I *3236:D I *D sky130_fd_sc_hd__dfxtp_1
*I *2547:X O *D sky130_fd_sc_hd__clkbuf_1
*CAP
1 *3236:D 9.37263e-05
2 *2547:X 9.37263e-05
3 *3236:D *3133:A1 0.000173021
4 *3236:D *212:20 0.000175281
5 *3236:D *594:22 6.69865e-05
*RES
1 *2547:X *3236:D 30.9795 
*END

*D_NET *114 0.000294156
*CONN
*I *3237:D I *D sky130_fd_sc_hd__dfxtp_1
*I *2549:X O *D sky130_fd_sc_hd__clkbuf_1
*CAP
1 *3237:D 0.000127609
2 *2549:X 0.000127609
3 *3237:D *176:54 3.8937e-05
*RES
1 *2549:X *3237:D 20.658 
*END

*D_NET *115 0.00161261
*CONN
*I *3238:D I *D sky130_fd_sc_hd__dfxtp_1
*I *2552:X O *D sky130_fd_sc_hd__clkbuf_1
*CAP
1 *3238:D 0.000551997
2 *2552:X 0.000551997
3 *3238:D *2552:A 2.59355e-05
4 *3238:D *2749:A 5.86454e-05
5 *3238:D *2780:A 0.000144199
6 *3238:D *2989:A 0.000145614
7 *3238:D *3383:A 7.6644e-05
8 *3238:D *241:32 1.40415e-05
9 *3238:D *511:150 0
10 *3238:D *819:6 4.3537e-05
*RES
1 *2552:X *3238:D 36.7295 
*END

*D_NET *116 0.000393255
*CONN
*I *3239:D I *D sky130_fd_sc_hd__dfxtp_1
*I *2554:X O *D sky130_fd_sc_hd__clkbuf_1
*CAP
1 *3239:D 0.000113679
2 *2554:X 0.000113679
3 *3239:D *2554:A 9.83259e-05
4 *3239:D *3239:CLK 6.75704e-05
*RES
1 *2554:X *3239:D 20.783 
*END

*D_NET *117 0.000400431
*CONN
*I *3240:D I *D sky130_fd_sc_hd__dfxtp_1
*I *2559:X O *D sky130_fd_sc_hd__clkbuf_1
*CAP
1 *3240:D 0.000155456
2 *2559:X 0.000155456
3 *3240:D *3240:CLK 8.95186e-05
4 *3240:D *591:18 0
*RES
1 *2559:X *3240:D 30.1 
*END

*D_NET *118 0.000632731
*CONN
*I *3241:D I *D sky130_fd_sc_hd__dfxtp_1
*I *2561:X O *D sky130_fd_sc_hd__clkbuf_1
*CAP
1 *3241:D 0.000183356
2 *2561:X 0.000183356
3 *3241:D *2559:A 6.46302e-05
4 *3241:D *2561:A 7.32955e-05
5 *3241:D *591:14 0.000128093
*RES
1 *2561:X *3241:D 22.3009 
*END

*D_NET *119 0.000393994
*CONN
*I *3242:D I *D sky130_fd_sc_hd__dfxtp_1
*I *2564:X O *D sky130_fd_sc_hd__clkbuf_1
*CAP
1 *3242:D 0.000196997
2 *2564:X 0.000196997
*RES
1 *2564:X *3242:D 30.9438 
*END

*D_NET *120 0.000547509
*CONN
*I *3243:D I *D sky130_fd_sc_hd__dfxtp_1
*I *2566:X O *D sky130_fd_sc_hd__clkbuf_1
*CAP
1 *3243:D 0.00020875
2 *2566:X 0.00020875
3 *3243:D *3243:CLK 0.00013001
4 *3243:D *511:66 0
*RES
1 *2566:X *3243:D 31.4795 
*END

*D_NET *121 0.000507697
*CONN
*I *3244:D I *D sky130_fd_sc_hd__dfxtp_1
*I *2569:X O *D sky130_fd_sc_hd__clkbuf_1
*CAP
1 *3244:D 0.000201226
2 *2569:X 0.000201226
3 *3244:D *2569:A 0
4 *3244:D *3244:CLK 0.000105246
*RES
1 *2569:X *3244:D 31.3545 
*END

*D_NET *122 0.000535962
*CONN
*I *3245:D I *D sky130_fd_sc_hd__dfxtp_1
*I *2571:X O *D sky130_fd_sc_hd__clkbuf_1
*CAP
1 *3245:D 0.000181193
2 *2571:X 0.000181193
3 *3245:D *2568:A1 0
4 *3245:D *2571:A 4.15914e-05
5 *3245:D *591:92 0.000131985
*RES
1 *2571:X *3245:D 31.7652 
*END

*D_NET *123 0.000298698
*CONN
*I *3246:D I *D sky130_fd_sc_hd__dfxtp_1
*I *2574:X O *D sky130_fd_sc_hd__clkbuf_1
*CAP
1 *3246:D 0.000128553
2 *2574:X 0.000128553
3 *3246:D *591:22 4.15914e-05
*RES
1 *2574:X *3246:D 29.8723 
*END

*D_NET *124 0.000509653
*CONN
*I *3247:D I *D sky130_fd_sc_hd__dfxtp_1
*I *2576:X O *D sky130_fd_sc_hd__clkbuf_1
*CAP
1 *3247:D 0.000165118
2 *2576:X 0.000165118
3 *3247:D *2574:A 0.000179416
*RES
1 *2576:X *3247:D 30.658 
*END

*D_NET *125 0.000742066
*CONN
*I *3248:D I *D sky130_fd_sc_hd__dfxtp_1
*I *2579:X O *D sky130_fd_sc_hd__clkbuf_1
*CAP
1 *3248:D 0.000371033
2 *2579:X 0.000371033
*RES
1 *2579:X *3248:D 24.533 
*END

*D_NET *126 0.000502481
*CONN
*I *3249:D I *D sky130_fd_sc_hd__dfxtp_1
*I *2581:X O *D sky130_fd_sc_hd__clkbuf_1
*CAP
1 *3249:D 0.000131523
2 *2581:X 0.000131523
3 *3249:D *3249:CLK 0.000144085
4 *3249:D *3347:A 4.96177e-05
5 *3249:D *197:134 4.57329e-05
*RES
1 *2581:X *3249:D 30.9438 
*END

*D_NET *127 0.000417585
*CONN
*I *3250:D I *D sky130_fd_sc_hd__dfxtp_1
*I *2584:X O *D sky130_fd_sc_hd__clkbuf_1
*CAP
1 *3250:D 0.000198509
2 *2584:X 0.000198509
3 *3250:D *598:72 1.64343e-05
4 *3250:D *598:82 4.1331e-06
*RES
1 *2584:X *3250:D 30.3545 
*END

*D_NET *128 0.000936961
*CONN
*I *3251:D I *D sky130_fd_sc_hd__dfxtp_1
*I *2586:X O *D sky130_fd_sc_hd__clkbuf_1
*CAP
1 *3251:D 0.000383569
2 *2586:X 0.000383569
3 *3251:D *2586:A 7.89362e-05
4 *3251:D *511:79 0
5 *3251:D *598:82 7.1607e-05
6 *3251:D *806:10 1.92789e-05
*RES
1 *2586:X *3251:D 34.4437 
*END

*D_NET *129 0.000498731
*CONN
*I *3252:D I *D sky130_fd_sc_hd__dfxtp_1
*I *2589:X O *D sky130_fd_sc_hd__clkbuf_1
*CAP
1 *3252:D 0.000197105
2 *2589:X 0.000197105
3 *3252:D *3459:A 5.57914e-05
4 *3252:D *197:134 4.45987e-05
5 *3252:D *511:96 4.13122e-06
*RES
1 *2589:X *3252:D 31.3545 
*END

*D_NET *130 0.000465955
*CONN
*I *3253:D I *D sky130_fd_sc_hd__dfxtp_1
*I *2591:X O *D sky130_fd_sc_hd__clkbuf_1
*CAP
1 *3253:D 0.000111371
2 *2591:X 0.000111371
3 *3253:D *544:22 9.51076e-05
4 *3253:D *598:62 1.04232e-05
5 *3253:D *598:66 2.77143e-05
6 *3253:D *598:122 0.000109968
*RES
1 *2591:X *3253:D 21.6714 
*END

*D_NET *131 0.00055377
*CONN
*I *3254:D I *D sky130_fd_sc_hd__dfxtp_1
*I *2594:X O *D sky130_fd_sc_hd__clkbuf_1
*CAP
1 *3254:D 0.000109412
2 *2594:X 0.000109412
3 *3254:D *3255:CLK 1.64343e-05
4 *3254:D *174:83 8.25843e-06
5 *3254:D *208:18 0.000144515
6 *3254:D *322:61 4.87669e-06
7 *3254:D *371:61 0.000147632
8 *3254:D *374:90 1.32293e-05
*RES
1 *2594:X *3254:D 30.2473 
*END

*D_NET *132 0.00100914
*CONN
*I *3255:D I *D sky130_fd_sc_hd__dfxtp_1
*I *2596:X O *D sky130_fd_sc_hd__clkbuf_1
*CAP
1 *3255:D 0.000312402
2 *2596:X 0.000312402
3 *3255:D *2995:B 6.46382e-05
4 *3255:D *2996:A1 0.000272928
5 *3255:D *3391:A 1.97695e-05
6 *3255:D *436:14 2.70002e-05
*RES
1 *2596:X *3255:D 25.6402 
*END

*D_NET *133 0.00037345
*CONN
*I *3256:D I *D sky130_fd_sc_hd__dfxtp_1
*I *2599:X O *D sky130_fd_sc_hd__clkbuf_1
*CAP
1 *3256:D 0.000148767
2 *2599:X 0.000148767
3 *3256:D *2601:A 7.05195e-05
4 *3256:D *811:10 5.39629e-06
*RES
1 *2599:X *3256:D 30.2473 
*END

*D_NET *134 0.000306357
*CONN
*I *3257:D I *D sky130_fd_sc_hd__dfxtp_1
*I *2601:X O *D sky130_fd_sc_hd__clkbuf_1
*CAP
1 *3257:D 0.00014205
2 *2601:X 0.00014205
3 *3257:D *3256:CLK 1.757e-05
4 *3257:D *693:36 4.68707e-06
*RES
1 *2601:X *3257:D 29.6402 
*END

*D_NET *135 0.00111009
*CONN
*I *3258:D I *D sky130_fd_sc_hd__dfxtp_1
*I *2604:X O *D sky130_fd_sc_hd__clkbuf_1
*CAP
1 *3258:D 0.00037325
2 *2604:X 0.00037325
3 *3258:D *2557:B 0
4 *3258:D *2606:A 5.71472e-05
5 *3258:D *2804:B1 0.000135304
6 *3258:D *599:42 5.52302e-05
7 *3258:D *599:53 0.000115912
*RES
1 *2604:X *3258:D 34.7786 
*END

*D_NET *136 0.000807404
*CONN
*I *3259:D I *D sky130_fd_sc_hd__dfxtp_1
*I *2606:X O *D sky130_fd_sc_hd__clkbuf_1
*CAP
1 *3259:D 0.000281339
2 *2606:X 0.000281339
3 *3259:D *2605:A1 0
4 *3259:D *2805:B2 0
5 *3259:D *3265:CLK 1.41706e-05
6 *3259:D *208:58 1.76204e-05
7 *3259:D *599:14 1.97381e-05
8 *3259:D *599:16 7.26841e-05
9 *3259:D *599:42 2.14757e-05
10 *3259:D *599:53 9.90367e-05
*RES
1 *2606:X *3259:D 32.5866 
*END

*D_NET *137 0.000765137
*CONN
*I *3260:D I *D sky130_fd_sc_hd__dfxtp_1
*I *2609:X O *D sky130_fd_sc_hd__clkbuf_1
*CAP
1 *3260:D 0.000249366
2 *2609:X 0.000249366
3 *3260:D *2609:A 3.18676e-05
4 *3260:D *3260:CLK 1.64343e-05
5 *3260:D *3261:CLK 1.39726e-05
6 *3260:D *3261:D 8.15207e-05
7 *3260:D *316:78 5.35423e-05
8 *3260:D *371:79 2.77108e-05
9 *3260:D *748:24 4.13573e-05
*RES
1 *2609:X *3260:D 31.8902 
*END

*D_NET *138 0.000673417
*CONN
*I *3261:D I *D sky130_fd_sc_hd__dfxtp_1
*I *2611:X O *D sky130_fd_sc_hd__clkbuf_1
*CAP
1 *3261:D 0.000200783
2 *2611:X 0.000200783
3 *3261:D *3260:CLK 1.90303e-05
4 *3261:D *316:78 0
5 *3261:D *371:79 1.76204e-05
6 *3261:D *748:24 0.000150611
7 *3261:D *893:35 3.06878e-06
8 *3260:D *3261:D 8.15207e-05
*RES
1 *2611:X *3261:D 31.0688 
*END

*D_NET *139 0.00136711
*CONN
*I *3262:D I *D sky130_fd_sc_hd__dfxtp_1
*I *2614:X O *D sky130_fd_sc_hd__clkbuf_1
*CAP
1 *3262:D 0.000360065
2 *2614:X 0.000360065
3 *3262:D *2614:A 0.000143557
4 *3262:D *2724:B2 0.000150618
5 *3262:D *2728:A 7.6021e-05
6 *3262:D *3262:CLK 0.000137983
7 *3262:D *511:30 0.000128546
8 *3262:D *817:10 1.02504e-05
*RES
1 *2614:X *3262:D 34.6357 
*END

*D_NET *140 0.000789904
*CONN
*I *3263:D I *D sky130_fd_sc_hd__dfxtp_1
*I *2616:X O *D sky130_fd_sc_hd__clkbuf_1
*CAP
1 *3263:D 0.000170209
2 *2616:X 0.000170209
3 *3263:D *2557:B 0.000141583
4 *3263:D *2604:A 0
5 *3263:D *2615:A1 6.42338e-05
6 *3263:D *2616:A 9.09669e-05
7 *3263:D *2804:B1 0
8 *3263:D *2808:A2 2.8266e-06
9 *3263:D *321:75 2.59355e-05
10 *3263:D *538:22 2.91887e-05
11 *3263:D *892:8 9.47506e-05
*RES
1 *2616:X *3263:D 32.0241 
*END

*D_NET *141 0.00172544
*CONN
*I *3264:D I *D sky130_fd_sc_hd__dfxtp_1
*I *2619:X O *D sky130_fd_sc_hd__clkbuf_1
*CAP
1 *3264:D 0.000663204
2 *2619:X 0.000663204
3 *3264:D *2727:B2 0.000126278
4 *3264:D *871:10 0.000272756
*RES
1 *2619:X *3264:D 41.3009 
*END

*D_NET *142 0.000357374
*CONN
*I *3265:D I *D sky130_fd_sc_hd__dfxtp_1
*I *2621:X O *D sky130_fd_sc_hd__clkbuf_1
*CAP
1 *3265:D 6.62675e-05
2 *2621:X 6.62675e-05
3 *3265:D *2621:A 1.62025e-05
4 *3265:D *3265:CLK 0.000124795
5 *3265:D *693:36 8.38416e-05
*RES
1 *2621:X *3265:D 21.2607 
*END

*D_NET *143 0.000353585
*CONN
*I *3266:D I *D sky130_fd_sc_hd__dfxtp_1
*I *2624:X O *D sky130_fd_sc_hd__clkbuf_1
*CAP
1 *3266:D 0.000176793
2 *2624:X 0.000176793
*RES
1 *2624:X *3266:D 21.0688 
*END

*D_NET *144 0.00110997
*CONN
*I *3267:D I *D sky130_fd_sc_hd__dfxtp_1
*I *2626:X O *D sky130_fd_sc_hd__clkbuf_1
*CAP
1 *3267:D 0.00026534
2 *2626:X 0.00026534
3 *3267:D *2572:A 7.83587e-05
4 *3267:D *2622:B 0
5 *3267:D *2623:A0 6.32651e-06
6 *3267:D *2626:A 5.71472e-05
7 *3267:D *2802:A1 0.000157442
8 *3267:D *2802:B1 0.000221879
9 *3267:D *2808:B1 0
10 *3267:D *3267:CLK 4.27842e-06
11 *3267:D *174:112 2.13202e-05
12 *3267:D *527:40 3.2534e-05
*RES
1 *2626:X *3267:D 33.7964 
*END

*D_NET *145 0.000648362
*CONN
*I *3268:D I *D sky130_fd_sc_hd__dfxtp_1
*I *2629:X O *D sky130_fd_sc_hd__clkbuf_1
*CAP
1 *3268:D 0.000141634
2 *2629:X 0.000141634
3 *3268:D *2629:A 0.000147732
4 *3268:D *2790:A1 1.64343e-05
5 *3268:D *215:86 9.58181e-05
6 *3268:D *415:50 1.50059e-05
7 *3268:D *415:52 5.80642e-06
8 *3268:D *827:10 8.4297e-05
*RES
1 *2629:X *3268:D 30.658 
*END

*D_NET *146 0.00106621
*CONN
*I *3269:D I *D sky130_fd_sc_hd__dfxtp_1
*I *2631:X O *D sky130_fd_sc_hd__clkbuf_1
*CAP
1 *3269:D 0.000286325
2 *2631:X 0.000286325
3 *3269:D *2595:A0 5.85966e-05
4 *3269:D *2628:A0 7.7159e-06
5 *3269:D *2629:A 6.75178e-05
6 *3269:D *2631:A 6.05161e-06
7 *3269:D *2978:A 2.78261e-05
8 *3269:D *3269:CLK 1.21258e-05
9 *3269:D *254:28 0.000228368
10 *3269:D *322:10 1.94879e-05
11 *3269:D *827:10 6.58704e-05
*RES
1 *2631:X *3269:D 36.7872 
*END

*D_NET *147 0.000721934
*CONN
*I *3270:D I *D sky130_fd_sc_hd__dfxtp_1
*I *2634:X O *D sky130_fd_sc_hd__clkbuf_1
*CAP
1 *3270:D 0.000222067
2 *2634:X 0.000222067
3 *3270:D *2818:A1 0.000171199
4 *3270:D *351:150 0
5 *3270:D *592:18 5.33005e-05
6 *3270:D *592:22 5.33005e-05
*RES
1 *2634:X *3270:D 31.4795 
*END

*D_NET *148 0.00110652
*CONN
*I *3271:D I *D sky130_fd_sc_hd__dfxtp_1
*I *2636:X O *D sky130_fd_sc_hd__clkbuf_1
*CAP
1 *3271:D 0.000199417
2 *2636:X 0.000199417
3 *3271:D *2632:B 0.000288564
4 *3271:D *2683:B 2.59355e-05
5 *3271:D *3271:CLK 8.29284e-05
6 *3271:D *328:149 0.000186641
7 *3271:D *574:8 8.45695e-05
8 *3271:D *608:37 3.90513e-05
*RES
1 *2636:X *3271:D 33.6223 
*END

*D_NET *149 0.000348403
*CONN
*I *3272:D I *D sky130_fd_sc_hd__dfrtp_1
*I *2638:X O *D sky130_fd_sc_hd__clkbuf_1
*CAP
1 *3272:D 0.000154516
2 *2638:X 0.000154516
3 *3272:D *2655:A 1.3701e-05
4 *3272:D *3272:RESET_B 2.56694e-05
*RES
1 *2638:X *3272:D 30.0107 
*END

*D_NET *150 0.000462152
*CONN
*I *3282:D I *D sky130_fd_sc_hd__dfrtp_4
*I *2639:Y O *D sky130_fd_sc_hd__xnor2_1
*CAP
1 *3282:D 0.000162084
2 *2639:Y 0.000162084
3 *3282:D *2639:B 0.000137983
*RES
1 *2639:Y *3282:D 20.7964 
*END

*D_NET *151 0.000612755
*CONN
*I *3283:D I *D sky130_fd_sc_hd__dfrtp_1
*I *2641:X O *D sky130_fd_sc_hd__clkbuf_1
*CAP
1 *3283:D 0.000257144
2 *2641:X 0.000257144
3 *3283:D *2731:A1 9.84673e-05
*RES
1 *2641:X *3283:D 31.1179 
*END

*D_NET *152 0.000407292
*CONN
*I *3285:D I *D sky130_fd_sc_hd__dfrtp_1
*I *2643:X O *D sky130_fd_sc_hd__a22o_1
*CAP
1 *3285:D 0.000190019
2 *2643:X 0.000190019
3 *3285:D *2643:B2 2.04275e-06
4 *3285:D *2677:A 2.52113e-05
*RES
1 *2643:X *3285:D 30.5464 
*END

*D_NET *153 0.000597366
*CONN
*I *3451:A I *D sky130_fd_sc_hd__dlygate4sd3_1
*I *2646:X O *D sky130_fd_sc_hd__a221o_1
*CAP
1 *3451:A 0.000237847
2 *2646:X 0.000237847
3 *3451:A *2646:A2 4.15914e-05
4 *3451:A *781:16 8.00806e-05
*RES
1 *2646:X *3451:A 31.9571 
*END

*D_NET *154 0.000787758
*CONN
*I *3288:D I *D sky130_fd_sc_hd__dfrtp_1
*I *2649:X O *D sky130_fd_sc_hd__clkbuf_1
*CAP
1 *3288:D 0.000202019
2 *2649:X 0.000202019
3 *3288:D *641:22 0.000288962
4 *3292:D *3288:D 9.47584e-05
*RES
1 *2649:X *3288:D 32.3143 
*END

*D_NET *155 0.000745014
*CONN
*I *3293:D I *D sky130_fd_sc_hd__dfstp_1
*I *2655:X O *D sky130_fd_sc_hd__clkbuf_1
*CAP
1 *3293:D 0.000318326
2 *2655:X 0.000318326
3 *3293:D *315:12 3.85645e-05
4 *3294:D *3293:D 6.97972e-05
*RES
1 *2655:X *3293:D 32.2429 
*END

*D_NET *156 0.00298061
*CONN
*I *2663:A2 I *D sky130_fd_sc_hd__a221o_1
*I *2677:B I *D sky130_fd_sc_hd__and2_1
*I *2656:X O *D sky130_fd_sc_hd__and3b_1
*CAP
1 *2663:A2 3.20482e-05
2 *2677:B 0.000716415
3 *2656:X 6.22005e-05
4 *156:10 0.000810664
5 *2663:A2 *2663:A1 0.000119924
6 *2663:A2 *2675:B 0.000148631
7 *2677:B *2664:A2 0.000123068
8 *2677:B *2664:C1 1.76039e-05
9 *2677:B *2666:B 2.56694e-05
10 *2677:B *2673:B1 1.5942e-05
11 *2677:B *2675:B 0.000216149
12 *2677:B *3284:RESET_B 1.52723e-05
13 *2677:B *323:10 2.89016e-05
14 *2677:B *590:138 8.39e-05
15 *2677:B *630:42 4.0342e-06
16 *2677:B *630:54 0.000211263
17 *2677:B *792:19 0.000150581
18 *2677:B *793:24 2.42564e-05
19 *156:10 *630:54 5.01117e-05
20 *156:10 *794:33 6.42242e-05
21 *11:43 *2663:A2 1.5424e-05
22 *11:43 *2677:B 4.43256e-05
*RES
1 *2656:X *156:10 19.9429 
2 *156:10 *2677:B 40.1036 
3 *156:10 *2663:A2 10.8625 
*END

*D_NET *157 0.00290644
*CONN
*I *2675:C I *D sky130_fd_sc_hd__and3_1
*I *2674:A3 I *D sky130_fd_sc_hd__a31o_1
*I *2670:C I *D sky130_fd_sc_hd__and3b_1
*I *2663:B1 I *D sky130_fd_sc_hd__a221o_1
*I *2657:Y O *D sky130_fd_sc_hd__nor2_1
*CAP
1 *2675:C 0.000170466
2 *2674:A3 0
3 *2670:C 6.38872e-05
4 *2663:B1 0
5 *2657:Y 0.000335656
6 *157:40 0.000192808
7 *157:27 0.000186409
8 *157:18 0.000435836
9 *2670:C *3289:D 3.34295e-05
10 *2670:C *793:16 4.06875e-05
11 *2670:C *795:12 4.80729e-05
12 *2670:C *795:16 0.000104974
13 *2675:C *2674:A1 5.95372e-05
14 *2675:C *2674:B1 1.28809e-05
15 *2675:C *2675:B 2.01728e-05
16 *2675:C *2676:A 0.000190973
17 *157:18 *2657:B 0
18 *157:18 *2676:A 5.83233e-05
19 *157:18 *3289:RESET_B 0.000129868
20 *157:18 *641:22 0.000174194
21 *157:18 *794:33 0
22 *157:18 *794:46 0
23 *157:18 *795:29 1.02504e-05
24 *157:18 *795:54 0.000172152
25 *157:27 *2663:B2 2.84269e-05
26 *157:27 *2675:B 3.99614e-06
27 *157:27 *2676:A 0.000216755
28 *157:40 *2674:A1 6.05161e-06
29 *157:40 *2676:A 5.33005e-05
30 *11:29 *157:18 9.55179e-05
31 *11:43 *157:27 6.18091e-05
*RES
1 *2657:Y *157:18 35.175 
2 *157:18 *2663:B1 9.3 
3 *157:18 *157:27 2.60714 
4 *157:27 *2670:C 20.2464 
5 *157:27 *157:40 0.535714 
6 *157:40 *2674:A3 9.3 
7 *157:40 *2675:C 13.0143 
*END

*D_NET *158 0.0024534
*CONN
*I *2659:C I *D sky130_fd_sc_hd__and3_1
*I *2664:B1 I *D sky130_fd_sc_hd__a211oi_1
*I *2835:C I *D sky130_fd_sc_hd__or4b_2
*I *2658:Y O *D sky130_fd_sc_hd__inv_2
*CAP
1 *2659:C 0.000260954
2 *2664:B1 0.00017189
3 *2835:C 0
4 *2658:Y 6.12562e-05
5 *158:6 0.000494101
6 *2659:C *2661:B1 0.000171948
7 *2659:C *2673:A2 2.4896e-05
8 *2659:C *2673:B1 8.0726e-05
9 *2659:C *2677:A 0.000208404
10 *2659:C *159:12 3.69047e-06
11 *2659:C *793:32 5.93614e-05
12 *2659:C *793:47 8.1273e-05
13 *2664:B1 *2664:A1 0.000307232
14 *2664:B1 *2677:A 0.00029025
15 *2664:B1 *795:54 3.10944e-05
16 *2664:B1 *795:62 2.12005e-05
17 *158:6 *795:54 0.000185124
*RES
1 *2658:Y *158:6 11.0679 
2 *158:6 *2835:C 9.3 
3 *158:6 *2664:B1 14.2643 
4 *158:6 *2659:C 25.05 
*END

*D_NET *159 0.0069662
*CONN
*I *2673:A2 I *D sky130_fd_sc_hd__a211o_1
*I *2661:A2 I *D sky130_fd_sc_hd__a21o_1
*I *2823:C I *D sky130_fd_sc_hd__and4_1
*I *2847:B1 I *D sky130_fd_sc_hd__o21a_1
*I *2659:X O *D sky130_fd_sc_hd__and3_1
*CAP
1 *2673:A2 0.000172145
2 *2661:A2 3.75798e-05
3 *2823:C 6.89894e-05
4 *2847:B1 0.000129693
5 *2659:X 0
6 *159:20 0.00119424
7 *159:12 0.00121597
8 *159:4 0.000354977
9 *2673:A2 *2657:A 0.000469514
10 *2673:A2 *2673:B1 6.26876e-05
11 *2823:C *2823:D 0.00027068
12 *2823:C *775:14 0.00012972
13 *2823:C *775:21 0.000182592
14 *2847:B1 *2823:D 0.000135028
15 *2847:B1 *313:10 2.95726e-05
16 *2847:B1 *674:20 0.000150618
17 *2847:B1 *775:14 5.33005e-05
18 *159:12 *2673:B1 1.65169e-05
19 *159:12 *2677:A 0.00021917
20 *159:20 *2643:B1 0
21 *159:20 *2677:A 0
22 *159:20 *2824:A2 3.50931e-05
23 *159:20 *2824:A3 0
24 *159:20 *2835:D_N 0.000915152
25 *159:20 *2852:B 0
26 *159:20 *3145:D 0.000103716
27 *159:20 *3285:RESET_B 0.000477276
28 *159:20 *3318:A 6.0038e-05
29 *159:20 *3369:A 0.000135709
30 *159:20 *310:57 0
31 *159:20 *674:20 0.000133019
32 *159:20 *775:14 3.17148e-05
33 *159:20 *779:14 0
34 *2659:C *2673:A2 2.4896e-05
35 *2659:C *159:12 3.69047e-06
36 *2673:C1 *2673:A2 0.000152905
37 *2848:B1_N *2847:B1 0
*RES
1 *2659:X *159:4 9.3 
2 *159:4 *159:12 12.8036 
3 *159:12 *159:20 33.7679 
4 *159:20 *2847:B1 21.6036 
5 *159:20 *2823:C 12.3 
6 *159:12 *2661:A2 9.83571 
7 *159:4 *2673:A2 15.3357 
*END

*D_NET *160 0.0012003
*CONN
*I *2661:B1 I *D sky130_fd_sc_hd__a21o_1
*I *2660:X O *D sky130_fd_sc_hd__and4bb_1
*CAP
1 *2661:B1 0.000370687
2 *2660:X 0.000370687
3 *2661:B1 *2659:A 2.92343e-05
4 *2661:B1 *2660:C 7.65766e-06
5 *2661:B1 *2661:A1 5.49544e-05
6 *2661:B1 *2677:A 6.70346e-05
7 *2661:B1 *2870:A1 7.20217e-06
8 *2661:B1 *793:47 7.70035e-05
9 *2661:B1 *795:81 4.38942e-05
10 *2659:C *2661:B1 0.000171948
*RES
1 *2660:X *2661:B1 34.3857 
*END

*D_NET *161 0.000874502
*CONN
*I *2662:A I *D sky130_fd_sc_hd__clkbuf_2
*I *2661:X O *D sky130_fd_sc_hd__a21o_1
*CAP
1 *2662:A 0.000202298
2 *2661:X 0.000202298
3 *2662:A *2673:A1 0.000140985
4 *2662:A *2870:A1 9.99853e-05
5 *2662:A *593:95 7.80183e-05
6 *2662:A *786:12 0.000150917
*RES
1 *2661:X *2662:A 31.725 
*END

*D_NET *162 0.00415729
*CONN
*I *2673:B1 I *D sky130_fd_sc_hd__a211o_1
*I *2666:B I *D sky130_fd_sc_hd__or3b_1
*I *2664:Y O *D sky130_fd_sc_hd__a211oi_1
*CAP
1 *2673:B1 0.000945656
2 *2666:B 0.000343289
3 *2664:Y 0
4 *162:6 0.00128895
5 *2666:B *2660:A_N 0.000364967
6 *2666:B *2667:A 0.000182562
7 *2666:B *590:121 0
8 *2666:B *590:138 0
9 *2666:B *593:8 4.88515e-05
10 *2673:B1 *2660:A_N 0.000293753
11 *2673:B1 *2664:C1 0.000148196
12 *2673:B1 *2835:D_N 0.000112813
13 *2673:B1 *590:138 0
14 *2659:C *2673:B1 8.0726e-05
15 *2673:A2 *2673:B1 6.26876e-05
16 *2673:C1 *2673:B1 4.15938e-05
17 *2677:B *2666:B 2.56694e-05
18 *2677:B *2673:B1 1.5942e-05
19 *3294:D *2666:B 0.000185124
20 *159:12 *2673:B1 1.65169e-05
*RES
1 *2664:Y *162:6 13.8 
2 *162:6 *2666:B 22.3179 
3 *162:6 *2673:B1 28.9607 
*END

*D_NET *163 0.00757398
*CONN
*I *2666:C_N I *D sky130_fd_sc_hd__or3b_1
*I *2640:S I *D sky130_fd_sc_hd__mux2_1
*I *2639:B I *D sky130_fd_sc_hd__xnor2_1
*I *2665:X O *D sky130_fd_sc_hd__or3b_2
*CAP
1 *2666:C_N 0
2 *2640:S 0
3 *2639:B 0.000328491
4 *2665:X 0.00062453
5 *163:32 0.00161628
6 *163:18 0.00191232
7 *2639:B *2640:A0 2.84398e-05
8 *2639:B *2641:A 9.91086e-05
9 *2639:B *3282:CLK 2.89114e-05
10 *2639:B *315:22 0.000227539
11 *2639:B *592:102 0.000245374
12 *2639:B *630:12 0
13 *163:18 *2656:A_N 5.52238e-05
14 *163:18 *793:18 2.9911e-05
15 *163:18 *793:24 0.000357851
16 *163:18 *794:29 9.71197e-05
17 *163:18 *795:18 0.000225609
18 *163:18 *795:109 9.65301e-05
19 *163:32 *315:12 3.42301e-05
20 *163:32 *315:22 0.000401764
21 *163:32 *592:102 0.000719386
22 *163:32 *592:113 0.000219676
23 *163:32 *793:24 8.7707e-05
24 *3282:D *2639:B 0.000137983
25 *3294:D *163:32 0
*RES
1 *2665:X *163:18 20.8357 
2 *163:18 *163:32 33.2679 
3 *163:32 *2639:B 26.05 
4 *163:32 *2640:S 9.3 
5 *163:18 *2666:C_N 9.3 
*END

*D_NET *164 0.00107728
*CONN
*I *2667:A I *D sky130_fd_sc_hd__clkbuf_1
*I *2666:X O *D sky130_fd_sc_hd__or3b_1
*CAP
1 *2667:A 0.000247855
2 *2666:X 0.000247855
3 *2667:A *2660:A_N 7.83659e-05
4 *2667:A *3290:CLK 0.0001399
5 *2667:A *3290:D 2.89114e-05
6 *2667:A *682:14 7.90803e-05
7 *2666:B *2667:A 0.000182562
8 *3294:D *2667:A 7.2754e-05
*RES
1 *2666:X *2667:A 32.6714 
*END

*D_NET *165 0.000379707
*CONN
*I *2669:A I *D sky130_fd_sc_hd__clkbuf_1
*I *2668:X O *D sky130_fd_sc_hd__or2_1
*CAP
1 *2669:A 0.000139373
2 *2668:X 0.000139373
3 *2669:A *2668:A 0.00010096
*RES
1 *2668:X *2669:A 21.2071 
*END

*D_NET *166 0.00166398
*CONN
*I *2671:A I *D sky130_fd_sc_hd__buf_1
*I *2670:X O *D sky130_fd_sc_hd__and3b_1
*CAP
1 *2671:A 0.000403754
2 *2670:X 0.000403754
3 *2671:A *2665:A 1.04232e-05
4 *2671:A *2665:B 0.000180777
5 *2671:A *2665:C_N 5.33005e-05
6 *2671:A *2674:B1 3.90513e-05
7 *2671:A *2675:A 5.35516e-05
8 *2671:A *793:16 5.52302e-05
9 *2671:A *795:109 6.71854e-05
10 *2645:A *2671:A 0.000380398
11 *10:29 *2671:A 1.65558e-05
*RES
1 *2670:X *2671:A 37.2607 
*END

*D_NET *167 0.00213116
*CONN
*I *2673:A1 I *D sky130_fd_sc_hd__a211o_1
*I *2870:A1 I *D sky130_fd_sc_hd__o21bai_1
*I *2672:Y O *D sky130_fd_sc_hd__inv_2
*CAP
1 *2673:A1 0.000188784
2 *2870:A1 0.000236395
3 *2672:Y 0
4 *167:4 0.000425178
5 *2673:A1 *786:12 0.00014456
6 *2870:A1 *2661:A1 4.29615e-05
7 *2870:A1 *2677:A 4.43106e-05
8 *2870:A1 *786:12 3.08664e-05
9 *2661:B1 *2870:A1 7.20217e-06
10 *2662:A *2673:A1 0.000140985
11 *2662:A *2870:A1 9.99853e-05
12 *2673:C1 *2673:A1 5.74242e-05
13 *2870:A2 *2870:A1 0.000269379
14 *3292:D *2673:A1 0.000173751
15 *3407:A *2870:A1 0.000269379
*RES
1 *2672:Y *167:4 9.3 
2 *167:4 *2870:A1 25.0321 
3 *167:4 *2673:A1 23.3357 
*END

*D_NET *168 0.00201557
*CONN
*I *2674:B1 I *D sky130_fd_sc_hd__a31o_1
*I *2673:X O *D sky130_fd_sc_hd__a211o_1
*CAP
1 *2674:B1 0.00050943
2 *2673:X 0.00050943
3 *2674:B1 *2648:A1 0.000552011
4 *2674:B1 *2657:A 3.50746e-05
5 *2674:B1 *2657:B 0.000139344
6 *2645:A *2674:B1 0.00014576
7 *2671:A *2674:B1 3.90513e-05
8 *2675:C *2674:B1 1.28809e-05
9 *10:29 *2674:B1 7.25917e-05
*RES
1 *2673:X *2674:B1 39.4973 
*END

*D_NET *169 0.0026939
*CONN
*I *2676:A I *D sky130_fd_sc_hd__clkbuf_1
*I *2675:X O *D sky130_fd_sc_hd__and3_1
*CAP
1 *2676:A 0.000664961
2 *2675:X 0.000664961
3 *2676:A *2648:A1 0
4 *2676:A *2663:A1 3.69047e-06
5 *2676:A *2670:B 0
6 *2676:A *2674:A2 0
7 *2676:A *2675:B 0.000508712
8 *2676:A *630:54 0
9 *2676:A *630:73 0
10 *2676:A *793:16 7.80714e-06
11 *2676:A *794:10 0.000101545
12 *2676:A *794:29 7.90803e-05
13 *2676:A *794:33 5.71658e-05
14 *2676:A *795:29 7.91281e-05
15 *2675:C *2676:A 0.000190973
16 *11:43 *2676:A 7.49387e-06
17 *157:18 *2676:A 5.83233e-05
18 *157:27 *2676:A 0.000216755
19 *157:40 *2676:A 5.33005e-05
*RES
1 *2675:X *2676:A 42.2607 
*END

*D_NET *170 0.00029716
*CONN
*I *2678:A I *D sky130_fd_sc_hd__clkbuf_1
*I *2677:X O *D sky130_fd_sc_hd__and2_1
*CAP
1 *2678:A 8.37824e-05
2 *2677:X 8.37824e-05
3 *2678:A *323:10 0.000129595
*RES
1 *2677:X *2678:A 20.7786 
*END

*D_NET *171 0.00943931
*CONN
*I *2702:C I *D sky130_fd_sc_hd__nor4b_2
*I *2690:D_N I *D sky130_fd_sc_hd__nor4b_2
*I *2716:D I *D sky130_fd_sc_hd__and4bb_4
*I *2695:B_N I *D sky130_fd_sc_hd__and4bb_4
*I *2710:B I *D sky130_fd_sc_hd__and4b_4
*I *2689:C I *D sky130_fd_sc_hd__and4bb_4
*I *2693:C I *D sky130_fd_sc_hd__nor4b_2
*I *2715:B_N I *D sky130_fd_sc_hd__and4bb_4
*I *2705:D I *D sky130_fd_sc_hd__and4_4
*I *2680:D I *D sky130_fd_sc_hd__nor4_1
*I *2679:X O *D sky130_fd_sc_hd__buf_2
*CAP
1 *2702:C 8.37945e-05
2 *2690:D_N 0
3 *2716:D 0
4 *2695:B_N 0
5 *2710:B 0.00017317
6 *2689:C 0
7 *2693:C 0.000193267
8 *2715:B_N 4.74573e-05
9 *2705:D 0.000101779
10 *2680:D 8.68979e-05
11 *2679:X 0.000219692
12 *171:97 0.000392239
13 *171:60 0.000553176
14 *171:41 0.000463617
15 *171:37 0.000300797
16 *171:31 0.000470479
17 *171:29 0.000170652
18 *171:23 0.000312887
19 *171:10 0.000284204
20 *171:8 0.000358558
21 *2680:D *187:58 0.000169632
22 *2680:D *194:8 0.000114121
23 *2693:C *2693:A 0.000220498
24 *2693:C *3037:A 5.88158e-05
25 *2693:C *180:44 3.57366e-05
26 *2693:C *180:61 0.000125731
27 *2693:C *403:28 3.4323e-06
28 *2702:C *2702:B 0
29 *2702:C *2702:D_N 0.000153273
30 *2702:C *178:8 7.02611e-05
31 *2702:C *187:58 2.39876e-05
32 *2702:C *194:8 2.84494e-05
33 *2705:D *2705:B 5.33005e-05
34 *2705:D *178:43 0.000254036
35 *2705:D *179:31 0.0003482
36 *2705:D *179:41 5.52238e-05
37 *2705:D *403:28 1.97756e-05
38 *2710:B *2710:D 0
39 *2710:B *183:22 0
40 *2710:B *187:16 0
41 *2715:B_N *3003:S 4.58194e-05
42 *2715:B_N *179:58 0.000140933
43 *171:8 *178:8 0.000309266
44 *171:10 *187:58 4.33438e-05
45 *171:10 *194:8 4.78056e-05
46 *171:23 *2690:B 0.000222666
47 *171:23 *2726:B 8.43535e-06
48 *171:23 *2726:D 2.89016e-05
49 *171:23 *180:138 3.99414e-05
50 *171:23 *182:10 1.38323e-05
51 *171:23 *403:28 0.000219711
52 *171:23 *800:19 0.000139907
53 *171:29 *2690:B 0
54 *171:29 *2716:A_N 9.71197e-05
55 *171:29 *2716:B_N 0
56 *171:29 *179:31 1.39841e-05
57 *171:29 *179:84 0.000102474
58 *171:29 *182:10 5.33005e-05
59 *171:29 *403:28 0.000192628
60 *171:37 *2689:B_N 0.000108229
61 *171:37 *2689:D 5.52238e-05
62 *171:37 *178:41 9.25014e-06
63 *171:37 *179:12 2.72545e-05
64 *171:37 *183:56 0
65 *171:37 *391:16 8.00346e-05
66 *171:41 *183:56 0.000122939
67 *171:41 *208:10 0.000122939
68 *171:60 *2715:D 0.000214743
69 *171:60 *179:58 6.07943e-05
70 *171:60 *180:63 0
71 *171:60 *183:56 0.000168939
72 *171:60 *208:10 4.49293e-05
73 *171:97 *2693:D_N 0.000153279
74 *171:97 *178:41 0.00021192
75 *171:97 *178:74 0.000148196
76 *171:97 *179:12 0.000109659
77 *171:97 *180:44 8.36503e-05
78 *171:97 *183:22 0
79 *171:97 *187:12 5.01213e-05
*RES
1 *2679:X *171:8 16.8 
2 *171:8 *171:10 1.33929 
3 *171:10 *2680:D 16.6571 
4 *171:10 *171:23 8.73214 
5 *171:23 *171:29 4.67857 
6 *171:29 *171:31 4.5 
7 *171:31 *171:37 9.44643 
8 *171:37 *171:41 6.14286 
9 *171:41 *2705:D 17.6214 
10 *171:41 *171:60 10.5 
11 *171:60 *2715:B_N 10.6571 
12 *171:60 *2693:C 22.9786 
13 *171:37 *2689:C 9.3 
14 *171:31 *171:97 10.9643 
15 *171:97 *2710:B 21.1571 
16 *171:97 *2695:B_N 9.3 
17 *171:29 *2716:D 9.3 
18 *171:23 *2690:D_N 9.3 
19 *171:8 *2702:C 16.3179 
*END

*D_NET *172 0.00413889
*CONN
*I *3464:A I *D sky130_fd_sc_hd__buf_1
*I *2766:A2 I *D sky130_fd_sc_hd__a221o_1
*I *2697:A2 I *D sky130_fd_sc_hd__a221o_1
*I *2680:Y O *D sky130_fd_sc_hd__nor4_1
*CAP
1 *3464:A 0.000304922
2 *2766:A2 6.41897e-05
3 *2697:A2 8.3637e-06
4 *2680:Y 0.000198113
5 *172:14 0.000775598
6 *172:10 0.00120608
7 *2697:A2 *2697:C1 1.46576e-05
8 *2766:A2 *2766:B1 0.000173614
9 *2766:A2 *2767:C1 6.11331e-05
10 *2766:A2 *3050:A1 1.70057e-05
11 *2766:A2 *595:97 7.13226e-06
12 *3464:A *2726:D 6.05161e-06
13 *3464:A *800:6 4.01768e-05
14 *3464:A *800:19 1.51553e-05
15 *172:10 *2680:B 2.05938e-05
16 *172:10 *2688:A 0.000138881
17 *172:10 *798:27 0.000177604
18 *172:14 *2680:B 9.25014e-06
19 *172:14 *2720:A_N 0.000144038
20 *172:14 *2766:B1 5.36422e-05
21 *172:14 *2767:C1 7.09043e-05
22 *172:14 *185:27 3.47561e-05
23 *172:14 *421:12 0
24 *172:14 *465:12 0.000146546
25 *172:14 *468:12 0
26 *172:14 *678:12 0
27 *172:14 *798:21 4.89854e-05
28 *172:14 *798:27 9.047e-05
29 *172:14 *799:53 0.000311028
*RES
1 *2680:Y *172:10 17.0143 
2 *172:10 *172:14 14.125 
3 *172:14 *2697:A2 13.9473 
4 *172:14 *2766:A2 16.1973 
5 *172:10 *3464:A 17.5321 
*END

*D_NET *173 0.00180468
*CONN
*I *2682:A I *D sky130_fd_sc_hd__buf_2
*I *2779:C I *D sky130_fd_sc_hd__and3_1
*I *2681:Y O *D sky130_fd_sc_hd__nor2_1
*CAP
1 *2682:A 0.000112904
2 *2779:C 0.000105341
3 *2681:Y 0.000300322
4 *173:12 0.000518567
5 *2682:A *2755:B1 5.58941e-05
6 *2682:A *2779:A 9.3231e-05
7 *2682:A *2978:B 5.80706e-06
8 *2682:A *211:41 0
9 *2682:A *419:14 2.49484e-05
10 *2682:A *419:16 0.000111571
11 *2779:C *2779:A 5.52302e-05
12 *2779:C *3277:RESET_B 4.85647e-05
13 *173:12 *2699:B 8.08022e-05
14 *173:12 *2984:S 4.46186e-06
15 *173:12 *2987:S 4.21584e-05
16 *173:12 *3277:RESET_B 0.00024488
17 *173:12 *419:14 0
*RES
1 *2681:Y *173:12 23.1393 
2 *173:12 *2779:C 10.7286 
3 *173:12 *2682:A 21.7643 
*END

*D_NET *174 0.0237113
*CONN
*I *2750:A3 I *D sky130_fd_sc_hd__a31o_1
*I *2758:B I *D sky130_fd_sc_hd__and2_1
*I *2760:A3 I *D sky130_fd_sc_hd__a311o_1
*I *2756:B I *D sky130_fd_sc_hd__and3_1
*I *2784:B I *D sky130_fd_sc_hd__and3_1
*I *2798:B2 I *D sky130_fd_sc_hd__a32o_1
*I *2729:B1 I *D sky130_fd_sc_hd__o21a_1
*I *2808:B1 I *D sky130_fd_sc_hd__o31a_1
*I *2747:B2 I *D sky130_fd_sc_hd__a32o_1
*I *2683:B I *D sky130_fd_sc_hd__nand2_1
*I *2682:X O *D sky130_fd_sc_hd__buf_2
*CAP
1 *2750:A3 0
2 *2758:B 0
3 *2760:A3 2.30826e-05
4 *2756:B 0
5 *2784:B 0.000456789
6 *2798:B2 0
7 *2729:B1 0.000330616
8 *2808:B1 0.000470756
9 *2747:B2 1.21804e-05
10 *2683:B 0.000203014
11 *2682:X 0.000358449
12 *174:112 0.00146557
13 *174:104 0.00101479
14 *174:83 0.00121895
15 *174:69 0.00164979
16 *174:61 0.000967341
17 *174:43 0.00085184
18 *174:35 0.000624742
19 *174:18 0.00120228
20 *174:14 0.00093122
21 *2683:B *2632:B 0.000169585
22 *2683:B *2683:A 0
23 *2683:B *322:10 2.30866e-05
24 *2683:B *608:18 3.04394e-05
25 *2683:B *608:37 3.34295e-05
26 *2729:B1 *2623:A1 0.000118992
27 *2729:B1 *2625:A1 9.10894e-05
28 *2729:B1 *2721:A1 0.0001249
29 *2729:B1 *2802:B1 7.32073e-05
30 *2729:B1 *3267:CLK 0
31 *2729:B1 *218:42 2.52964e-05
32 *2729:B1 *350:118 7.67902e-05
33 *2747:B2 *2747:A1 5.49489e-05
34 *2747:B2 *2747:B1 5.49489e-05
35 *2760:A3 *2760:B1 0
36 *2784:B *2592:B 2.05612e-05
37 *2784:B *2593:A1 7.2266e-05
38 *2784:B *2593:S 7.82908e-05
39 *2784:B *2788:A 9.25014e-06
40 *2784:B *3373:A 8.43386e-05
41 *2784:B *361:54 0.000413532
42 *2784:B *370:54 1.17921e-05
43 *2784:B *436:14 5.52238e-05
44 *2784:B *550:6 2.12647e-05
45 *2784:B *715:30 5.22029e-05
46 *2784:B *715:47 0.000347775
47 *2784:B *929:12 0.000226274
48 *2808:B1 *2612:B 0
49 *2808:B1 *2613:A0 2.80412e-05
50 *2808:B1 *2625:A1 0.000217239
51 *2808:B1 *2626:A 0.000102196
52 *2808:B1 *2802:B1 0.000181832
53 *2808:B1 *2807:A2 0.000171649
54 *2808:B1 *2808:A1 0.0002273
55 *2808:B1 *2808:A2 2.8616e-05
56 *2808:B1 *2808:A3 5.33005e-05
57 *2808:B1 *328:71 3.593e-05
58 *2808:B1 *538:22 7.43412e-05
59 *174:14 *2750:A2 5.83233e-05
60 *174:14 *2755:B1 9.41642e-05
61 *174:14 *241:32 4.78664e-05
62 *174:14 *419:57 0.000244653
63 *174:14 *619:39 5.33005e-05
64 *174:18 *2629:A 0.000484918
65 *174:18 *2632:B 0.00014742
66 *174:18 *2750:A1 1.19488e-05
67 *174:18 *322:10 0.000261436
68 *174:18 *571:18 0.000321949
69 *174:18 *827:10 1.30833e-05
70 *174:35 *2758:A 0.000776458
71 *174:35 *2877:A 9.66977e-05
72 *174:35 *2877:B 9.74665e-05
73 *174:35 *250:8 7.48091e-05
74 *174:35 *322:12 6.11724e-05
75 *174:35 *322:16 4.59075e-05
76 *174:43 *2760:B1 0.000488964
77 *174:43 *2944:A0 9.25014e-06
78 *174:43 *187:96 0.00010122
79 *174:43 *232:14 0
80 *174:43 *359:12 8.18783e-05
81 *174:43 *759:28 0.000116049
82 *174:61 *2567:A 2.68802e-05
83 *174:61 *2760:B1 9.66977e-05
84 *174:61 *2899:B 0.000148039
85 *174:61 *2918:B 0.00022197
86 *174:61 *291:28 0.000133952
87 *174:61 *359:12 1.21258e-05
88 *174:61 *361:54 0.000136969
89 *174:61 *370:33 8.55837e-05
90 *174:61 *737:34 0
91 *174:61 *759:28 2.59355e-05
92 *174:69 *2593:A0 9.93918e-06
93 *174:69 *2757:B1 0.000166711
94 *174:69 *2918:B 0.000224575
95 *174:69 *202:14 0.000277328
96 *174:69 *322:61 0
97 *174:83 *2592:B 0.000181107
98 *174:83 *2593:A1 8.25843e-06
99 *174:83 *2594:A 2.85234e-05
100 *174:83 *2747:A1 0.000140243
101 *174:83 *2747:B1 8.43386e-05
102 *174:83 *2915:A0 0.000185118
103 *174:83 *2915:A1 4.73286e-05
104 *174:83 *2915:S 0.000379978
105 *174:83 *208:18 7.74644e-05
106 *174:83 *322:61 3.42164e-05
107 *174:83 *374:90 0.000121115
108 *174:104 *2747:A1 4.60232e-06
109 *174:104 *2747:B1 5.98192e-05
110 *174:104 *2798:B1 1.94135e-05
111 *174:104 *2914:A 6.14002e-05
112 *174:104 *211:85 0.000595671
113 *174:104 *316:60 0.000465712
114 *174:104 *395:53 4.43393e-05
115 *174:104 *527:26 2.50474e-05
116 *174:112 *2623:A0 0.000309311
117 *174:112 *2914:A 5.20492e-05
118 *174:112 *3267:CLK 5.33005e-05
119 *174:112 *848:8 0.000221894
120 *3156:D *174:112 2.85321e-05
121 *3254:D *174:83 8.25843e-06
122 *3267:D *2808:B1 0
123 *3267:D *174:112 2.13202e-05
124 *3271:D *2683:B 2.59355e-05
*RES
1 *2682:X *174:14 20.1393 
2 *174:14 *174:18 12.9107 
3 *174:18 *2683:B 17.7286 
4 *174:18 *174:35 14.8929 
5 *174:35 *174:43 15.7857 
6 *174:43 *174:61 20.7679 
7 *174:61 *174:69 14.9464 
8 *174:69 *174:83 26.0357 
9 *174:83 *2747:B2 9.83571 
10 *174:83 *174:104 19.4824 
11 *174:104 *174:112 17.3929 
12 *174:112 *2808:B1 25.4429 
13 *174:112 *2729:B1 21.2643 
14 *174:104 *2798:B2 9.3 
15 *174:69 *2784:B 30.5143 
16 *174:61 *2756:B 9.3 
17 *174:43 *2760:A3 9.72857 
18 *174:35 *2758:B 9.3 
19 *174:14 *2750:A3 13.8 
*END

*D_NET *175 0.00182413
*CONN
*I *2818:A2 I *D sky130_fd_sc_hd__o21a_1
*I *2763:A2 I *D sky130_fd_sc_hd__o221a_1
*I *2683:Y O *D sky130_fd_sc_hd__nand2_1
*CAP
1 *2818:A2 0.000260004
2 *2763:A2 0
3 *2683:Y 0.000203442
4 *175:8 0.000463447
5 *2818:A2 *2763:C1 0.00053128
6 *2818:A2 *2818:B1 9.14882e-05
7 *2818:A2 *619:62 0
8 *175:8 *2763:C1 6.09804e-05
9 *175:8 *608:16 5.74499e-06
10 *175:8 *608:18 1.07719e-05
11 *3280:D *2818:A2 0.000196968
*RES
1 *2683:Y *175:8 12.6214 
2 *175:8 *2763:A2 9.3 
3 *175:8 *2818:A2 26.0321 
*END

*D_NET *176 0.0234755
*CONN
*I *2785:B I *D sky130_fd_sc_hd__and3_1
*I *2708:B I *D sky130_fd_sc_hd__and3_1
*I *2771:B I *D sky130_fd_sc_hd__and3_1
*I *2685:A I *D sky130_fd_sc_hd__clkbuf_4
*I *2770:A2 I *D sky130_fd_sc_hd__a311o_1
*I *2795:B I *D sky130_fd_sc_hd__and3_1
*I *2744:B I *D sky130_fd_sc_hd__and3_1
*I *2782:B I *D sky130_fd_sc_hd__and3_1
*I *2754:B I *D sky130_fd_sc_hd__and3_1
*I *2684:Y O *D sky130_fd_sc_hd__nor2b_2
*CAP
1 *2785:B 0.000161484
2 *2708:B 0.000557021
3 *2771:B 0
4 *2685:A 0
5 *2770:A2 0.000637002
6 *2795:B 0
7 *2744:B 0.000697692
8 *2782:B 8.47094e-05
9 *2754:B 9.73782e-05
10 *2684:Y 0.000200962
11 *176:74 0.00113385
12 *176:70 0.00157594
13 *176:64 0.000984315
14 *176:54 0.0011011
15 *176:44 0.00210692
16 *176:27 0.00160187
17 *176:23 0.000901964
18 *176:8 0.000451993
19 *2708:B *2708:C 1.72099e-05
20 *2708:B *3419:A 6.45442e-05
21 *2708:B *187:58 3.46968e-05
22 *2708:B *218:108 0.000468355
23 *2708:B *352:34 0.000180207
24 *2708:B *403:49 0.000127441
25 *2708:B *619:14 7.62712e-05
26 *2708:B *715:30 0.000254339
27 *2744:B *2587:A 5.52302e-05
28 *2744:B *2745:B1 5.52238e-05
29 *2744:B *2910:A 0.000188118
30 *2744:B *3220:CLK 4.96957e-05
31 *2744:B *183:75 2.69485e-05
32 *2744:B *600:109 7.03295e-05
33 *2744:B *910:10 0.000241191
34 *2754:B *215:72 0.00026467
35 *2754:B *608:16 0.000262948
36 *2770:A2 *2704:B1 2.06112e-05
37 *2770:A2 *2770:C1 0
38 *2770:A2 *2777:B2 5.70414e-06
39 *2770:A2 *177:147 4.67002e-05
40 *2770:A2 *183:69 0.000129116
41 *2770:A2 *193:60 8.0718e-05
42 *2770:A2 *193:76 0.00024212
43 *2770:A2 *222:26 0.00044958
44 *2770:A2 *267:44 0.000183527
45 *2770:A2 *369:74 6.38644e-05
46 *2782:B *2751:A 3.79467e-05
47 *2782:B *231:14 5.52238e-05
48 *2782:B *411:14 9.91086e-05
49 *2785:B *2783:B 2.16719e-05
50 *2785:B *2783:C 0.000249486
51 *2785:B *215:68 0.000117903
52 *2785:B *215:72 0.000177948
53 *2785:B *430:30 1.81774e-05
54 *176:8 *2739:B 9.47712e-05
55 *176:8 *774:92 2.08887e-05
56 *176:8 *802:18 1.33343e-05
57 *176:23 *215:72 0.000212627
58 *176:23 *608:16 0.00022117
59 *176:27 *2783:C 9.60939e-05
60 *176:27 *2783:D 1.98839e-05
61 *176:27 *2788:B 0.000473053
62 *176:27 *2791:B 0.000135565
63 *176:27 *281:24 9.58126e-05
64 *176:44 *2548:A1 7.83659e-05
65 *176:44 *2751:A 1.27784e-05
66 *176:44 *2787:A 0.000197915
67 *176:44 *2788:C 0.000155943
68 *176:44 *2941:B 0.00014854
69 *176:44 *3377:A 9.71197e-05
70 *176:44 *3414:A 1.46624e-05
71 *176:44 *212:20 0
72 *176:44 *411:14 0.00104232
73 *176:44 *619:39 0
74 *176:54 *2709:A3 7.79859e-05
75 *176:54 *194:26 5.78196e-05
76 *176:54 *370:54 7.62712e-05
77 *176:54 *759:12 1.47872e-05
78 *176:54 *759:22 0.000219366
79 *176:64 *2713:C 0.000134274
80 *176:64 *3096:A0 6.25726e-05
81 *176:64 *3096:S 6.05161e-06
82 *176:64 *3097:A 0.000141131
83 *176:64 *194:26 7.749e-06
84 *176:64 *202:14 0
85 *176:64 *384:43 0.00016875
86 *176:70 *2703:A 0.000136958
87 *176:70 *2703:C 2.07517e-05
88 *176:70 *2713:C 5.01338e-05
89 *176:70 *2713:D 5.33005e-05
90 *176:70 *3097:A 0.00010889
91 *176:74 *2910:A 2.2628e-05
92 *176:74 *183:69 0.000182675
93 *176:74 *183:75 0.000814394
94 *176:74 *321:63 0.00011994
95 *176:74 *369:74 0.000935324
96 *3155:D *2744:B 0.000162932
97 *3237:D *176:54 3.8937e-05
*RES
1 *2684:Y *176:8 16.3893 
2 *176:8 *2754:B 17.2643 
3 *176:8 *176:23 8.30357 
4 *176:23 *176:27 15.7143 
5 *176:27 *2782:B 15.675 
6 *176:27 *176:44 23.4464 
7 *176:44 *176:54 17.2679 
8 *176:54 *176:64 17.25 
9 *176:64 *176:70 10.8036 
10 *176:70 *176:74 13.7143 
11 *176:74 *2744:B 26.3714 
12 *176:74 *2795:B 13.8 
13 *176:70 *2770:A2 26.0353 
14 *176:64 *2685:A 9.3 
15 *176:54 *2771:B 9.3 
16 *176:44 *2708:B 30.9786 
17 *176:23 *2785:B 22.6036 
*END

*D_NET *177 0.0242653
*CONN
*I *2777:A1 I *D sky130_fd_sc_hd__a22o_1
*I *2730:A1 I *D sky130_fd_sc_hd__a2111o_1
*I *2718:B2 I *D sky130_fd_sc_hd__a22o_1
*I *2707:A2 I *D sky130_fd_sc_hd__a31o_1
*I *2774:A2 I *D sky130_fd_sc_hd__a31o_1
*I *2712:A2 I *D sky130_fd_sc_hd__a31o_1
*I *2800:A1 I *D sky130_fd_sc_hd__a2111o_1
*I *2752:A2 I *D sky130_fd_sc_hd__a311o_1
*I *2755:A2 I *D sky130_fd_sc_hd__a31o_1
*I *2790:A2 I *D sky130_fd_sc_hd__a31o_1
*I *2685:X O *D sky130_fd_sc_hd__clkbuf_4
*CAP
1 *2777:A1 2.26918e-05
2 *2730:A1 0.000209805
3 *2718:B2 0.000376776
4 *2707:A2 0
5 *2774:A2 1.37772e-05
6 *2712:A2 0.000135875
7 *2800:A1 0.000400604
8 *2752:A2 0.000333359
9 *2755:A2 0.000518107
10 *2790:A2 0.000308924
11 *2685:X 0.000183176
12 *177:147 0.000793037
13 *177:116 0.000292674
14 *177:112 0.000250073
15 *177:106 0.000490351
16 *177:100 0.0010168
17 *177:28 0.00102664
18 *177:24 0.00195163
19 *177:10 0.00215751
20 *177:8 0.00133869
21 *2712:A2 *2713:D 0.000180202
22 *2712:A2 *202:67 3.02383e-05
23 *2712:A2 *202:77 2.11336e-05
24 *2712:A2 *399:34 4.41588e-05
25 *2718:B2 *2718:A1 0.000257619
26 *2718:B2 *2718:A2 9.96628e-06
27 *2718:B2 *192:57 5.35522e-05
28 *2718:B2 *192:67 0
29 *2718:B2 *193:76 5.49544e-05
30 *2730:A1 *2730:A2 2.12733e-05
31 *2730:A1 *2730:C1 6.8445e-06
32 *2730:A1 *2730:D1 2.56811e-05
33 *2730:A1 *193:76 4.17433e-05
34 *2730:A1 *603:68 5.49544e-05
35 *2752:A2 *2752:B1 3.4846e-06
36 *2752:A2 *2752:C1 0.000375796
37 *2752:A2 *241:32 2.38651e-06
38 *2752:A2 *350:50 2.41972e-05
39 *2755:A2 *2595:A0 0.000107709
40 *2755:A2 *2628:A0 0.000141734
41 *2755:A2 *2628:A1 0.000110784
42 *2755:A2 *2630:S 9.76435e-06
43 *2755:A2 *2761:B 0.000752046
44 *2755:A2 *3337:A 0.000119977
45 *2755:A2 *350:50 0.000310236
46 *2755:A2 *419:57 0.000194546
47 *2755:A2 *606:102 0.000303698
48 *2774:A2 *2774:A3 1.02301e-05
49 *2790:A2 *2790:A1 5.50052e-05
50 *2790:A2 *2997:A 0
51 *2790:A2 *187:96 0
52 *2790:A2 *218:124 5.72701e-05
53 *2790:A2 *232:14 0.000121867
54 *2790:A2 *316:46 1.98839e-05
55 *2790:A2 *527:12 6.26165e-05
56 *2800:A1 *3093:A1 0.000232027
57 *2800:A1 *3094:A 5.33005e-05
58 *177:8 *2713:C 0.000110029
59 *177:10 *3099:A0 0.000176536
60 *177:10 *193:56 0.000829374
61 *177:10 *197:28 0.000135968
62 *177:10 *365:22 0.000291146
63 *177:10 *500:131 8.72919e-05
64 *177:24 *2752:C1 0.000222666
65 *177:24 *2998:A0 1.5424e-05
66 *177:24 *2998:A1 0.000985008
67 *177:24 *193:20 0.000694325
68 *177:24 *193:56 0.000124649
69 *177:24 *202:14 0.000362268
70 *177:24 *291:16 0.000181803
71 *177:24 *365:22 6.02288e-05
72 *177:24 *384:43 0
73 *177:24 *839:8 5.33005e-05
74 *177:28 *2752:A1 0.000136618
75 *177:28 *2782:A 3.67356e-05
76 *177:28 *218:124 1.2294e-05
77 *177:28 *527:12 6.6043e-05
78 *177:28 *619:39 0.000200406
79 *177:28 *878:8 2.82057e-05
80 *177:28 *879:8 0.000122477
81 *177:100 *2703:A 8.08547e-05
82 *177:100 *2772:A2 4.36671e-05
83 *177:100 *3099:A0 0.000147378
84 *177:100 *3100:A 0.000188574
85 *177:100 *183:56 5.4864e-05
86 *177:100 *193:56 0.000102247
87 *177:100 *208:18 0.000297505
88 *177:100 *365:22 1.84018e-05
89 *177:100 *603:82 6.47358e-05
90 *177:100 *603:91 0.000143795
91 *177:100 *726:20 0.000810318
92 *177:100 *726:26 9.62638e-05
93 *177:106 *2777:B2 6.23278e-05
94 *177:106 *207:86 6.11331e-05
95 *177:106 *726:26 7.47341e-05
96 *177:112 *2707:A3 9.67754e-05
97 *177:112 *2770:B1 5.50052e-05
98 *177:112 *2770:C1 9.15842e-06
99 *177:112 *2777:B2 2.73034e-05
100 *177:112 *2778:C 1.98839e-05
101 *177:112 *207:86 3.37586e-05
102 *177:116 *2707:B1 0.000140243
103 *177:116 *2713:D 0.000419075
104 *177:116 *2770:B1 0
105 *177:116 *2774:A3 2.85234e-05
106 *177:116 *2778:C 2.19907e-05
107 *177:116 *202:52 5.75774e-05
108 *177:116 *399:34 1.35553e-05
109 *177:147 *2777:B2 0.000186614
110 *177:147 *2778:C 0.000137639
111 *177:147 *197:60 4.41666e-05
112 *177:147 *267:44 3.04786e-06
113 *2770:A2 *177:147 4.67002e-05
114 *3221:D *2800:A1 5.33005e-05
*RES
1 *2685:X *177:8 15.9786 
2 *177:8 *177:10 11.0536 
3 *177:10 *177:24 38.5536 
4 *177:24 *177:28 10.0893 
5 *177:28 *2790:A2 19.8536 
6 *177:28 *2755:A2 29.2821 
7 *177:24 *2752:A2 22.8536 
8 *177:10 *2800:A1 19.4071 
9 *177:8 *177:100 32.9464 
10 *177:100 *177:106 8.32143 
11 *177:106 *177:112 6.89286 
12 *177:112 *177:116 4.66071 
13 *177:116 *2712:A2 12.7286 
14 *177:116 *2774:A2 9.72857 
15 *177:112 *2707:A2 9.3 
16 *177:106 *177:147 17.4107 
17 *177:147 *2718:B2 14.2643 
18 *177:147 *2730:A1 11.8893 
19 *177:100 *2777:A1 9.72857 
*END

*D_NET *178 0.00901804
*CONN
*I *2702:B I *D sky130_fd_sc_hd__nor4b_2
*I *2690:B I *D sky130_fd_sc_hd__nor4b_2
*I *2691:D I *D sky130_fd_sc_hd__and4bb_4
*I *2710:D I *D sky130_fd_sc_hd__and4b_4
*I *2695:D I *D sky130_fd_sc_hd__and4bb_4
*I *2693:D_N I *D sky130_fd_sc_hd__nor4b_2
*I *2716:B_N I *D sky130_fd_sc_hd__and4bb_4
*I *2689:A_N I *D sky130_fd_sc_hd__and4bb_4
*I *2705:B I *D sky130_fd_sc_hd__and4_4
*I *2715:D I *D sky130_fd_sc_hd__and4bb_4
*I *2686:X O *D sky130_fd_sc_hd__buf_2
*CAP
1 *2702:B 4.96453e-05
2 *2690:B 0.00013354
3 *2691:D 0
4 *2710:D 0.000147263
5 *2695:D 2.53826e-05
6 *2693:D_N 0.000285854
7 *2716:B_N 2.23854e-05
8 *2689:A_N 0.000105252
9 *2705:B 2.25053e-05
10 *2715:D 0.000274707
11 *2686:X 0.000124863
12 *178:76 0.000311237
13 *178:74 0.000242354
14 *178:43 0.000222077
15 *178:41 0.00031125
16 *178:31 0.000304186
17 *178:29 6.9333e-05
18 *178:10 0.000501925
19 *178:8 0.000609908
20 *178:6 0.000478442
21 *2689:A_N *2689:D 0.000136622
22 *2689:A_N *3003:S 0.000170171
23 *2689:A_N *208:10 0
24 *2689:A_N *391:16 3.18676e-05
25 *2690:B *2690:C 5.55214e-06
26 *2690:B *2726:B 5.33334e-05
27 *2690:B *179:84 2.28598e-05
28 *2690:B *180:138 1.04232e-05
29 *2690:B *182:10 9.41642e-05
30 *2690:B *432:73 0.000146474
31 *2690:B *759:12 0.000146474
32 *2693:D_N *2693:A 5.52238e-05
33 *2693:D_N *2695:A_N 0
34 *2693:D_N *180:44 0.000152913
35 *2695:D *180:44 5.33005e-05
36 *2702:B *2702:A 1.24368e-05
37 *2702:B *2702:D_N 2.28499e-05
38 *2705:B *403:28 1.58163e-05
39 *2710:D *2710:A_N 0.000231291
40 *2710:D *2710:C 6.70344e-05
41 *2710:D *421:18 0.00010096
42 *2715:D *2691:B_N 7.91941e-05
43 *2715:D *2715:A_N 0.000185643
44 *2715:D *179:58 3.4855e-05
45 *2715:D *183:8 1.74352e-05
46 *2715:D *187:12 7.48301e-06
47 *2716:B_N *179:77 0
48 *178:6 *2702:A 1.98839e-05
49 *178:6 *2702:D_N 3.98547e-05
50 *178:6 *801:6 5.52238e-05
51 *178:8 *2691:C 6.05161e-06
52 *178:8 *2702:D_N 5.54432e-05
53 *178:8 *187:58 8.25843e-06
54 *178:8 *800:23 0.000132967
55 *178:10 *2691:A_N 0.000181803
56 *178:10 *2691:C 5.36e-05
57 *178:29 *2691:C 1.24368e-05
58 *178:29 *183:8 0
59 *178:29 *187:12 8.43535e-06
60 *178:31 *187:12 2.59355e-05
61 *178:41 *179:31 9.77274e-05
62 *178:41 *183:56 0
63 *178:41 *187:12 4.58194e-05
64 *178:41 *208:10 5.71472e-05
65 *178:41 *403:28 4.8843e-05
66 *178:43 *179:31 4.27437e-05
67 *178:43 *208:10 0.000136958
68 *178:43 *403:28 7.65689e-05
69 *178:74 *2710:A_N 4.49293e-05
70 *178:74 *179:12 0.00012401
71 *178:74 *183:22 0
72 *2702:C *2702:B 0
73 *2702:C *178:8 7.02611e-05
74 *2705:D *2705:B 5.33005e-05
75 *2705:D *178:43 0.000254036
76 *2710:B *2710:D 0
77 *171:8 *178:8 0.000309266
78 *171:23 *2690:B 0.000222666
79 *171:29 *2690:B 0
80 *171:29 *2716:B_N 0
81 *171:37 *178:41 9.25014e-06
82 *171:60 *2715:D 0.000214743
83 *171:97 *2693:D_N 0.000153279
84 *171:97 *178:41 0.00021192
85 *171:97 *178:74 0.000148196
*RES
1 *2686:X *178:6 11.4786 
2 *178:6 *178:8 6.69643 
3 *178:8 *178:10 3 
4 *178:10 *2715:D 16.1571 
5 *178:10 *178:29 1.39286 
6 *178:29 *178:31 0.535714 
7 *178:31 *178:41 14.5714 
8 *178:41 *178:43 3.41071 
9 *178:43 *2705:B 9.83571 
10 *178:43 *2689:A_N 21.0857 
11 *178:41 *2716:B_N 9.72857 
12 *178:31 *178:74 6.75 
13 *178:74 *178:76 4.5 
14 *178:76 *2693:D_N 15.6036 
15 *178:76 *2695:D 9.83571 
16 *178:74 *2710:D 17.7286 
17 *178:29 *2691:D 9.3 
18 *178:8 *2690:B 22.8536 
19 *178:6 *2702:B 10.6929 
*END

*D_NET *179 0.00951512
*CONN
*I *2695:A_N I *D sky130_fd_sc_hd__and4bb_4
*I *2710:A_N I *D sky130_fd_sc_hd__and4b_4
*I *2726:B I *D sky130_fd_sc_hd__and4b_4
*I *2690:C I *D sky130_fd_sc_hd__nor4b_2
*I *2716:C I *D sky130_fd_sc_hd__and4bb_4
*I *2705:C I *D sky130_fd_sc_hd__and4_4
*I *2691:B_N I *D sky130_fd_sc_hd__and4bb_4
*I *2715:C I *D sky130_fd_sc_hd__and4bb_4
*I *2693:B I *D sky130_fd_sc_hd__nor4b_2
*I *2689:B_N I *D sky130_fd_sc_hd__and4bb_4
*I *2687:X O *D sky130_fd_sc_hd__buf_2
*CAP
1 *2695:A_N 3.82418e-05
2 *2710:A_N 0.000125625
3 *2726:B 0.000182791
4 *2690:C 2.6158e-05
5 *2716:C 0
6 *2705:C 0
7 *2691:B_N 5.35755e-05
8 *2715:C 0
9 *2693:B 0.000161261
10 *2689:B_N 0.000112502
11 *2687:X 0.000169989
12 *179:84 0.000472941
13 *179:77 0.000286378
14 *179:58 0.000239133
15 *179:41 0.000528094
16 *179:31 0.000676764
17 *179:29 0.000547589
18 *179:12 0.000307947
19 *179:10 0.000531022
20 *179:6 0.000447897
21 *2689:B_N *202:8 0.000103253
22 *2689:B_N *391:16 0.000106011
23 *2690:C *180:138 3.53758e-07
24 *2691:B_N *2715:A_N 0.000185643
25 *2691:B_N *183:8 0.000130419
26 *2691:B_N *183:22 0.00014285
27 *2693:B *3003:S 4.78779e-05
28 *2693:B *3027:A 0.000153054
29 *2695:A_N *180:44 0
30 *2710:A_N *2710:C 4.58194e-05
31 *2710:A_N *202:8 0.000242913
32 *2710:A_N *421:18 0.00010096
33 *2726:B *2726:C 5.33005e-05
34 *2726:B *2726:D 0.0002083
35 *2726:B *180:138 0.000225582
36 *179:10 *180:36 4.08637e-05
37 *179:10 *180:44 5.33005e-05
38 *179:12 *202:8 0.000378429
39 *179:31 *403:28 2.87555e-06
40 *179:41 *3027:A 0.000148851
41 *179:41 *3037:A 5.41797e-06
42 *179:41 *207:12 5.64115e-05
43 *179:41 *403:28 0.000164287
44 *179:58 *3003:S 8.43535e-06
45 *179:84 *2716:A_N 9.71197e-05
46 *179:84 *180:138 1.24368e-05
47 *179:84 *182:10 0.00018077
48 *2690:B *2690:C 5.55214e-06
49 *2690:B *2726:B 5.33334e-05
50 *2690:B *179:84 2.28598e-05
51 *2693:D_N *2695:A_N 0
52 *2705:D *179:31 0.0003482
53 *2705:D *179:41 5.52238e-05
54 *2710:D *2710:A_N 0.000231291
55 *2715:B_N *179:58 0.000140933
56 *2715:D *2691:B_N 7.91941e-05
57 *2715:D *179:58 3.4855e-05
58 *2716:B_N *179:77 0
59 *171:23 *2726:B 8.43535e-06
60 *171:29 *179:31 1.39841e-05
61 *171:29 *179:84 0.000102474
62 *171:37 *2689:B_N 0.000108229
63 *171:37 *179:12 2.72545e-05
64 *171:60 *179:58 6.07943e-05
65 *171:97 *179:12 0.000109659
66 *178:41 *179:31 9.77274e-05
67 *178:43 *179:31 4.27437e-05
68 *178:74 *2710:A_N 4.49293e-05
69 *178:74 *179:12 0.00012401
*RES
1 *2687:X *179:6 11.0679 
2 *179:6 *179:10 7.08929 
3 *179:10 *179:12 4.98214 
4 *179:12 *2689:B_N 16.925 
5 *179:12 *179:29 5.03571 
6 *179:29 *179:31 6.69643 
7 *179:31 *179:41 13.8393 
8 *179:41 *2693:B 21.6036 
9 *179:41 *179:58 3.42857 
10 *179:58 *2715:C 9.3 
11 *179:58 *2691:B_N 12.3 
12 *179:31 *2705:C 9.3 
13 *179:29 *179:77 0.428571 
14 *179:77 *2716:C 9.3 
15 *179:77 *179:84 5.05357 
16 *179:84 *2690:C 9.72857 
17 *179:84 *2726:B 13.5321 
18 *179:10 *2710:A_N 18.3357 
19 *179:6 *2695:A_N 10.0321 
*END

*D_NET *180 0.00979947
*CONN
*I *2726:D I *D sky130_fd_sc_hd__and4b_4
*I *2690:A I *D sky130_fd_sc_hd__nor4b_2
*I *2710:C I *D sky130_fd_sc_hd__and4b_4
*I *2695:C I *D sky130_fd_sc_hd__and4bb_4
*I *2715:A_N I *D sky130_fd_sc_hd__and4bb_4
*I *2705:A I *D sky130_fd_sc_hd__and4_4
*I *2689:D I *D sky130_fd_sc_hd__and4bb_4
*I *2693:A I *D sky130_fd_sc_hd__nor4b_2
*I *2691:A_N I *D sky130_fd_sc_hd__and4bb_4
*I *2716:A_N I *D sky130_fd_sc_hd__and4bb_4
*I *2688:X O *D sky130_fd_sc_hd__buf_2
*CAP
1 *2726:D 0.000100998
2 *2690:A 0
3 *2710:C 0.000162514
4 *2695:C 0
5 *2715:A_N 0.000173275
6 *2705:A 0
7 *2689:D 0.000262431
8 *2693:A 0.000246368
9 *2691:A_N 3.9567e-05
10 *2716:A_N 2.17614e-05
11 *2688:X 0
12 *180:138 0.000346868
13 *180:63 0.000380442
14 *180:61 0.00043318
15 *180:44 0.00089296
16 *180:36 0.000531644
17 *180:32 0.000257714
18 *180:21 0.000186813
19 *180:10 0.000433184
20 *180:4 0.000578302
21 *2689:D *3003:S 1.31516e-05
22 *2689:D *208:10 0
23 *2689:D *391:16 0.000112965
24 *2691:A_N *2691:C 0.000181803
25 *2710:C *185:14 0.000265441
26 *2710:C *187:16 0.000198691
27 *2710:C *202:8 0.000189441
28 *2710:C *421:18 2.58706e-05
29 *2726:D *2726:C 2.28598e-05
30 *2726:D *800:19 8.68595e-05
31 *180:10 *3015:A0 6.19181e-05
32 *180:10 *202:8 0.000127446
33 *180:10 *215:20 3.06878e-06
34 *180:10 *391:16 0.000107974
35 *180:21 *3015:A0 9.77024e-05
36 *180:21 *202:8 0.000185304
37 *180:32 *3015:A0 3.57844e-05
38 *180:32 *187:16 9.91086e-05
39 *180:32 *202:8 0.000159689
40 *180:61 *3037:A 1.46624e-05
41 *180:61 *183:22 5.03787e-05
42 *180:61 *183:56 0
43 *180:61 *403:28 0
44 *180:63 *3003:S 7.252e-05
45 *180:63 *183:56 0
46 *180:63 *207:12 9.11365e-06
47 *180:63 *208:10 0
48 *180:138 *187:58 5.41794e-05
49 *180:138 *215:20 4.46231e-06
50 *180:138 *403:28 8.7453e-05
51 *180:138 *678:12 7.83659e-05
52 *2689:A_N *2689:D 0.000136622
53 *2690:B *180:138 1.04232e-05
54 *2690:C *180:138 3.53758e-07
55 *2691:B_N *2715:A_N 0.000185643
56 *2693:C *2693:A 0.000220498
57 *2693:C *180:44 3.57366e-05
58 *2693:C *180:61 0.000125731
59 *2693:D_N *2693:A 5.52238e-05
60 *2693:D_N *180:44 0.000152913
61 *2695:A_N *180:44 0
62 *2695:D *180:44 5.33005e-05
63 *2710:A_N *2710:C 4.58194e-05
64 *2710:D *2710:C 6.70344e-05
65 *2715:D *2715:A_N 0.000185643
66 *2726:B *2726:D 0.0002083
67 *2726:B *180:138 0.000225582
68 *3464:A *2726:D 6.05161e-06
69 *171:23 *2726:D 2.89016e-05
70 *171:23 *180:138 3.99414e-05
71 *171:29 *2716:A_N 9.71197e-05
72 *171:37 *2689:D 5.52238e-05
73 *171:60 *180:63 0
74 *171:97 *180:44 8.36503e-05
75 *178:10 *2691:A_N 0.000181803
76 *179:10 *180:36 4.08637e-05
77 *179:10 *180:44 5.33005e-05
78 *179:84 *2716:A_N 9.71197e-05
79 *179:84 *180:138 1.24368e-05
*RES
1 *2688:X *180:4 9.3 
2 *180:4 *180:10 9.55357 
3 *180:10 *2716:A_N 14.7464 
4 *180:10 *180:21 2.55357 
5 *180:21 *2691:A_N 15.5679 
6 *180:21 *180:32 2.25 
7 *180:32 *180:36 5.03571 
8 *180:36 *180:44 7.57143 
9 *180:44 *2693:A 14.5143 
10 *180:44 *180:61 7.05357 
11 *180:61 *180:63 2.25 
12 *180:63 *2689:D 19.3179 
13 *180:63 *2705:A 13.8 
14 *180:61 *2715:A_N 16.925 
15 *180:36 *2695:C 9.3 
16 *180:32 *2710:C 19.675 
17 *180:4 *180:138 22.8929 
18 *180:138 *2690:A 9.3 
19 *180:138 *2726:D 12.3 
*END

*D_NET *181 0.0264526
*CONN
*I *2698:A2 I *D sky130_fd_sc_hd__a211o_1
*I *2764:A2 I *D sky130_fd_sc_hd__a22o_1
*I *2706:B I *D sky130_fd_sc_hd__and3_1
*I *2768:B I *D sky130_fd_sc_hd__and3_1
*I *2746:A2 I *D sky130_fd_sc_hd__a22o_1
*I *2813:A2 I *D sky130_fd_sc_hd__a22o_1
*I *2733:A2 I *D sky130_fd_sc_hd__a22o_1
*I *2797:A2 I *D sky130_fd_sc_hd__a22o_1
*I *2689:X O *D sky130_fd_sc_hd__and4bb_4
*CAP
1 *2698:A2 5.6562e-05
2 *2764:A2 0
3 *2706:B 0
4 *2768:B 0.000171961
5 *2746:A2 0
6 *2813:A2 5.80331e-05
7 *2733:A2 0.000498639
8 *2797:A2 7.51217e-05
9 *2689:X 0.00155587
10 *181:134 0.000752398
11 *181:75 0.00176221
12 *181:60 0.00144562
13 *181:56 0.000477083
14 *181:50 0.00163928
15 *181:34 0.00191417
16 *181:32 0.00139137
17 *181:16 0.00322802
18 *2698:A2 *2767:B1 7.8195e-05
19 *2698:A2 *183:22 0.000227911
20 *2733:A2 *2733:A1 0.000227532
21 *2733:A2 *2733:B2 0.000229456
22 *2733:A2 *2734:A1 1.69115e-05
23 *2733:A2 *2734:B1 0.000100635
24 *2733:A2 *2936:S 2.50593e-05
25 *2733:A2 *2938:A1 0.000114762
26 *2733:A2 *3348:A 0.000139344
27 *2733:A2 *369:104 0.000237344
28 *2733:A2 *388:8 0.000145564
29 *2768:B *3091:A1 6.05161e-06
30 *2768:B *3110:A 7.65804e-05
31 *2797:A2 *2797:A1 3.08664e-05
32 *2797:A2 *2797:B1 1.34548e-05
33 *2813:A2 *2813:B1 0.000137639
34 *2813:A2 *2814:C1 2.85234e-05
35 *181:16 *2775:A1 8.22793e-06
36 *181:16 *399:16 0.000269667
37 *181:32 *2707:B1 5.69684e-05
38 *181:32 *2775:B2 0.000198741
39 *181:32 *2990:B 3.8072e-05
40 *181:32 *3017:B 0.000110173
41 *181:32 *3022:A 7.91917e-05
42 *181:32 *3226:CLK 0.000123333
43 *181:32 *3425:A 1.92905e-05
44 *181:32 *3449:A 0.000121953
45 *181:32 *192:57 0
46 *181:32 *197:108 0.000310298
47 *181:32 *202:52 5.60463e-06
48 *181:32 *208:118 1.29339e-05
49 *181:32 *209:18 0
50 *181:32 *345:30 4.65991e-05
51 *181:32 *395:26 0
52 *181:32 *399:34 0.000180747
53 *181:32 *421:32 0.000651279
54 *181:32 *424:22 9.25014e-06
55 *181:32 *603:21 0
56 *181:32 *603:39 0.000615467
57 *181:34 *2706:A 5.46313e-05
58 *181:34 *2768:A 0.000148189
59 *181:34 *3226:CLK 0.00014571
60 *181:34 *3386:A 6.21521e-06
61 *181:34 *192:57 0
62 *181:34 *235:20 0.000114663
63 *181:34 *395:53 0.00018706
64 *181:34 *500:131 0.000114992
65 *181:50 *2608:A1 0.000133596
66 *181:50 *2608:S 0.000271339
67 *181:50 *2746:A1 8.00806e-05
68 *181:50 *2762:B 0.000182783
69 *181:50 *2805:B2 0.000552565
70 *181:50 *3330:A 0.000290279
71 *181:50 *235:20 0.00031453
72 *181:50 *299:22 9.04785e-05
73 *181:50 *316:60 0.000126374
74 *181:50 *316:70 0.000214617
75 *181:50 *395:53 0.000694451
76 *181:50 *395:57 0.000238762
77 *181:50 *527:89 0
78 *181:50 *528:66 6.07232e-05
79 *181:50 *600:26 0
80 *181:56 *2746:A1 3.36651e-05
81 *181:56 *2747:B1 3.47641e-06
82 *181:56 *3163:CLK 0
83 *181:56 *183:85 5.20669e-05
84 *181:56 *528:66 0
85 *181:56 *914:8 5.71472e-05
86 *181:60 *2746:B2 0
87 *181:60 *2797:B1 5.64029e-05
88 *181:60 *2797:B2 1.6271e-05
89 *181:75 *2797:B1 3.69047e-06
90 *181:75 *2814:B2 0.000189467
91 *181:75 *2814:C1 3.31626e-05
92 *181:75 *2838:B 0.000218104
93 *181:75 *2892:S 0.000214616
94 *181:75 *2929:A 5.33005e-05
95 *181:75 *2929:B 5.65955e-05
96 *181:75 *2933:A 9.89851e-05
97 *181:75 *325:57 0
98 *181:75 *366:10 0.00054345
99 *181:75 *369:104 0.000113331
100 *181:75 *385:10 0
101 *181:75 *396:12 0.000112562
102 *181:134 *2692:B1 0.000120226
103 *181:134 *2764:B2 0.000139208
104 *181:134 *2775:A1 0.000112439
105 *181:134 *2993:A1 0
106 *181:134 *3036:A 8.50152e-05
107 *181:134 *3443:A 0
108 *181:134 *183:22 4.83648e-05
109 *181:134 *430:95 0
110 *181:134 *442:108 0
111 *181:134 *604:40 0.000248012
112 *3186:D *181:16 6.91215e-06
113 *3186:D *181:134 9.4171e-05
*RES
1 *2689:X *181:16 24.0312 
2 *181:16 *181:32 42.8393 
3 *181:32 *181:34 9.83929 
4 *181:34 *181:50 48.6964 
5 *181:50 *181:56 8.53571 
6 *181:56 *181:60 7.05357 
7 *181:60 *2797:A2 10.675 
8 *181:60 *181:75 30.1071 
9 *181:75 *2733:A2 34.7286 
10 *181:75 *2813:A2 15.1571 
11 *181:56 *2746:A2 13.8 
12 *181:34 *2768:B 15.9786 
13 *181:32 *2706:B 13.8 
14 *181:16 *181:134 20.7143 
15 *181:134 *2764:A2 9.3 
16 *181:134 *2698:A2 11.4786 
*END

*D_NET *182 0.00770052
*CONN
*I *2767:A2 I *D sky130_fd_sc_hd__a211o_1
*I *2692:A2 I *D sky130_fd_sc_hd__a22o_1
*I *3472:A I *D sky130_fd_sc_hd__clkbuf_2
*I *2690:Y O *D sky130_fd_sc_hd__nor4b_2
*CAP
1 *2767:A2 0
2 *2692:A2 0.00108434
3 *3472:A 1.55834e-05
4 *2690:Y 0.00029065
5 *182:31 0.00168182
6 *182:10 0.000903714
7 *2692:A2 *2692:B1 2.51343e-06
8 *2692:A2 *2698:B1 0.000686733
9 *2692:A2 *2767:A1 0.000145922
10 *2692:A2 *3336:A 0.000208209
11 *2692:A2 *3434:A 0
12 *2692:A2 *604:98 1.62025e-05
13 *2692:A2 *604:143 3.09985e-05
14 *2692:A2 *604:156 2.10974e-05
15 *3472:A *185:14 1.92789e-05
16 *3472:A *421:18 5.52238e-05
17 *182:10 *3015:A0 0.000310384
18 *182:10 *432:73 1.78353e-05
19 *182:10 *759:12 0.00054712
20 *182:31 *2696:A2 5.52238e-05
21 *182:31 *2698:C1 5.97967e-05
22 *182:31 *2767:B1 2.0519e-05
23 *182:31 *2767:C1 0.000377344
24 *182:31 *3015:A0 5.84171e-05
25 *182:31 *3037:B 5.52302e-05
26 *182:31 *3051:A 0.000162785
27 *182:31 *183:22 0.000491182
28 *182:31 *432:73 4.03318e-05
29 *2690:B *182:10 9.41642e-05
30 *171:23 *182:10 1.38323e-05
31 *171:29 *182:10 5.33005e-05
32 *179:84 *182:10 0.00018077
*RES
1 *2690:Y *182:10 23.2821 
2 *182:10 *3472:A 14.3357 
3 *182:10 *182:31 18.75 
4 *182:31 *2692:A2 35.3 
5 *182:31 *2767:A2 9.3 
*END

*D_NET *183 0.0265384
*CONN
*I *2769:B I *D sky130_fd_sc_hd__and3_1
*I *2735:A2 I *D sky130_fd_sc_hd__a22o_1
*I *2811:A2 I *D sky130_fd_sc_hd__a22o_1
*I *2746:B1 I *D sky130_fd_sc_hd__a22o_1
*I *2797:B1 I *D sky130_fd_sc_hd__a22o_1
*I *2704:A2 I *D sky130_fd_sc_hd__a31o_1
*I *2764:B1 I *D sky130_fd_sc_hd__a22o_1
*I *2692:B1 I *D sky130_fd_sc_hd__a22o_1
*I *2691:X O *D sky130_fd_sc_hd__and4bb_4
*CAP
1 *2769:B 0.000175959
2 *2735:A2 0.000767618
3 *2811:A2 0.00115695
4 *2746:B1 0
5 *2797:B1 0.00016627
6 *2704:A2 0.000192463
7 *2764:B1 0
8 *2692:B1 0.00060758
9 *2691:X 0.000100965
10 *183:85 0.000581821
11 *183:77 0.0015725
12 *183:75 0.00238701
13 *183:69 0.00197114
14 *183:56 0.00203866
15 *183:22 0.00163314
16 *183:8 0.00279693
17 *2692:B1 *2692:A1 0.00024307
18 *2692:B1 *2764:B2 0.000252135
19 *2692:B1 *3031:A 2.00751e-05
20 *2692:B1 *3036:A 0.000118308
21 *2692:B1 *3427:A 0.000284087
22 *2692:B1 *3434:A 0
23 *2692:B1 *442:108 1.47275e-05
24 *2692:B1 *445:106 2.51343e-06
25 *2692:B1 *604:98 5.7616e-05
26 *2704:A2 *2704:A1 1.89001e-05
27 *2704:A2 *2730:B1 0
28 *2704:A2 *603:68 5.06945e-05
29 *2735:A2 *2735:B2 9.90431e-05
30 *2735:A2 *2838:A 0.00022287
31 *2735:A2 *3392:A 1.39726e-05
32 *2735:A2 *321:63 5.78673e-05
33 *2735:A2 *359:18 0
34 *2735:A2 *903:6 4.70078e-05
35 *2769:B *476:31 3.97677e-05
36 *2769:B *505:6 0.000137983
37 *2797:B1 *2746:B2 6.32633e-05
38 *2797:B1 *2797:A1 5.65955e-05
39 *2811:A2 *2811:B1 4.02462e-05
40 *2811:A2 *2932:S 8.40933e-05
41 *2811:A2 *371:79 0.000288019
42 *2811:A2 *606:27 0.000223112
43 *2811:A2 *737:34 2.88424e-05
44 *2811:A2 *902:8 7.65719e-05
45 *183:8 *187:12 1.33343e-05
46 *183:22 *2698:A1 5.68722e-05
47 *183:22 *2698:C1 5.24162e-05
48 *183:22 *2767:B1 4.06509e-05
49 *183:22 *3037:A 0
50 *183:22 *3037:B 0
51 *183:22 *187:12 0
52 *183:22 *190:18 0.000138593
53 *183:56 *2703:A 6.57828e-06
54 *183:56 *2703:C 3.17684e-05
55 *183:56 *2934:B 0.00022484
56 *183:56 *3015:A0 0
57 *183:56 *3016:A 0
58 *183:56 *3096:S 0.000181746
59 *183:56 *3097:A 9.15842e-06
60 *183:56 *202:8 0
61 *183:56 *208:10 0.000193172
62 *183:56 *208:18 0.00114703
63 *183:56 *317:72 0.000237278
64 *183:56 *321:22 0
65 *183:56 *376:80 1.65169e-05
66 *183:56 *380:10 1.77462e-05
67 *183:56 *498:10 6.93072e-05
68 *183:56 *603:68 6.05161e-06
69 *183:69 *2704:B1 2.4446e-05
70 *183:69 *3221:CLK 0.000367495
71 *183:75 *2747:B1 0
72 *183:75 *2888:S 0
73 *183:75 *2915:A0 0
74 *183:75 *3221:CLK 0.00031275
75 *183:75 *3437:A 5.86649e-05
76 *183:75 *212:142 0
77 *183:75 *321:63 0.000103363
78 *183:75 *359:18 0
79 *183:75 *369:19 0
80 *183:75 *369:28 0
81 *183:75 *374:105 0.000572598
82 *183:75 *374:141 0.000498232
83 *183:75 *910:10 0.000242899
84 *183:85 *2746:A1 2.84109e-05
85 *183:85 *371:79 9.03968e-05
86 *183:85 *914:8 0
87 *2691:B_N *183:8 0.000130419
88 *2691:B_N *183:22 0.00014285
89 *2692:A2 *2692:B1 2.51343e-06
90 *2698:A2 *183:22 0.000227911
91 *2710:B *183:22 0
92 *2715:D *183:8 1.74352e-05
93 *2744:B *183:75 2.69485e-05
94 *2770:A2 *183:69 0.000129116
95 *2797:A2 *2797:B1 1.34548e-05
96 *3162:D *2735:A2 0
97 *3163:D *2735:A2 3.25247e-05
98 *3163:D *2811:A2 4.41309e-05
99 *3163:D *183:85 1.73686e-05
100 *3191:D *183:56 0
101 *3199:D *2692:B1 0.000150043
102 *3222:D *183:56 4.87669e-06
103 *171:37 *183:56 0
104 *171:41 *183:56 0.000122939
105 *171:60 *183:56 0.000168939
106 *171:97 *183:22 0
107 *176:74 *183:69 0.000182675
108 *176:74 *183:75 0.000814394
109 *177:100 *183:56 5.4864e-05
110 *178:29 *183:8 0
111 *178:41 *183:56 0
112 *178:74 *183:22 0
113 *180:61 *183:22 5.03787e-05
114 *180:61 *183:56 0
115 *180:63 *183:56 0
116 *181:56 *183:85 5.20669e-05
117 *181:60 *2797:B1 5.64029e-05
118 *181:75 *2797:B1 3.69047e-06
119 *181:134 *2692:B1 0.000120226
120 *181:134 *183:22 4.83648e-05
121 *182:31 *183:22 0.000491182
*RES
1 *2691:X *183:8 11.4964 
2 *183:8 *183:22 27.5 
3 *183:22 *2692:B1 31.7107 
4 *183:22 *2764:B1 9.3 
5 *183:8 *183:56 41.5714 
6 *183:56 *2704:A2 11.8 
7 *183:56 *183:69 9.48214 
8 *183:69 *183:75 35.6964 
9 *183:75 *183:77 4.5 
10 *183:77 *183:85 6.75 
11 *183:85 *2797:B1 21.3179 
12 *183:85 *2746:B1 9.3 
13 *183:77 *2811:A2 33.425 
14 *183:75 *2735:A2 28.3893 
15 *183:69 *2769:B 15.9786 
*END

*D_NET *184 0.00259861
*CONN
*I *2698:B1 I *D sky130_fd_sc_hd__a211o_1
*I *2692:X O *D sky130_fd_sc_hd__a22o_1
*CAP
1 *2698:B1 0.000505403
2 *2692:X 0.000505403
3 *2698:B1 *2698:A1 0.000543645
4 *2698:B1 *604:98 4.87854e-05
5 *2698:B1 *604:126 0.00015432
6 *2698:B1 *604:143 0.00015432
7 *2692:A2 *2698:B1 0.000686733
*RES
1 *2692:X *2698:B1 41.4036 
*END

*D_NET *185 0.00580488
*CONN
*I *2697:B1 I *D sky130_fd_sc_hd__a221o_1
*I *2766:B1 I *D sky130_fd_sc_hd__a221o_1
*I *3470:A I *D sky130_fd_sc_hd__clkbuf_2
*I *2693:Y O *D sky130_fd_sc_hd__nor4b_2
*CAP
1 *2697:B1 5.34647e-05
2 *2766:B1 0.000203704
3 *3470:A 3.82418e-05
4 *2693:Y 0.0009996
5 *185:27 0.000777372
6 *185:14 0.00155805
7 *2697:B1 *2697:A1 2.59355e-05
8 *2697:B1 *2697:B2 9.15842e-06
9 *2697:B1 *2697:C1 5.33005e-05
10 *2697:B1 *465:12 4.44838e-05
11 *2766:B1 *2697:C1 9.41642e-05
12 *2766:B1 *2766:A1 2.59355e-05
13 *2766:B1 *432:81 9.58632e-05
14 *2766:B1 *465:12 0.00023961
15 *2766:B1 *595:97 2.59355e-05
16 *185:14 *3027:A 4.57538e-05
17 *185:14 *3037:A 0.000128146
18 *185:14 *421:18 0.000201337
19 *185:14 *421:20 2.22999e-05
20 *185:27 *3047:A 9.90367e-05
21 *185:27 *421:12 2.84494e-05
22 *185:27 *421:18 0.000198627
23 *185:27 *465:12 0.000289689
24 *2710:C *185:14 0.000265441
25 *2766:A2 *2766:B1 0.000173614
26 *3472:A *185:14 1.92789e-05
27 *172:14 *2766:B1 5.36422e-05
28 *172:14 *185:27 3.47561e-05
*RES
1 *2693:Y *185:14 31.9964 
2 *185:14 *3470:A 10.0321 
3 *185:14 *185:27 15.3571 
4 *185:27 *2766:B1 27.8714 
5 *185:27 *2697:B1 15.0679 
*END

*D_NET *186 0.00555408
*CONN
*I *3467:A I *D sky130_fd_sc_hd__buf_1
*I *2765:A2 I *D sky130_fd_sc_hd__a22o_1
*I *2696:A2 I *D sky130_fd_sc_hd__a22o_1
*I *2694:Y O *D sky130_fd_sc_hd__nor4b_2
*CAP
1 *3467:A 0
2 *2765:A2 0.000347668
3 *2696:A2 0.000322122
4 *2694:Y 0.00134663
5 *186:35 0.000380084
6 *186:14 0.00170117
7 *2696:A2 *2696:A1 1.21258e-05
8 *2696:A2 *2696:B1 5.99191e-05
9 *2696:A2 *2697:C1 1.87331e-05
10 *2696:A2 *2698:C1 5.33005e-05
11 *2696:A2 *2767:C1 6.58597e-05
12 *2696:A2 *3015:A0 0.000194257
13 *2696:A2 *3051:A 0.000227539
14 *2696:A2 *3415:A 1.62817e-05
15 *2696:A2 *432:73 0
16 *2765:A2 *2765:B1 0
17 *2765:A2 *2767:C1 1.59901e-05
18 *2765:A2 *3051:A 0.0001039
19 *2765:A2 *468:12 0.000401259
20 *2765:A2 *595:97 9.69313e-05
21 *186:14 *2767:C1 8.53409e-05
22 *186:35 *2767:C1 4.97471e-05
23 *182:31 *2696:A2 5.52238e-05
*RES
1 *2694:Y *186:14 34.2643 
2 *186:14 *2696:A2 25.9429 
3 *186:14 *186:35 0.928571 
4 *186:35 *2765:A2 26.7107 
5 *186:35 *3467:A 9.3 
*END

*D_NET *187 0.0344142
*CONN
*I *2737:B1 I *D sky130_fd_sc_hd__a22o_1
*I *2815:A2 I *D sky130_fd_sc_hd__a22o_1
*I *2805:B1 I *D sky130_fd_sc_hd__a22o_1
*I *2727:A2 I *D sky130_fd_sc_hd__a22o_1
*I *2751:B I *D sky130_fd_sc_hd__and3_1
*I *2789:B I *D sky130_fd_sc_hd__and3_1
*I *2765:B1 I *D sky130_fd_sc_hd__a22o_1
*I *2696:B1 I *D sky130_fd_sc_hd__a22o_1
*I *2695:X O *D sky130_fd_sc_hd__and4bb_4
*CAP
1 *2737:B1 2.25896e-05
2 *2815:A2 0.000301758
3 *2805:B1 0.00117273
4 *2727:A2 5.24949e-05
5 *2751:B 9.10035e-05
6 *2789:B 0
7 *2765:B1 0.000376221
8 *2696:B1 3.90367e-05
9 *2695:X 0.000327052
10 *187:112 0.00310616
11 *187:100 0.00231566
12 *187:98 0.000208433
13 *187:96 0.00176866
14 *187:71 0.00191882
15 *187:64 0.000473553
16 *187:58 0.00197282
17 *187:16 0.000709339
18 *187:12 0.00223242
19 *2696:B1 *2696:A1 1.24368e-05
20 *2696:B1 *2698:C1 1.35465e-05
21 *2696:B1 *430:116 4.50022e-05
22 *2696:B1 *432:133 6.05161e-06
23 *2727:A2 *358:30 0.000176594
24 *2727:A2 *528:82 0.000361914
25 *2737:B1 *2737:A2 0
26 *2751:B *212:42 7.83207e-05
27 *2751:B *759:22 7.6644e-05
28 *2751:B *824:10 7.83587e-05
29 *2765:B1 *2765:A1 1.04232e-05
30 *2765:B1 *2765:B2 9.47975e-05
31 *2765:B1 *3015:A0 0.000101908
32 *2765:B1 *430:141 0.000114998
33 *2765:B1 *432:133 0.000157815
34 *2765:B1 *857:12 0.000126989
35 *2805:B1 *2606:A 8.00806e-05
36 *2805:B1 *2609:A 3.97543e-05
37 *2805:B1 *2611:A 0.000340066
38 *2805:B1 *2612:B 7.06577e-05
39 *2805:B1 *2620:A0 0.000160887
40 *2805:B1 *2727:A1 0
41 *2805:B1 *2728:C 0
42 *2805:B1 *2804:B1 0.000222416
43 *2805:B1 *2805:A1 3.89621e-06
44 *2805:B1 *2805:A2 2.59355e-05
45 *2805:B1 *2807:B1 0.000515246
46 *2805:B1 *2808:A2 0
47 *2805:B1 *345:79 0
48 *2805:B1 *399:73 0.00072579
49 *2805:B1 *599:10 0
50 *2805:B1 *599:12 0
51 *2805:B1 *599:14 0
52 *2805:B1 *893:12 0.000151333
53 *2815:A2 *2815:B1 1.87331e-05
54 *2815:A2 *2816:B 2.56694e-05
55 *2815:A2 *2816:C 0
56 *2815:A2 *2949:A 9.44309e-06
57 *2815:A2 *3150:CLK 0.000188963
58 *2815:A2 *226:22 0.000130943
59 *2815:A2 *605:29 0.000211457
60 *2815:A2 *693:32 0.000139338
61 *187:12 *2691:C 4.87953e-05
62 *187:16 *3015:A0 0.000667685
63 *187:16 *202:8 1.31516e-05
64 *187:16 *432:133 9.15842e-06
65 *187:58 *2691:C 0.000108034
66 *187:58 *2720:B_N 5.66157e-05
67 *187:58 *2898:C 6.34271e-05
68 *187:58 *192:22 4.41105e-05
69 *187:58 *194:8 0.000271451
70 *187:58 *194:26 0.000685487
71 *187:58 *370:54 0.000171931
72 *187:58 *370:82 0.000180387
73 *187:58 *370:119 0.000278489
74 *187:58 *403:28 0.000692958
75 *187:58 *403:49 0.000109425
76 *187:58 *594:22 0.000325684
77 *187:58 *594:26 0.000296786
78 *187:58 *619:14 0
79 *187:58 *715:30 1.03904e-05
80 *187:58 *799:53 0
81 *187:58 *800:19 0.000146474
82 *187:58 *800:23 0.000141486
83 *187:64 *2751:C 6.74911e-05
84 *187:64 *2791:C 0.00012501
85 *187:64 *3125:A0 0.000101224
86 *187:64 *192:22 0.00011935
87 *187:64 *358:138 0.000218734
88 *187:64 *370:54 0
89 *187:64 *590:14 2.22043e-05
90 *187:64 *594:26 9.99931e-06
91 *187:64 *759:22 5.15632e-05
92 *187:64 *824:10 7.90803e-05
93 *187:71 *2788:A 6.81704e-05
94 *187:96 *2738:C 0.000165024
95 *187:96 *2740:B1 0.00019323
96 *187:96 *2752:C1 0.000100831
97 *187:96 *2760:B1 0
98 *187:96 *2762:B 0.000111918
99 *187:96 *2788:A 6.57032e-05
100 *187:96 *2790:B1 0
101 *187:96 *2942:S 0.0005295
102 *187:96 *2944:A0 4.12365e-05
103 *187:96 *2997:A 0.000440924
104 *187:96 *2998:S 7.83659e-05
105 *187:96 *3447:A 0
106 *187:96 *218:108 8.17147e-05
107 *187:96 *231:14 1.90936e-05
108 *187:96 *231:116 8.74335e-05
109 *187:96 *232:14 0
110 *187:96 *245:14 0.000517574
111 *187:96 *372:14 0
112 *187:96 *374:18 2.47186e-05
113 *187:96 *374:76 0.000170511
114 *187:96 *527:12 0.00018857
115 *187:96 *590:86 0
116 *187:96 *759:22 0.000204933
117 *187:98 *2737:A1 2.14757e-05
118 *187:98 *2737:A2 9.90367e-05
119 *187:98 *2948:S 9.16074e-05
120 *187:100 *2737:B2 5.33005e-05
121 *187:100 *2947:A 5.33005e-05
122 *187:100 *2948:S 7.02611e-05
123 *187:112 *2618:S 9.41642e-05
124 *187:112 *2816:A 5.71472e-05
125 *187:112 *2816:B 0.000354111
126 *187:112 *2816:C 5.33005e-05
127 *187:112 *2842:A0 1.8226e-05
128 *187:112 *2842:S 0.000123053
129 *187:112 *2892:S 9.61455e-05
130 *187:112 *2947:A 1.24368e-05
131 *187:112 *208:58 0.000139334
132 *187:112 *325:32 0.00016747
133 *187:112 *328:30 0.00052787
134 *187:112 *358:30 0.00092075
135 *187:112 *528:72 0.000228191
136 *187:112 *528:82 0.000109596
137 *187:112 *565:6 4.27935e-05
138 *2680:D *187:58 0.000169632
139 *2696:A2 *2696:B1 5.99191e-05
140 *2702:C *187:58 2.39876e-05
141 *2708:B *187:58 3.46968e-05
142 *2710:B *187:16 0
143 *2710:C *187:16 0.000198691
144 *2715:D *187:12 7.48301e-06
145 *2765:A2 *2765:B1 0
146 *2790:A2 *187:96 0
147 *3135:D *187:112 9.55684e-05
148 *3151:D *187:112 0.000127114
149 *3205:D *2765:B1 0
150 *3232:D *187:64 0.000102574
151 *171:10 *187:58 4.33438e-05
152 *171:97 *187:12 5.01213e-05
153 *174:43 *187:96 0.00010122
154 *178:8 *187:58 8.25843e-06
155 *178:29 *187:12 8.43535e-06
156 *178:31 *187:12 2.59355e-05
157 *178:41 *187:12 4.58194e-05
158 *180:32 *187:16 9.91086e-05
159 *180:138 *187:58 5.41794e-05
160 *183:8 *187:12 1.33343e-05
161 *183:22 *187:12 0
*RES
1 *2695:X *187:12 22.6393 
2 *187:12 *187:16 13.125 
3 *187:16 *2696:B1 15.0679 
4 *187:16 *2765:B1 23.2464 
5 *187:12 *187:58 43.3661 
6 *187:58 *187:64 14.1161 
7 *187:64 *2789:B 9.3 
8 *187:64 *187:71 1.35714 
9 *187:71 *2751:B 20.1036 
10 *187:71 *187:96 49.3929 
11 *187:96 *187:98 1.76786 
12 *187:98 *187:100 2.58929 
13 *187:100 *187:112 35.9464 
14 *187:112 *2727:A2 12.7107 
15 *187:112 *2805:B1 46.0143 
16 *187:100 *2815:A2 25.675 
17 *187:98 *2737:B1 9.72857 
*END

*D_NET *188 0.00180154
*CONN
*I *2697:C1 I *D sky130_fd_sc_hd__a221o_1
*I *2696:X O *D sky130_fd_sc_hd__a22o_1
*CAP
1 *2697:C1 0.000297678
2 *2696:X 0.000297678
3 *2697:C1 *2697:A1 3.8017e-05
4 *2697:C1 *2697:B2 1.37018e-05
5 *2697:C1 *2698:C1 7.0172e-05
6 *2697:C1 *3415:A 0.000310605
7 *2697:C1 *432:81 0.000582603
8 *2697:C1 *595:82 1.02301e-05
9 *2696:A2 *2697:C1 1.87331e-05
10 *2697:A2 *2697:C1 1.46576e-05
11 *2697:B1 *2697:C1 5.33005e-05
12 *2766:B1 *2697:C1 9.41642e-05
*RES
1 *2696:X *2697:C1 27.7964 
*END

*D_NET *189 0.00459606
*CONN
*I *2698:C1 I *D sky130_fd_sc_hd__a211o_1
*I *2697:X O *D sky130_fd_sc_hd__a221o_1
*CAP
1 *2698:C1 0.0012876
2 *2697:X 0.0012876
3 *2698:C1 *2696:A1 5.74499e-06
4 *2698:C1 *2767:A1 0.000122942
5 *2698:C1 *2767:B1 0.000224577
6 *2698:C1 *3336:A 9.15842e-06
7 *2698:C1 *3415:A 9.86486e-06
8 *2698:C1 *432:81 0.000436712
9 *2698:C1 *432:133 0.000962634
10 *2696:A2 *2698:C1 5.33005e-05
11 *2696:B1 *2698:C1 1.35465e-05
12 *2697:C1 *2698:C1 7.0172e-05
13 *182:31 *2698:C1 5.97967e-05
14 *183:22 *2698:C1 5.24162e-05
*RES
1 *2697:X *2698:C1 47.9929 
*END

*D_NET *190 0.00564183
*CONN
*I *2730:A2 I *D sky130_fd_sc_hd__a2111o_1
*I *2698:X O *D sky130_fd_sc_hd__a211o_1
*CAP
1 *2730:A2 3.23513e-05
2 *2698:X 0.00189406
3 *190:18 0.00192641
4 *2730:A2 *2704:A1 5.49544e-05
5 *2730:A2 *2730:B1 1.38323e-05
6 *2730:A2 *2730:D1 5.47409e-05
7 *2730:A2 *603:68 0.000100037
8 *190:18 *2730:D1 0
9 *190:18 *2770:A1 0
10 *190:18 *2775:A1 0
11 *190:18 *2777:A2 5.50722e-05
12 *190:18 *2778:D 0.000121208
13 *190:18 *2800:B1 0
14 *190:18 *2976:A0 0
15 *190:18 *3001:A1 0
16 *190:18 *3002:A 0
17 *190:18 *3003:A1 0.000381724
18 *190:18 *3309:A 0.000108103
19 *190:18 *3319:A 0.000125731
20 *190:18 *3359:A 0
21 *190:18 *3428:A 0
22 *190:18 *207:86 0
23 *190:18 *267:44 0.000176099
24 *190:18 *369:74 0
25 *190:18 *456:10 7.83587e-05
26 *190:18 *590:246 0.000317719
27 *190:18 *603:68 4.15526e-05
28 *190:18 *604:40 0
29 *2730:A1 *2730:A2 2.12733e-05
30 *183:22 *190:18 0.000138593
*RES
1 *2698:X *190:18 47.675 
2 *190:18 *2730:A2 15.1571 
*END

*D_NET *191 0.00549843
*CONN
*I *2781:C I *D sky130_fd_sc_hd__and3_1
*I *2700:A I *D sky130_fd_sc_hd__buf_2
*I *2786:C I *D sky130_fd_sc_hd__and3_1
*I *2780:C I *D sky130_fd_sc_hd__and3_1
*I *2699:X O *D sky130_fd_sc_hd__and2b_1
*CAP
1 *2781:C 5.82729e-05
2 *2700:A 0
3 *2786:C 9.48586e-05
4 *2780:C 1.654e-05
5 *2699:X 0.00033288
6 *191:35 0.00115759
7 *191:18 0.00127566
8 *191:10 0.000587544
9 *2780:C *2783:C 6.04072e-05
10 *2780:C *3238:CLK 6.2337e-05
11 *2781:C *2781:B 3.94968e-06
12 *2781:C *3068:A0 7.07702e-05
13 *2781:C *3238:CLK 1.52978e-05
14 *2786:C *2749:B 0.000125724
15 *2786:C *2786:A 6.20611e-05
16 *2786:C *355:34 0.000125724
17 *191:10 *2785:A 1.08359e-05
18 *191:10 *3068:A0 0.000187966
19 *191:10 *211:41 0
20 *191:10 *419:14 4.22239e-05
21 *191:10 *608:10 0
22 *191:18 *3238:CLK 2.59004e-05
23 *191:18 *608:10 4.21543e-05
24 *191:35 *2749:C 3.06878e-06
25 *191:35 *3068:A0 0
26 *191:35 *3238:CLK 4.78056e-05
27 *191:35 *3465:A 0.000957384
28 *191:35 *215:68 4.16207e-05
29 *191:35 *608:10 8.98585e-05
*RES
1 *2699:X *191:10 19.4875 
2 *191:10 *191:18 2.90179 
3 *191:18 *2780:C 14.4071 
4 *191:18 *191:35 20.0179 
5 *191:35 *2786:C 20.55 
6 *191:35 *2700:A 9.3 
7 *191:10 *2781:C 14.8804 
*END

*D_NET *192 0.0163209
*CONN
*I *2749:C I *D sky130_fd_sc_hd__and3_1
*I *2787:C I *D sky130_fd_sc_hd__and3_1
*I *2753:C I *D sky130_fd_sc_hd__and3_1
*I *2701:A I *D sky130_fd_sc_hd__clkbuf_4
*I *2703:B I *D sky130_fd_sc_hd__and3_1
*I *2769:C I *D sky130_fd_sc_hd__and3_1
*I *2706:C I *D sky130_fd_sc_hd__and3_1
*I *2773:C I *D sky130_fd_sc_hd__and3_1
*I *2711:C I *D sky130_fd_sc_hd__and3_1
*I *2768:C I *D sky130_fd_sc_hd__and3_1
*I *2700:X O *D sky130_fd_sc_hd__buf_2
*CAP
1 *2749:C 0.000364359
2 *2787:C 0
3 *2753:C 0.000244674
4 *2701:A 0
5 *2703:B 0.000157426
6 *2769:C 0.000125815
7 *2706:C 0
8 *2773:C 0
9 *2711:C 0.000205186
10 *2768:C 0.000180392
11 *2700:X 0
12 *192:67 0.000488584
13 *192:57 0.000700833
14 *192:36 0.0012058
15 *192:32 0.00119133
16 *192:26 0.00091717
17 *192:22 0.000657772
18 *192:12 0.000619741
19 *192:10 0.000281571
20 *192:4 0.000626439
21 *2703:B *2703:C 7.29646e-05
22 *2703:B *2713:C 5.33005e-05
23 *2703:B *193:56 6.70286e-05
24 *2703:B *391:37 0.00020137
25 *2711:C *2711:B 7.62712e-05
26 *2711:C *2718:A2 2.66566e-05
27 *2711:C *3113:A 9.57165e-05
28 *2711:C *285:22 6.94124e-05
29 *2711:C *476:66 8.57208e-05
30 *2711:C *476:98 0
31 *2749:C *2552:A 2.84026e-05
32 *2749:C *2749:A 6.04072e-05
33 *2749:C *2749:B 1.2104e-05
34 *2749:C *2989:A 9.76123e-05
35 *2749:C *3465:A 3.21345e-05
36 *2753:C *2548:A1 0.000180777
37 *2753:C *2548:S 5.7616e-05
38 *2753:C *2553:A0 0.00029018
39 *2753:C *3122:B 0.000169397
40 *2753:C *212:20 0.00024908
41 *2753:C *218:108 1.08359e-05
42 *2768:C *3110:A 3.61166e-05
43 *2768:C *3112:A0 8.15251e-05
44 *2768:C *207:86 0
45 *2768:C *395:53 5.51502e-05
46 *2769:C *2800:B1 0.000161725
47 *2769:C *3428:A 0
48 *2769:C *476:56 1.95435e-05
49 *2769:C *832:10 1.95435e-05
50 *192:10 *2787:A 5.71472e-05
51 *192:10 *619:14 7.23555e-06
52 *192:10 *619:39 8.25843e-06
53 *192:12 *619:14 1.15986e-05
54 *192:22 *3122:B 0.00026546
55 *192:22 *476:31 0.000419186
56 *192:22 *500:139 0.000410643
57 *192:22 *619:14 0.000189485
58 *192:22 *759:22 3.67452e-05
59 *192:26 *476:31 0.00120848
60 *192:26 *500:139 0.000559096
61 *192:32 *193:56 6.89801e-05
62 *192:32 *358:138 0.000232131
63 *192:32 *391:37 8.6229e-06
64 *192:32 *391:43 0.000144531
65 *192:36 *3107:A0 3.30309e-05
66 *192:36 *3107:S 2.61099e-05
67 *192:36 *350:85 9.01258e-06
68 *192:36 *358:138 0.000494779
69 *192:57 *2718:A2 0.000101474
70 *192:57 *3112:A0 6.98302e-05
71 *192:57 *3386:A 7.36162e-05
72 *192:57 *207:86 0
73 *192:57 *395:26 0.000162743
74 *192:57 *395:53 2.23987e-05
75 *192:67 *2718:A2 0.000718964
76 *192:67 *2774:B1 0.000483584
77 *2718:B2 *192:57 5.35522e-05
78 *2718:B2 *192:67 0
79 *181:32 *192:57 0
80 *181:34 *192:57 0
81 *187:58 *192:22 4.41105e-05
82 *187:64 *192:22 0.00011935
83 *191:35 *2749:C 3.06878e-06
*RES
1 *2700:X *192:4 9.3 
2 *192:4 *192:10 3.28571 
3 *192:10 *192:12 0.392857 
4 *192:12 *192:22 19.3929 
5 *192:22 *192:26 16.125 
6 *192:26 *192:32 11.0893 
7 *192:32 *192:36 12.4286 
8 *192:36 *2768:C 16.9607 
9 *192:36 *192:57 13.5312 
10 *192:57 *192:67 8.57589 
11 *192:67 *2711:C 22.8357 
12 *192:67 *2773:C 9.3 
13 *192:57 *2706:C 9.3 
14 *192:32 *2769:C 20.7464 
15 *192:26 *2703:B 17.6214 
16 *192:22 *2701:A 9.3 
17 *192:12 *2753:C 25.2821 
18 *192:10 *2787:C 9.3 
19 *192:4 *2749:C 23.2464 
*END

*D_NET *193 0.0200531
*CONN
*I *2709:A3 I *D sky130_fd_sc_hd__a31o_1
*I *2789:C I *D sky130_fd_sc_hd__and3_1
*I *2751:C I *D sky130_fd_sc_hd__and3_1
*I *2757:A3 I *D sky130_fd_sc_hd__a31o_1
*I *2772:A2 I *D sky130_fd_sc_hd__a31o_1
*I *2704:A3 I *D sky130_fd_sc_hd__a31o_1
*I *2777:B2 I *D sky130_fd_sc_hd__a22o_1
*I *2718:A1 I *D sky130_fd_sc_hd__a22o_1
*I *2799:A1 I *D sky130_fd_sc_hd__a211o_1
*I *2748:A1 I *D sky130_fd_sc_hd__a211o_1
*I *2701:X O *D sky130_fd_sc_hd__clkbuf_4
*CAP
1 *2709:A3 0.000331895
2 *2789:C 4.4375e-05
3 *2751:C 0.000292995
4 *2757:A3 0.000140401
5 *2772:A2 0.000162639
6 *2704:A3 1.34217e-05
7 *2777:B2 0.000197765
8 *2718:A1 0.00010185
9 *2799:A1 2.04856e-05
10 *2748:A1 0.000480678
11 *2701:X 0
12 *193:131 0.000485798
13 *193:76 0.000787347
14 *193:60 0.000958892
15 *193:56 0.00108022
16 *193:26 0.000800798
17 *193:20 0.00105755
18 *193:18 0.000869272
19 *193:14 0.000898733
20 *193:6 0.000651406
21 *2704:A3 *2800:B1 2.11419e-05
22 *2709:A3 *2549:A 0.000126958
23 *2709:A3 *2709:A1 6.05161e-06
24 *2709:A3 *2709:A2 2.59355e-05
25 *2709:A3 *2709:B1 1.05731e-05
26 *2709:A3 *3466:A 1.03904e-05
27 *2709:A3 *370:54 0.000145579
28 *2709:A3 *432:29 0.000100248
29 *2709:A3 *715:30 0.000389559
30 *2709:A3 *737:34 1.05521e-05
31 *2718:A1 *2718:A2 9.25804e-05
32 *2718:A1 *2730:C1 4.27381e-05
33 *2748:A1 *2748:C1 3.99614e-06
34 *2748:A1 *2799:B1 5.45307e-05
35 *2748:A1 *3006:B 0.000126764
36 *2748:A1 *3007:A1 0.000199698
37 *2748:A1 *3010:S 3.82357e-05
38 *2748:A1 *3371:A 1.18064e-05
39 *2748:A1 *207:90 0
40 *2748:A1 *221:16 0.00104809
41 *2748:A1 *600:94 6.04162e-05
42 *2751:C *2751:A 0.00011437
43 *2751:C *212:42 0.000118864
44 *2751:C *370:54 0.000136977
45 *2751:C *824:10 2.8761e-05
46 *2757:A3 *3233:CLK 0.000104818
47 *2757:A3 *202:14 0.000386447
48 *2757:A3 *212:65 0.00012501
49 *2757:A3 *231:98 2.18871e-05
50 *2772:A2 *2703:C 6.65004e-05
51 *2772:A2 *2772:A1 9.54798e-06
52 *2772:A2 *2772:A3 5.42764e-05
53 *2772:A2 *3099:A0 2.51528e-05
54 *2772:A2 *376:80 2.06112e-05
55 *2772:A2 *391:37 3.78119e-05
56 *2777:B2 *2770:C1 0.000143679
57 *2777:B2 *267:44 2.26055e-05
58 *2789:C *2789:A 2.64748e-05
59 *2799:A1 *2799:B1 5.38444e-06
60 *193:14 *350:62 0.000108516
61 *193:14 *350:83 0.000150625
62 *193:14 *370:54 0.000631589
63 *193:14 *715:30 0.000247026
64 *193:20 *3006:B 0.000159788
65 *193:20 *291:16 2.14757e-05
66 *193:26 *2799:B1 4.48647e-05
67 *193:26 *3006:B 0.000265056
68 *193:26 *221:16 9.77423e-05
69 *193:26 *291:16 0.000621424
70 *193:56 *2703:C 0.000150022
71 *193:56 *197:28 0.000121549
72 *193:56 *365:22 7.80714e-06
73 *193:56 *391:43 4.56587e-05
74 *193:60 *197:60 2.73669e-05
75 *193:60 *222:26 0.000107621
76 *193:60 *376:80 5.28889e-05
77 *193:60 *603:82 7.62903e-05
78 *193:76 *2730:C1 2.94871e-05
79 *193:76 *2770:C1 7.53554e-06
80 *193:76 *197:60 2.00667e-05
81 *193:76 *603:68 0.000194655
82 *193:131 *2788:A 2.55889e-05
83 *193:131 *2789:A 2.84026e-05
84 *2703:B *193:56 6.70286e-05
85 *2718:B2 *2718:A1 0.000257619
86 *2718:B2 *193:76 5.49544e-05
87 *2730:A1 *193:76 4.17433e-05
88 *2770:A2 *2777:B2 5.70414e-06
89 *2770:A2 *193:60 8.0718e-05
90 *2770:A2 *193:76 0.00024212
91 *3220:D *193:26 5.92278e-05
92 *3220:D *193:56 0.000104077
93 *3221:D *193:56 0.000260377
94 *176:54 *2709:A3 7.79859e-05
95 *177:10 *193:56 0.000829374
96 *177:24 *193:20 0.000694325
97 *177:24 *193:56 0.000124649
98 *177:100 *2772:A2 4.36671e-05
99 *177:100 *193:56 0.000102247
100 *177:106 *2777:B2 6.23278e-05
101 *177:112 *2777:B2 2.73034e-05
102 *177:147 *2777:B2 0.000186614
103 *187:64 *2751:C 6.74911e-05
104 *192:32 *193:56 6.89801e-05
*RES
1 *2701:X *193:6 13.8 
2 *193:6 *193:14 13.7857 
3 *193:14 *193:18 4.96429 
4 *193:18 *193:20 7.92857 
5 *193:20 *193:26 9.30357 
6 *193:26 *2748:A1 32.1571 
7 *193:26 *2799:A1 9.72857 
8 *193:20 *193:56 18.7411 
9 *193:56 *193:60 4.39387 
10 *193:60 *193:76 10.4579 
11 *193:76 *2718:A1 11.8893 
12 *193:76 *2777:B2 22.9786 
13 *193:60 *2704:A3 17.4868 
14 *193:56 *2772:A2 17.1661 
15 *193:18 *2757:A3 23.2821 
16 *193:14 *193:131 1.76786 
17 *193:131 *2751:C 24.9607 
18 *193:131 *2789:C 9.90714 
19 *193:6 *2709:A3 22.5857 
*END

*D_NET *194 0.01196
*CONN
*I *3468:A I *D sky130_fd_sc_hd__clkbuf_2
*I *2703:C I *D sky130_fd_sc_hd__and3_1
*I *2772:A3 I *D sky130_fd_sc_hd__a31o_1
*I *2771:C I *D sky130_fd_sc_hd__and3_1
*I *2702:Y O *D sky130_fd_sc_hd__nor4b_2
*CAP
1 *3468:A 0.000672834
2 *2703:C 0.000360189
3 *2772:A3 0.000108146
4 *2771:C 0
5 *2702:Y 0.000616585
6 *194:41 0.00118889
7 *194:26 0.0012852
8 *194:8 0.00185407
9 *2703:C *3097:A 1.95435e-05
10 *2703:C *3099:A0 6.67152e-05
11 *2703:C *376:80 3.04599e-05
12 *2703:C *391:37 0.000149464
13 *2772:A3 *391:37 5.59239e-05
14 *3468:A *3058:A 3.08664e-05
15 *3468:A *212:14 0
16 *3468:A *336:25 6.13181e-05
17 *3468:A *340:43 0.000173328
18 *3468:A *340:53 0.00010096
19 *3468:A *352:34 0.000159133
20 *3468:A *384:14 0.000169982
21 *3468:A *384:26 2.06112e-05
22 *3468:A *403:28 9.66977e-05
23 *3468:A *411:10 0.000111021
24 *3468:A *677:20 1.68854e-05
25 *3468:A *715:20 2.84109e-05
26 *3468:A *873:14 5.49489e-05
27 *194:8 *2680:B 0.00012501
28 *194:8 *2898:C 7.14469e-05
29 *194:8 *2972:A 4.56326e-05
30 *194:8 *212:14 0
31 *194:8 *371:16 5.69509e-05
32 *194:8 *403:49 1.19191e-05
33 *194:8 *799:53 0.000234384
34 *194:26 *2708:C 8.63378e-05
35 *194:26 *2771:A 5.66971e-05
36 *194:26 *3096:A0 0.000226354
37 *194:26 *3466:A 0.000305397
38 *194:26 *403:49 1.88588e-05
39 *194:26 *432:14 2.6269e-05
40 *194:26 *715:30 0.000707413
41 *194:26 *759:12 5.33005e-05
42 *194:26 *759:22 6.79145e-05
43 *194:26 *873:14 5.02646e-05
44 *194:41 *2771:A 9.8126e-05
45 *194:41 *2772:B1 0.000545102
46 *194:41 *3096:A0 1.95435e-05
47 *194:41 *202:14 4.79773e-05
48 *194:41 *726:20 3.6444e-05
49 *2680:D *194:8 0.000114121
50 *2702:C *194:8 2.84494e-05
51 *2703:B *2703:C 7.29646e-05
52 *2772:A2 *2703:C 6.65004e-05
53 *2772:A2 *2772:A3 5.42764e-05
54 *3223:D *2772:A3 1.90303e-05
55 *3223:D *194:41 8.25843e-06
56 *171:10 *194:8 4.78056e-05
57 *176:54 *194:26 5.78196e-05
58 *176:64 *194:26 7.749e-06
59 *176:70 *2703:C 2.07517e-05
60 *183:56 *2703:C 3.17684e-05
61 *187:58 *194:8 0.000271451
62 *187:58 *194:26 0.000685487
63 *193:56 *2703:C 0.000150022
*RES
1 *2702:Y *194:8 28.8 
2 *194:8 *194:26 22.1607 
3 *194:26 *2771:C 9.3 
4 *194:26 *194:41 18.4643 
5 *194:41 *2772:A3 19.9786 
6 *194:41 *2703:C 35.2286 
7 *194:8 *3468:A 43.8357 
*END

*D_NET *195 0.00102776
*CONN
*I *2704:B1 I *D sky130_fd_sc_hd__a31o_1
*I *2703:X O *D sky130_fd_sc_hd__and3_1
*CAP
1 *2704:B1 0.000256286
2 *2703:X 0.000256286
3 *2704:B1 *2713:C 0.000260574
4 *2704:B1 *2713:D 1.21258e-05
5 *2704:B1 *3221:CLK 1.28715e-05
6 *2704:B1 *369:74 0.000119783
7 *2704:B1 *603:82 9.54798e-06
8 *2770:A2 *2704:B1 2.06112e-05
9 *3222:D *2704:B1 5.52302e-05
10 *183:69 *2704:B1 2.4446e-05
*RES
1 *2703:X *2704:B1 32.6714 
*END

*D_NET *196 0.000672675
*CONN
*I *2713:A I *D sky130_fd_sc_hd__or4_1
*I *2704:X O *D sky130_fd_sc_hd__a31o_1
*CAP
1 *2713:A 0.000152572
2 *2704:X 0.000152572
3 *2713:A *2704:A1 4.20835e-05
4 *2713:A *2713:B 6.2293e-05
5 *2713:A *2713:D 9.76565e-05
6 *2713:A *2730:B1 0.00015405
7 *2713:A *2800:B1 5.25862e-06
8 *2713:A *3428:A 6.18969e-06
*RES
1 *2704:X *2713:A 31.4393 
*END

*D_NET *197 0.0367803
*CONN
*I *2741:B1 I *D sky130_fd_sc_hd__a22o_1
*I *2794:A2 I *D sky130_fd_sc_hd__a211o_1
*I *2806:B1 I *D sky130_fd_sc_hd__a22o_1
*I *2724:B1 I *D sky130_fd_sc_hd__a22o_1
*I *2770:A3 I *D sky130_fd_sc_hd__a311o_1
*I *2707:A3 I *D sky130_fd_sc_hd__a31o_1
*I *2735:B1 I *D sky130_fd_sc_hd__a22o_1
*I *2814:B1 I *D sky130_fd_sc_hd__a221o_1
*I *2705:X O *D sky130_fd_sc_hd__and4_4
*CAP
1 *2741:B1 6.27083e-05
2 *2794:A2 0
3 *2806:B1 7.24632e-05
4 *2724:B1 0.000172634
5 *2770:A3 5.36696e-05
6 *2707:A3 8.68541e-05
7 *2735:B1 0
8 *2814:B1 0.000333803
9 *2705:X 6.43658e-05
10 *197:134 0.00170648
11 *197:128 0.00306734
12 *197:112 0.00168966
13 *197:108 0.00231621
14 *197:60 0.000745084
15 *197:28 0.00454773
16 *197:18 0.00598573
17 *197:8 0.0034014
18 *2707:A3 *2770:B1 4.11486e-05
19 *2707:A3 *2778:C 0.000262841
20 *2724:B1 *2560:S 1.92789e-05
21 *2724:B1 *2614:A 0.000116049
22 *2724:B1 *2724:A1 0.000399848
23 *2724:B1 *2724:B2 5.52238e-05
24 *2724:B1 *2806:B2 0
25 *2724:B1 *358:36 5.01213e-05
26 *2741:B1 *2741:A1 1.02504e-05
27 *2741:B1 *2794:A1 0.000177948
28 *2741:B1 *2794:B1 4.57538e-05
29 *2741:B1 *602:101 0
30 *2770:A3 *2770:A1 4.82865e-05
31 *2770:A3 *2770:B1 5.46383e-06
32 *2770:A3 *2778:C 4.35597e-05
33 *2806:B1 *2806:A1 3.18676e-05
34 *2806:B1 *2806:A2 1.24368e-05
35 *2806:B1 *535:14 1.02821e-05
36 *2814:B1 *2735:B2 0
37 *2814:B1 *2814:B2 1.28809e-05
38 *2814:B1 *2895:A 0.000102196
39 *2814:B1 *208:58 0.000129534
40 *2814:B1 *369:10 0
41 *2814:B1 *396:12 0.000265787
42 *2814:B1 *916:6 0.000181796
43 *197:8 *3004:A 0.000122231
44 *197:8 *3027:A 0.000143173
45 *197:18 *2976:S 0.000301041
46 *197:18 *3002:A 0
47 *197:18 *3027:A 0.000321213
48 *197:18 *208:106 0.000269965
49 *197:18 *258:28 0.000339348
50 *197:18 *371:57 4.37758e-05
51 *197:18 *399:16 0.000140532
52 *197:28 *2602:A 0
53 *197:28 *2912:B 0.000124005
54 *197:28 *2930:S 0.000160484
55 *197:28 *258:28 0.000426037
56 *197:28 *321:63 0.000260437
57 *197:28 *325:57 0.000162192
58 *197:28 *359:18 0.000122227
59 *197:28 *369:10 0
60 *197:28 *369:19 0.000121652
61 *197:28 *371:57 0.000183814
62 *197:28 *396:12 8.56716e-05
63 *197:60 *202:52 0.000945038
64 *197:60 *267:44 1.66706e-05
65 *197:60 *603:68 9.01038e-05
66 *197:60 *603:82 0.000388316
67 *197:108 *2717:B2 1.82549e-05
68 *197:108 *2794:B1 9.90367e-05
69 *197:108 *2794:C1 3.54971e-05
70 *197:108 *2976:A0 0.000103288
71 *197:108 *2991:A1 7.43578e-06
72 *197:108 *2992:A 6.27679e-05
73 *197:108 *2993:S 9.41642e-05
74 *197:108 *3003:A1 0.000355849
75 *197:108 *3004:A 5.49489e-05
76 *197:108 *3022:A 0.000333849
77 *197:108 *3032:A 0.00019384
78 *197:108 *3182:CLK 0.000101157
79 *197:108 *3425:A 2.97829e-05
80 *197:108 *285:12 9.78683e-05
81 *197:108 *604:14 7.1271e-05
82 *197:108 *845:8 0.000183713
83 *197:112 *2794:B1 1.3701e-05
84 *197:112 *285:12 2.65105e-05
85 *197:128 *2776:A1 0
86 *197:128 *3060:A 0
87 *197:128 *3060:B 0
88 *197:128 *3063:A1 0
89 *197:128 *3082:A 5.85482e-05
90 *197:128 *3083:A0 0
91 *197:128 *3088:A1 0
92 *197:128 *3089:A 0.000649605
93 *197:128 *3102:A0 8.93793e-05
94 *197:128 *3130:A0 3.79258e-05
95 *197:128 *285:12 5.62995e-05
96 *197:128 *442:77 0
97 *197:128 *477:8 0
98 *197:134 *2580:A0 0
99 *197:134 *2581:A 1.31516e-05
100 *197:134 *2591:A 0
101 *197:134 *2622:A 0
102 *197:134 *2622:B 2.28238e-05
103 *197:134 *2624:A 0
104 *197:134 *2722:A1 2.81946e-05
105 *197:134 *2805:A1 0
106 *197:134 *2806:B2 0
107 *197:134 *2807:A1 0
108 *197:134 *3119:A 0.000148911
109 *197:134 *3130:A0 1.12323e-05
110 *197:134 *3243:CLK 0.000126446
111 *197:134 *3347:A 0
112 *197:134 *3459:A 0
113 *197:134 *358:36 0.00013053
114 *197:134 *358:57 7.15687e-05
115 *197:134 *500:31 0.00125181
116 *197:134 *511:96 0.000150618
117 *197:134 *591:10 0
118 *3182:D *197:108 2.88018e-06
119 *3187:D *197:108 2.41649e-05
120 *3214:D *197:108 8.01067e-05
121 *3224:D *197:128 0
122 *3249:D *197:134 4.57329e-05
123 *3252:D *197:134 4.45987e-05
124 *177:10 *197:28 0.000135968
125 *177:112 *2707:A3 9.67754e-05
126 *177:147 *197:60 4.41666e-05
127 *181:32 *197:108 0.000310298
128 *193:56 *197:28 0.000121549
129 *193:60 *197:60 2.73669e-05
130 *193:76 *197:60 2.00667e-05
*RES
1 *2705:X *197:8 15.7464 
2 *197:8 *197:18 13.8773 
3 *197:18 *197:28 19.4139 
4 *197:28 *2814:B1 21.6214 
5 *197:28 *2735:B1 13.8 
6 *197:18 *197:60 13.4968 
7 *197:60 *2707:A3 11.8893 
8 *197:60 *2770:A3 10.675 
9 *197:8 *197:108 48.6429 
10 *197:108 *197:112 1.67857 
11 *197:112 *197:128 35.9554 
12 *197:128 *197:134 34.0268 
13 *197:134 *2724:B1 18.9607 
14 *197:134 *2806:B1 15.175 
15 *197:112 *2794:A2 9.3 
16 *197:108 *2741:B1 20.55 
*END

*D_NET *198 0.000551974
*CONN
*I *2707:B1 I *D sky130_fd_sc_hd__a31o_1
*I *2706:X O *D sky130_fd_sc_hd__and3_1
*CAP
1 *2707:B1 0.000111204
2 *2706:X 0.000111204
3 *2707:B1 *2778:C 4.51148e-05
4 *2707:B1 *202:52 5.50052e-05
5 *2707:B1 *209:18 3.22345e-05
6 *177:116 *2707:B1 0.000140243
7 *181:32 *2707:B1 5.69684e-05
*RES
1 *2706:X *2707:B1 30.6 
*END

*D_NET *199 0.00220518
*CONN
*I *2713:B I *D sky130_fd_sc_hd__or4_1
*I *2707:X O *D sky130_fd_sc_hd__a31o_1
*CAP
1 *2713:B 0.000593562
2 *2707:X 0.000593562
3 *2713:B *2713:D 2.61551e-05
4 *2713:B *2730:B1 5.49544e-05
5 *2713:B *2770:B1 0.000257125
6 *2713:B *2770:C1 0.000257125
7 *2713:B *358:114 0.000136951
8 *2713:B *833:8 0.000223456
9 *2713:A *2713:B 6.2293e-05
*RES
1 *2707:X *2713:B 37.35 
*END

*D_NET *200 0.00178943
*CONN
*I *2709:B1 I *D sky130_fd_sc_hd__a31o_1
*I *2708:X O *D sky130_fd_sc_hd__and3_1
*CAP
1 *2709:B1 0.000366235
2 *2708:X 0.000366235
3 *2709:B1 *2709:A1 5.23735e-05
4 *2709:B1 *3419:A 4.44369e-05
5 *2709:B1 *212:14 0.000154973
6 *2709:B1 *218:108 0.000356917
7 *2709:B1 *476:12 9.14222e-05
8 *2709:B1 *594:22 0.000346266
9 *2709:A3 *2709:B1 1.05731e-05
*RES
1 *2708:X *2709:B1 37.35 
*END

*D_NET *201 0.00324312
*CONN
*I *2713:C I *D sky130_fd_sc_hd__or4_1
*I *2709:X O *D sky130_fd_sc_hd__a31o_1
*CAP
1 *2713:C 0.000841762
2 *2709:X 0.000841762
3 *2713:C *2713:D 2.59355e-05
4 *2713:C *3097:A 0.00050829
5 *2713:C *737:34 0.000222835
6 *2713:C *748:14 7.23307e-05
7 *2713:C *759:12 0.000121897
8 *2703:B *2713:C 5.33005e-05
9 *2704:B1 *2713:C 0.000260574
10 *176:64 *2713:C 0.000134274
11 *176:70 *2713:C 5.01338e-05
12 *177:8 *2713:C 0.000110029
*RES
1 *2709:X *2713:C 45.35 
*END

*D_NET *202 0.0340474
*CONN
*I *2712:A3 I *D sky130_fd_sc_hd__a31o_1
*I *2714:B1 I *D sky130_fd_sc_hd__a22o_1
*I *2776:B1 I *D sky130_fd_sc_hd__a22o_1
*I *2725:B1 I *D sky130_fd_sc_hd__a22o_1
*I *2803:B1 I *D sky130_fd_sc_hd__a22o_1
*I *2774:A3 I *D sky130_fd_sc_hd__a31o_1
*I *2812:B1 I *D sky130_fd_sc_hd__a221o_1
*I *2734:A2 I *D sky130_fd_sc_hd__a21o_1
*I *2710:X O *D sky130_fd_sc_hd__and4b_4
*CAP
1 *2712:A3 1.97574e-05
2 *2714:B1 0
3 *2776:B1 0
4 *2725:B1 0.000220537
5 *2803:B1 0.000109043
6 *2774:A3 2.76615e-05
7 *2812:B1 0.000233366
8 *2734:A2 0.000715301
9 *2710:X 0.000949955
10 *202:115 0.000809316
11 *202:107 0.00187083
12 *202:87 0.00157939
13 *202:77 0.000903407
14 *202:67 0.00104703
15 *202:52 0.00205885
16 *202:14 0.0034665
17 *202:8 0.00518681
18 *2725:B1 *2727:B1 0
19 *2725:B1 *2728:A 0.000170385
20 *2725:B1 *2728:B 8.00806e-05
21 *2725:B1 *2803:A2 7.8301e-05
22 *2725:B1 *350:120 0.000240484
23 *2734:A2 *2813:B1 0.00010072
24 *2734:A2 *2816:B 4.84319e-05
25 *2734:A2 *2886:A0 6.74911e-05
26 *2734:A2 *2892:A0 0.000200744
27 *2734:A2 *2923:A 7.12019e-05
28 *2734:A2 *325:49 6.2169e-06
29 *2734:A2 *388:8 7.89362e-05
30 *2734:A2 *715:58 0
31 *2774:A3 *399:34 1.32293e-05
32 *2803:B1 *2728:A 5.52302e-05
33 *2803:B1 *2803:A2 2.44318e-05
34 *2812:B1 *2812:B2 2.85551e-05
35 *2812:B1 *2812:C1 6.21632e-05
36 *2812:B1 *511:18 7.12975e-05
37 *202:8 *2771:A 0.000151861
38 *202:8 *3015:A0 0.000583356
39 *202:8 *3015:S 0.000174198
40 *202:8 *376:14 0.000141834
41 *202:8 *376:80 0.000375878
42 *202:8 *759:12 0
43 *202:14 *2757:B1 0.000261967
44 *202:14 *2771:A 2.74395e-05
45 *202:14 *2772:B1 4.22135e-06
46 *202:14 *2811:B2 5.4061e-05
47 *202:14 *2886:A0 0.000333032
48 *202:14 *2887:A 0.000311887
49 *202:14 *3126:A 0.000127446
50 *202:14 *3233:CLK 4.81698e-05
51 *202:14 *231:98 0
52 *202:14 *376:80 0.000146117
53 *202:14 *384:43 1.76177e-05
54 *202:14 *385:10 0
55 *202:14 *715:58 0
56 *202:14 *737:34 0
57 *202:14 *748:14 0
58 *202:14 *929:12 0.000121208
59 *202:52 *2778:C 0.000140243
60 *202:52 *209:18 7.69776e-06
61 *202:52 *222:26 0
62 *202:52 *345:16 0
63 *202:52 *376:80 0.000142412
64 *202:52 *474:18 2.83526e-05
65 *202:52 *603:68 0.000132043
66 *202:52 *603:82 9.25559e-05
67 *202:67 *399:34 0.000178503
68 *202:77 *2712:A1 9.84729e-05
69 *202:77 *3101:A 1.80261e-05
70 *202:77 *445:8 5.51649e-05
71 *202:77 *445:21 0.000121869
72 *202:77 *476:98 0.000120582
73 *202:77 *726:26 7.82519e-05
74 *202:77 *726:28 5.54817e-06
75 *202:87 *2714:A1 6.82998e-05
76 *202:87 *2714:B2 0.000198702
77 *202:87 *2776:B2 0.000163644
78 *202:87 *3389:A 5.74309e-05
79 *202:87 *445:8 1.3142e-05
80 *202:107 *2588:S 0.000372316
81 *202:107 *2590:A0 0.000139945
82 *202:107 *2625:S 0.000263996
83 *202:107 *2722:B1 8.84517e-05
84 *202:107 *2722:C1 0.000172528
85 *202:107 *2776:B2 9.25014e-06
86 *202:107 *2801:A2 0
87 *202:107 *2801:B1 5.54742e-05
88 *202:107 *220:18 7.47231e-06
89 *202:107 *350:118 0.000626894
90 *202:107 *358:57 0
91 *202:107 *358:79 0.000221821
92 *202:107 *442:16 0.000189495
93 *202:107 *445:8 0.000276609
94 *202:107 *511:100 0
95 *202:107 *547:14 7.98046e-05
96 *202:107 *828:16 0.000316738
97 *202:115 *2567:A 0.000189173
98 *202:115 *2578:S 0.000669182
99 *202:115 *2580:S 0.000141799
100 *202:115 *2722:B1 1.98149e-06
101 *202:115 *2724:A2 0.000176234
102 *202:115 *2724:B2 3.47985e-06
103 *202:115 *2728:A 0.000669182
104 *202:115 *3296:A 6.20827e-05
105 *202:115 *215:108 0.000385724
106 *202:115 *220:18 4.52391e-05
107 *202:115 *358:57 0
108 *2689:B_N *202:8 0.000103253
109 *2707:B1 *202:52 5.50052e-05
110 *2710:A_N *202:8 0.000242913
111 *2710:C *202:8 0.000189441
112 *2712:A2 *202:67 3.02383e-05
113 *2712:A2 *202:77 2.11336e-05
114 *2757:A3 *202:14 0.000386447
115 *2774:A2 *2774:A3 1.02301e-05
116 *3148:D *202:14 4.84319e-05
117 *3233:D *202:14 0
118 *3295:A *202:14 1.01912e-05
119 *174:69 *202:14 0.000277328
120 *176:64 *202:14 0
121 *177:24 *202:14 0.000362268
122 *177:116 *2774:A3 2.85234e-05
123 *177:116 *202:52 5.75774e-05
124 *179:12 *202:8 0.000378429
125 *180:10 *202:8 0.000127446
126 *180:21 *202:8 0.000185304
127 *180:32 *202:8 0.000159689
128 *181:32 *202:52 5.60463e-06
129 *183:56 *202:8 0
130 *187:16 *202:8 1.31516e-05
131 *194:41 *202:14 4.79773e-05
132 *197:60 *202:52 0.000945038
*RES
1 *2710:X *202:8 40.1839 
2 *202:8 *202:14 49.8125 
3 *202:14 *2734:A2 27.7821 
4 *202:14 *2812:B1 18.05 
5 *202:8 *202:52 17.015 
6 *202:52 *2774:A3 10.2643 
7 *202:52 *202:67 4.57143 
8 *202:67 *202:77 21.9643 
9 *202:77 *202:87 9.57143 
10 *202:87 *202:107 43.1161 
11 *202:107 *202:115 22.6339 
12 *202:115 *2803:B1 11.0679 
13 *202:115 *2725:B1 23.6393 
14 *202:87 *2776:B1 13.8 
15 *202:77 *2714:B1 9.3 
16 *202:67 *2712:A3 9.72857 
*END

*D_NET *203 0.00115063
*CONN
*I *2712:B1 I *D sky130_fd_sc_hd__a31o_1
*I *2711:X O *D sky130_fd_sc_hd__and3_1
*CAP
1 *2712:B1 0.000405317
2 *2711:X 0.000405317
3 *2712:B1 *3115:A 9.90431e-05
4 *2712:B1 *267:44 9.02232e-05
5 *2712:B1 *285:22 7.44554e-05
6 *2712:B1 *399:34 0
7 *2712:B1 *748:39 7.62712e-05
*RES
1 *2711:X *2712:B1 34.2607 
*END

*D_NET *204 0.00421601
*CONN
*I *2713:D I *D sky130_fd_sc_hd__or4_1
*I *2712:X O *D sky130_fd_sc_hd__a31o_1
*CAP
1 *2713:D 0.000951736
2 *2712:X 0.000951736
3 *2713:D *3384:A 0.000137197
4 *2713:D *207:86 0.00034553
5 *2713:D *358:114 7.93525e-05
6 *2713:D *395:26 0.000347177
7 *2713:D *476:56 0.000515703
8 *2713:D *833:8 7.31322e-05
9 *2704:B1 *2713:D 1.21258e-05
10 *2712:A2 *2713:D 0.000180202
11 *2713:A *2713:D 9.76565e-05
12 *2713:B *2713:D 2.61551e-05
13 *2713:C *2713:D 2.59355e-05
14 *176:70 *2713:D 5.33005e-05
15 *177:116 *2713:D 0.000419075
*RES
1 *2712:X *2713:D 47.3321 
*END

*D_NET *205 0.000914823
*CONN
*I *2730:B1 I *D sky130_fd_sc_hd__a2111o_1
*I *2713:X O *D sky130_fd_sc_hd__or4_1
*CAP
1 *2730:B1 0.000229834
2 *2713:X 0.000229834
3 *2730:B1 *2704:A1 0.000125691
4 *2730:B1 *2730:D1 5.47409e-05
5 *2730:B1 *2800:B1 5.18871e-05
6 *2704:A2 *2730:B1 0
7 *2713:A *2730:B1 0.00015405
8 *2713:B *2730:B1 5.49544e-05
9 *2730:A2 *2730:B1 1.38323e-05
*RES
1 *2713:X *2730:B1 32.3857 
*END

*D_NET *206 0.00319514
*CONN
*I *2718:A2 I *D sky130_fd_sc_hd__a22o_1
*I *2714:X O *D sky130_fd_sc_hd__a22o_1
*CAP
1 *2718:A2 0.000920025
2 *2714:X 0.000920025
3 *2718:A2 *2711:B 1.58163e-05
4 *2718:A2 *2773:A 0.00031306
5 *2718:A2 *748:39 7.65779e-05
6 *2711:C *2718:A2 2.66566e-05
7 *2718:A1 *2718:A2 9.25804e-05
8 *2718:B2 *2718:A2 9.96628e-06
9 *192:57 *2718:A2 0.000101474
10 *192:67 *2718:A2 0.000718964
*RES
1 *2714:X *2718:A2 38.8321 
*END

*D_NET *207 0.0223423
*CONN
*I *2796:A2 I *D sky130_fd_sc_hd__a31o_1
*I *2745:A2 I *D sky130_fd_sc_hd__a31o_1
*I *2722:A2 I *D sky130_fd_sc_hd__a221o_1
*I *2805:A2 I *D sky130_fd_sc_hd__a22o_1
*I *2717:A2 I *D sky130_fd_sc_hd__a22o_1
*I *2793:A2 I *D sky130_fd_sc_hd__a22o_1
*I *2742:A2 I *D sky130_fd_sc_hd__a22o_1
*I *2775:A2 I *D sky130_fd_sc_hd__a22o_1
*I *2715:X O *D sky130_fd_sc_hd__and4bb_4
*CAP
1 *2796:A2 0.000383179
2 *2745:A2 0.000104336
3 *2722:A2 0.000753958
4 *2805:A2 0.000127667
5 *2717:A2 0
6 *2793:A2 0.000449541
7 *2742:A2 0
8 *2775:A2 2.22114e-05
9 *2715:X 0.000687247
10 *207:98 0.00141633
11 *207:90 0.00106991
12 *207:86 0.00228412
13 *207:47 0.00105193
14 *207:39 0.000899369
15 *207:27 0.00176705
16 *207:12 0.000709458
17 *2722:A2 *2582:A 0.000275205
18 *2722:A2 *2591:A 2.35097e-05
19 *2722:A2 *2722:B1 0.000240206
20 *2722:A2 *2729:A1 2.59355e-05
21 *2722:A2 *2801:A1 0.00014678
22 *2722:A2 *2801:A2 1.08359e-05
23 *2722:A2 *3456:A 0.000164692
24 *2722:A2 *849:6 4.44527e-05
25 *2745:A2 *2582:A 0.000230959
26 *2745:A2 *2745:A3 6.19799e-05
27 *2745:A2 *2748:B1 1.38323e-05
28 *2745:A2 *231:44 0.000240009
29 *2775:A2 *2775:A1 4.93029e-05
30 *2775:A2 *2775:B1 2.69767e-07
31 *2775:A2 *3176:CLK 5.56093e-05
32 *2793:A2 *2742:A1 3.50685e-05
33 *2793:A2 *2742:B2 0.000227539
34 *2793:A2 *2793:A1 9.25014e-06
35 *2793:A2 *2793:B1 1.82549e-05
36 *2793:A2 *2793:B2 2.78444e-05
37 *2793:A2 *2794:C1 9.25014e-06
38 *2793:A2 *3081:A0 4.89167e-05
39 *2793:A2 *486:10 2.74584e-05
40 *2796:A2 *2587:A 7.6644e-05
41 *2796:A2 *2795:A 0.00030693
42 *2796:A2 *2799:C1 7.73758e-05
43 *2796:A2 *3006:A 8.08022e-05
44 *2796:A2 *212:91 6.27197e-05
45 *2796:A2 *231:26 2.70794e-05
46 *2796:A2 *231:38 9.87672e-05
47 *2796:A2 *285:22 0
48 *2805:A2 *2802:A2 0
49 *2805:A2 *2805:A1 1.58163e-05
50 *2805:A2 *399:73 0.000168878
51 *207:12 *2775:A1 0.000139907
52 *207:12 *3003:S 0.000512706
53 *207:12 *3027:A 0
54 *207:12 *3176:CLK 0.000128496
55 *207:12 *3359:A 0.000390584
56 *207:12 *215:20 4.89831e-05
57 *207:12 *365:64 0.000732908
58 *207:12 *391:37 0.000154475
59 *207:12 *403:28 0.000125731
60 *207:12 *439:10 0.00018703
61 *207:39 *2717:A1 0.000219268
62 *207:39 *2775:A1 4.44237e-05
63 *207:39 *3186:CLK 9.00415e-05
64 *207:39 *209:18 2.95726e-05
65 *207:39 *424:22 0.000163503
66 *207:39 *603:8 4.58194e-05
67 *207:47 *2717:A1 2.36784e-05
68 *207:47 *3186:CLK 1.3701e-05
69 *207:47 *208:139 7.32173e-05
70 *207:47 *209:18 0.00018077
71 *207:86 *2707:A1 1.85992e-05
72 *207:86 *2730:D1 0
73 *207:86 *2770:B1 0.000830745
74 *207:86 *2770:C1 4.40513e-06
75 *207:86 *2777:A2 0.000482239
76 *207:86 *3007:A1 4.89831e-05
77 *207:86 *3091:A1 4.71964e-05
78 *207:86 *395:26 0.0004118
79 *207:86 *395:53 0
80 *207:86 *424:22 2.52671e-05
81 *207:90 *2587:A 0.000335215
82 *207:90 *2745:B1 7.28309e-05
83 *207:90 *2748:C1 4.15618e-05
84 *207:90 *2799:C1 0
85 *207:90 *3006:A 7.22594e-05
86 *207:90 *3007:A1 2.46999e-05
87 *207:90 *3007:S 0.000127439
88 *207:90 *3371:A 3.67548e-05
89 *207:90 *231:44 3.14003e-05
90 *207:90 *600:81 0.000169191
91 *207:90 *600:94 0.000223592
92 *207:98 *2582:A 0.000398053
93 *207:98 *2748:B1 0.000182799
94 *207:98 *399:73 7.80059e-05
95 *2713:D *207:86 0.00034553
96 *2748:A1 *207:90 0
97 *2768:C *207:86 0
98 *2805:B1 *2805:A2 2.59355e-05
99 *3176:D *207:12 0.000112959
100 *3176:D *207:86 0
101 *3186:D *207:39 0.000101117
102 *177:106 *207:86 6.11331e-05
103 *177:112 *207:86 3.37586e-05
104 *179:41 *207:12 5.64115e-05
105 *180:63 *207:12 9.11365e-06
106 *190:18 *207:86 0
107 *192:57 *207:86 0
*RES
1 *2715:X *207:12 38.6393 
2 *207:12 *2775:A2 10.2286 
3 *207:12 *207:27 4.5 
4 *207:27 *207:39 12.375 
5 *207:39 *207:47 10.9643 
6 *207:47 *2742:A2 9.3 
7 *207:47 *2793:A2 25.3804 
8 *207:39 *2717:A2 9.3 
9 *207:27 *207:86 30.2679 
10 *207:86 *207:90 14.9464 
11 *207:90 *207:98 15.5357 
12 *207:98 *2805:A2 16.5857 
13 *207:98 *2722:A2 37.2911 
14 *207:90 *2745:A2 13.2643 
15 *207:86 *2796:A2 23.0679 
*END

*D_NET *208 0.0327002
*CONN
*I *2775:B1 I *D sky130_fd_sc_hd__a22o_1
*I *2792:A2 I *D sky130_fd_sc_hd__a22o_1
*I *2743:A2 I *D sky130_fd_sc_hd__a211o_1
*I *2717:B1 I *D sky130_fd_sc_hd__a22o_1
*I *2736:B1 I *D sky130_fd_sc_hd__a22o_1
*I *2814:A2 I *D sky130_fd_sc_hd__a221o_1
*I *2725:A2 I *D sky130_fd_sc_hd__a22o_1
*I *2803:A2 I *D sky130_fd_sc_hd__a22o_1
*I *2716:X O *D sky130_fd_sc_hd__and4bb_4
*CAP
1 *2775:B1 2.76963e-05
2 *2792:A2 0.00040144
3 *2743:A2 0
4 *2717:B1 0
5 *2736:B1 0.000351708
6 *2814:A2 0
7 *2725:A2 0
8 *2803:A2 0.000224697
9 *2716:X 0.000445399
10 *208:139 0.000840509
11 *208:118 0.000721548
12 *208:106 0.00111887
13 *208:58 0.00219167
14 *208:26 0.00215744
15 *208:20 0.00110519
16 *208:18 0.00245239
17 *208:10 0.00314347
18 *2736:B1 *2736:B2 5.49489e-05
19 *2736:B1 *2738:A 0.0010375
20 *2736:B1 *2893:A 0.0001399
21 *2736:B1 *351:114 0.000195184
22 *2775:B1 *2990:B 1.24368e-05
23 *2775:B1 *365:64 2.44318e-05
24 *2775:B1 *424:22 1.56e-05
25 *2792:A2 *2743:A1 0.000197984
26 *2792:A2 *2792:B1 7.59135e-05
27 *2792:A2 *3438:A 0.000114759
28 *2792:A2 *215:38 0.000667249
29 *2792:A2 *285:12 0.000115474
30 *2792:A2 *430:64 0
31 *2792:A2 *430:74 0.000123673
32 *2803:A2 *2727:B1 9.99989e-05
33 *2803:A2 *2728:A 0.000227532
34 *2803:A2 *2728:B 7.83659e-05
35 *2803:A2 *2728:C 5.52238e-05
36 *2803:A2 *2804:B1 0.000309266
37 *208:10 *3003:S 0
38 *208:10 *3191:CLK 4.22135e-06
39 *208:10 *365:64 0
40 *208:10 *403:28 9.3111e-05
41 *208:10 *439:10 0
42 *208:18 *2703:A 0.000106403
43 *208:18 *2757:A1 0.000114053
44 *208:18 *3006:B 5.97931e-05
45 *208:18 *3091:A0 4.15914e-05
46 *208:18 *3097:A 6.06915e-05
47 *208:18 *3191:CLK 0.000224191
48 *208:18 *3255:CLK 6.97076e-05
49 *208:18 *291:28 0.000120043
50 *208:18 *322:42 3.76969e-05
51 *208:18 *322:61 7.03633e-05
52 *208:18 *365:22 0.000139692
53 *208:18 *371:57 0.000284246
54 *208:18 *371:61 8.98142e-05
55 *208:18 *374:90 0.000329401
56 *208:18 *380:22 0.000600739
57 *208:18 *384:43 0
58 *208:18 *419:61 1.69115e-05
59 *208:18 *603:91 0.000183894
60 *208:20 *3392:A 0.000128154
61 *208:20 *322:31 6.11983e-05
62 *208:20 *322:42 4.39569e-05
63 *208:20 *366:10 0.00126558
64 *208:20 *374:90 5.04467e-05
65 *208:20 *385:10 0.000357432
66 *208:26 *2892:S 0.000193675
67 *208:26 *3328:A 0.000153047
68 *208:26 *366:10 0.000173097
69 *208:26 *385:10 2.90547e-05
70 *208:58 *2597:B 5.52238e-05
71 *208:58 *2605:A1 4.62969e-05
72 *208:58 *2725:A1 1.04232e-05
73 *208:58 *2725:B2 5.52238e-05
74 *208:58 *2814:B2 1.28809e-05
75 *208:58 *2839:A0 5.47223e-05
76 *208:58 *2839:A1 0.000753598
77 *208:58 *2839:S 0.000181978
78 *208:58 *2840:A 0.000266851
79 *208:58 *2842:S 7.83587e-05
80 *208:58 *2892:S 0.000101424
81 *208:58 *2921:A0 4.19624e-06
82 *208:58 *3151:CLK 1.76352e-05
83 *208:58 *3328:A 2.28598e-05
84 *208:58 *326:6 4.08637e-05
85 *208:58 *358:22 2.64262e-06
86 *208:58 *553:10 4.70078e-05
87 *208:58 *916:6 1.98839e-05
88 *208:106 *2775:B2 2.09826e-05
89 *208:106 *218:24 0.0016586
90 *208:106 *399:16 0.000407376
91 *208:106 *603:21 7.69776e-06
92 *208:118 *2990:B 0.000127714
93 *208:118 *3032:A 5.01876e-06
94 *208:118 *3075:A 3.97677e-05
95 *208:118 *209:18 1.41029e-05
96 *208:118 *235:20 7.6644e-05
97 *208:118 *365:64 0.000238836
98 *208:118 *399:34 3.15533e-05
99 *208:118 *433:10 0.000221525
100 *208:139 *2717:A1 3.57366e-05
101 *208:139 *2717:B2 0.000128161
102 *208:139 *2991:A1 6.05161e-06
103 *208:139 *3076:A0 0.000518946
104 *208:139 *285:12 5.7616e-05
105 *208:139 *433:10 1.17968e-05
106 *208:139 *445:89 0.000153047
107 *2689:A_N *208:10 0
108 *2689:D *208:10 0
109 *2725:B1 *2803:A2 7.8301e-05
110 *2775:A2 *2775:B1 2.69767e-07
111 *2803:B1 *2803:A2 2.44318e-05
112 *2814:B1 *208:58 0.000129534
113 *3150:D *208:26 6.07232e-05
114 *3151:D *208:58 0.00030926
115 *3254:D *208:18 0.000144515
116 *3259:D *208:58 1.76204e-05
117 *171:41 *208:10 0.000122939
118 *171:60 *208:10 4.49293e-05
119 *174:83 *208:18 7.74644e-05
120 *177:100 *208:18 0.000297505
121 *178:41 *208:10 5.71472e-05
122 *178:43 *208:10 0.000136958
123 *180:63 *208:10 0
124 *181:32 *208:118 1.29339e-05
125 *183:56 *208:10 0.000193172
126 *183:56 *208:18 0.00114703
127 *187:112 *208:58 0.000139334
128 *197:18 *208:106 0.000269965
129 *207:47 *208:139 7.32173e-05
*RES
1 *2716:X *208:10 22.8268 
2 *208:10 *208:18 47.375 
3 *208:18 *208:20 18.0804 
4 *208:20 *208:26 9.71429 
5 *208:26 *208:58 44.7723 
6 *208:58 *2803:A2 25.1036 
7 *208:58 *2725:A2 9.3 
8 *208:26 *2814:A2 9.3 
9 *208:20 *2736:B1 24.7464 
10 *208:10 *208:106 14.3103 
11 *208:106 *208:118 16.2321 
12 *208:118 *2717:B1 9.3 
13 *208:118 *208:139 23.4286 
14 *208:139 *2743:A2 13.8 
15 *208:139 *2792:A2 25.1929 
16 *208:106 *2775:B1 10.2643 
*END

*D_NET *209 0.00421834
*CONN
*I *2718:B1 I *D sky130_fd_sc_hd__a22o_1
*I *2717:X O *D sky130_fd_sc_hd__a22o_1
*CAP
1 *2718:B1 0
2 *2717:X 0.000979221
3 *209:18 0.000979221
4 *209:18 *2707:A1 0.000219733
5 *209:18 *2774:A1 0.000176204
6 *209:18 *3020:S 4.90765e-05
7 *209:18 *3080:A 4.48011e-05
8 *209:18 *235:20 9.55447e-05
9 *209:18 *345:30 0.000404397
10 *209:18 *395:26 0.000142045
11 *209:18 *433:10 0.000123288
12 *209:18 *445:70 7.47472e-05
13 *209:18 *445:89 0.000193305
14 *209:18 *726:26 0.000472375
15 *2707:B1 *209:18 3.22345e-05
16 *181:32 *209:18 0
17 *202:52 *209:18 7.69776e-06
18 *207:39 *209:18 2.95726e-05
19 *207:47 *209:18 0.00018077
20 *208:118 *209:18 1.41029e-05
*RES
1 *2717:X *209:18 46.0679 
2 *209:18 *2718:B1 13.8 
*END

*D_NET *210 0.000527853
*CONN
*I *2730:C1 I *D sky130_fd_sc_hd__a2111o_1
*I *2718:X O *D sky130_fd_sc_hd__a22o_1
*CAP
1 *2730:C1 0.000196917
2 *2718:X 0.000196917
3 *2730:C1 *2730:D1 5.49489e-05
4 *2718:A1 *2730:C1 4.27381e-05
5 *2730:A1 *2730:C1 6.8445e-06
6 *193:76 *2730:C1 2.94871e-05
*RES
1 *2718:X *2730:C1 21.6 
*END

*D_NET *211 0.0363787
*CONN
*I *2781:B I *D sky130_fd_sc_hd__and3_1
*I *2755:A3 I *D sky130_fd_sc_hd__a31o_1
*I *2790:A3 I *D sky130_fd_sc_hd__a31o_1
*I *2722:B1 I *D sky130_fd_sc_hd__a221o_1
*I *2807:A2 I *D sky130_fd_sc_hd__a211o_1
*I *2731:B1 I *D sky130_fd_sc_hd__a22o_1
*I *2809:B1 I *D sky130_fd_sc_hd__a22o_1
*I *2753:B I *D sky130_fd_sc_hd__and3_1
*I *2719:X O *D sky130_fd_sc_hd__and4b_4
*CAP
1 *2781:B 0.000133527
2 *2755:A3 0
3 *2790:A3 1.10296e-05
4 *2722:B1 0.000680187
5 *2807:A2 0.000111601
6 *2731:B1 0
7 *2809:B1 0.000384584
8 *2753:B 0.000693908
9 *2719:X 0.00134874
10 *211:85 0.00455299
11 *211:71 0.00498236
12 *211:47 0.00124718
13 *211:43 0.00217577
14 *211:41 0.000601447
15 *211:37 0.000905535
16 *211:14 0.00121334
17 *211:10 0.00159457
18 *2722:B1 *2591:A 8.73065e-06
19 *2722:B1 *2622:B 0.000346268
20 *2722:B1 *2722:A1 2.30808e-05
21 *2722:B1 *2722:C1 0.000262841
22 *2722:B1 *2729:A1 1.21258e-05
23 *2722:B1 *2801:A1 0.000118117
24 *2722:B1 *2801:A2 0.00035357
25 *2722:B1 *2801:B1 3.79336e-05
26 *2722:B1 *220:18 0.000172029
27 *2753:B *2553:A0 0.000158112
28 *2753:B *2553:S 0.000314493
29 *2753:B *2554:A 0.000192676
30 *2781:B *2780:A 7.17235e-05
31 *2790:A3 *232:14 8.23597e-06
32 *2790:A3 *411:14 2.11419e-05
33 *2807:A2 *2625:A1 5.2732e-05
34 *2807:A2 *2727:B1 0.000102177
35 *2807:A2 *2807:B1 5.33005e-05
36 *2807:A2 *2808:A3 5.52302e-05
37 *2807:A2 *328:71 0.000121416
38 *2809:B1 *2731:A1 3.11088e-05
39 *2809:B1 *2731:A2 2.16663e-05
40 *2809:B1 *2731:B2 1.87331e-05
41 *2809:B1 *2965:A 0.00021042
42 *2809:B1 *2965:B 2.24804e-05
43 *2809:B1 *325:118 0.000185124
44 *2809:B1 *693:24 0.000780661
45 *211:10 *2719:A_N 2.89016e-05
46 *211:10 *2753:A 0
47 *211:10 *2831:A 0.000102545
48 *211:10 *2851:A 7.25296e-05
49 *211:10 *2851:B_N 0
50 *211:10 *2854:A1_N 0
51 *211:10 *2856:A 0.000402609
52 *211:10 *2857:B1 0.000116481
53 *211:10 *3068:A0 0.000198698
54 *211:10 *3275:D 0
55 *211:10 *3300:A 0
56 *211:10 *215:68 0
57 *211:10 *319:10 0.00012798
58 *211:10 *340:10 0.000313458
59 *211:10 *419:14 0.000124501
60 *211:10 *419:136 6.80367e-05
61 *211:10 *595:10 7.45011e-05
62 *211:10 *595:23 6.76272e-05
63 *211:10 *595:36 4.38148e-05
64 *211:10 *595:55 6.26559e-05
65 *211:10 *663:40 0
66 *211:10 *663:92 0
67 *211:10 *772:18 0.000125724
68 *211:10 *772:20 0.000172375
69 *211:10 *774:124 2.71964e-05
70 *211:10 *799:12 0
71 *211:14 *2554:A 0.000148708
72 *211:14 *3239:CLK 9.99644e-06
73 *211:37 *2780:A 0.000180777
74 *211:37 *2783:B 5.52238e-05
75 *211:37 *2783:C 0.00010326
76 *211:37 *215:68 0.000355965
77 *211:37 *361:30 4.71964e-05
78 *211:37 *415:50 0
79 *211:41 *2779:A 4.8936e-05
80 *211:41 *419:14 0
81 *211:41 *608:10 1.02504e-05
82 *211:41 *608:16 0.00107979
83 *211:41 *619:62 0.000332796
84 *211:43 *608:16 0.000338693
85 *211:43 *619:62 0.00034771
86 *211:47 *2634:A 0.000503629
87 *211:47 *2731:A2 0.000146611
88 *211:47 *2737:A2 8.14438e-05
89 *211:47 *2763:A1 0.000128154
90 *211:47 *2817:A1 0.000125724
91 *211:47 *2963:A 0.000312736
92 *211:47 *3351:A 2.16719e-05
93 *211:47 *222:26 0
94 *211:47 *254:28 1.37292e-05
95 *211:47 *300:20 6.33089e-05
96 *211:47 *316:22 0
97 *211:47 *351:16 5.74562e-05
98 *211:47 *356:14 0
99 *211:47 *359:111 1.27784e-05
100 *211:47 *359:119 1.42249e-05
101 *211:47 *608:16 0.000538082
102 *211:47 *619:62 0.00156618
103 *211:71 *222:26 0
104 *211:71 *254:28 0.000146544
105 *211:71 *316:36 9.55263e-05
106 *211:71 *323:26 5.55191e-05
107 *211:71 *527:118 8.00837e-05
108 *211:85 *2567:A 0
109 *211:85 *2625:A1 1.90936e-05
110 *211:85 *2727:B1 1.11209e-05
111 *211:85 *215:108 0.000436592
112 *211:85 *222:26 0
113 *211:85 *316:60 4.14351e-05
114 *211:85 *527:14 0.000146168
115 *211:85 *527:26 0.000627612
116 *211:85 *527:118 8.39559e-05
117 *211:85 *532:18 5.97716e-05
118 *211:85 *590:52 0.000155231
119 *2682:A *211:41 0
120 *2722:A2 *2722:B1 0.000240206
121 *2781:C *2781:B 3.94968e-06
122 *2808:B1 *2807:A2 0.000171649
123 *3173:D *211:47 0.000150618
124 *174:104 *211:85 0.000595671
125 *191:10 *211:41 0
126 *202:107 *2722:B1 8.84517e-05
127 *202:115 *2722:B1 1.98149e-06
*RES
1 *2719:X *211:10 46.05 
2 *211:10 *211:14 7.91071 
3 *211:14 *2753:B 20.675 
4 *211:14 *211:37 15.875 
5 *211:37 *211:41 18.5893 
6 *211:41 *211:43 4.52679 
7 *211:43 *211:47 33.9196 
8 *211:47 *2809:B1 28.8 
9 *211:47 *2731:B1 9.3 
10 *211:43 *211:71 5.69107 
11 *211:71 *211:85 12.3849 
12 *211:85 *2807:A2 17.4964 
13 *211:85 *2722:B1 38.4964 
14 *211:71 *2790:A3 17.4868 
15 *211:41 *2755:A3 13.8 
16 *211:37 *2781:B 11.0679 
*END

*D_NET *212 0.0265788
*CONN
*I *2786:B I *D sky130_fd_sc_hd__and3_1
*I *2795:C I *D sky130_fd_sc_hd__and3_1
*I *2747:A2 I *D sky130_fd_sc_hd__a32o_1
*I *2798:A2 I *D sky130_fd_sc_hd__a32o_1
*I *2744:C I *D sky130_fd_sc_hd__and3_1
*I *2721:B1 I *D sky130_fd_sc_hd__a22o_1
*I *2801:A2 I *D sky130_fd_sc_hd__a22o_1
*I *2757:A2 I *D sky130_fd_sc_hd__a31o_1
*I *2720:X O *D sky130_fd_sc_hd__and4bb_4
*CAP
1 *2786:B 0.000201575
2 *2795:C 0
3 *2747:A2 0
4 *2798:A2 0.000183359
5 *2744:C 7.41091e-05
6 *2721:B1 0
7 *2801:A2 0.000696662
8 *2757:A2 6.61123e-05
9 *2720:X 0.00139106
10 *212:142 0.00081343
11 *212:91 0.00201396
12 *212:71 0.00164412
13 *212:67 0.00109999
14 *212:65 0.00122741
15 *212:42 0.00186317
16 *212:20 0.00150581
17 *212:14 0.00190843
18 *2744:C *2587:A 4.43142e-05
19 *2744:C *2799:C1 9.91086e-05
20 *2744:C *3375:A 0.00012377
21 *2744:C *600:109 0.000125693
22 *2757:A2 *2998:A1 4.59075e-05
23 *2786:B *2786:A 7.99111e-05
24 *2786:B *2788:C 9.71197e-05
25 *2786:B *3414:A 5.52302e-05
26 *2798:A2 *2747:A1 1.00733e-05
27 *2798:A2 *2747:A3 6.54709e-05
28 *2798:A2 *2748:C1 9.45048e-06
29 *2798:A2 *2798:A3 9.21418e-06
30 *2798:A2 *2798:B1 3.91223e-05
31 *2798:A2 *2916:A 0.000211135
32 *2798:A2 *395:53 0
33 *2798:A2 *600:81 9.76767e-05
34 *2801:A2 *2588:A1 1.24368e-05
35 *2801:A2 *2588:S 0.000119125
36 *2801:A2 *2624:A 5.10039e-05
37 *2801:A2 *2721:B2 4.43256e-05
38 *2801:A2 *2722:C1 0.000437988
39 *2801:A2 *2801:A1 2.09495e-05
40 *2801:A2 *2802:A2 5.39829e-05
41 *2801:A2 *220:18 0.000225096
42 *2801:A2 *358:57 0
43 *2801:A2 *544:22 0.000113277
44 *2801:A2 *568:6 9.58632e-05
45 *2801:A2 *726:38 0.000100684
46 *2801:A2 *931:8 1.02936e-05
47 *212:14 *2547:A 0
48 *212:14 *2680:B 0
49 *212:14 *2687:A 0.000176328
50 *212:14 *2946:C 0
51 *212:14 *2972:A 1.25579e-05
52 *212:14 *3047:A 0
53 *212:14 *218:12 4.16132e-05
54 *212:14 *218:108 0.000265212
55 *212:14 *340:53 0.000238846
56 *212:14 *343:10 0
57 *212:14 *370:64 0
58 *212:14 *421:12 0.000831015
59 *212:14 *798:21 0.000121573
60 *212:14 *798:27 0.000360816
61 *212:14 *801:14 0.000210223
62 *212:20 *2547:A 0.000414194
63 *212:20 *2548:S 0.000140744
64 *212:20 *2787:A 0.00018834
65 *212:20 *2788:D 0.000103041
66 *212:20 *3133:A1 4.15618e-05
67 *212:20 *218:108 4.97121e-06
68 *212:20 *411:14 0
69 *212:20 *476:12 1.2294e-05
70 *212:20 *476:14 6.93626e-06
71 *212:20 *521:10 2.50593e-05
72 *212:20 *619:39 0.000292708
73 *212:42 *2751:A 0.000150452
74 *212:42 *2761:C 0.000289619
75 *212:42 *2788:D 0.000141859
76 *212:42 *2998:A1 0.000473829
77 *212:42 *2999:A 0.000130054
78 *212:42 *3379:A 0.00018077
79 *212:42 *218:108 7.70302e-05
80 *212:42 *231:14 0.000139907
81 *212:42 *370:54 6.53874e-05
82 *212:42 *619:39 0.000449369
83 *212:42 *759:22 0
84 *212:42 *824:10 5.20075e-05
85 *212:65 *2795:A 0.000101271
86 *212:65 *3397:A 3.97677e-05
87 *212:65 *231:98 6.09572e-05
88 *212:65 *380:22 0.000102812
89 *212:65 *380:38 0.000106046
90 *212:67 *2795:A 0.000299993
91 *212:71 *2795:A 0.000349895
92 *212:91 *2587:A 7.83587e-05
93 *212:91 *2721:A1 1.02504e-05
94 *212:91 *2721:B2 5.25774e-05
95 *212:91 *2795:A 9.49989e-05
96 *212:91 *2799:C1 3.34687e-05
97 *212:91 *2802:A2 7.48301e-06
98 *212:91 *3008:A 0.000174505
99 *212:91 *3189:CLK 0.000169866
100 *212:91 *350:118 0
101 *212:91 *726:38 0
102 *212:91 *874:8 0.000102676
103 *212:91 *931:8 0
104 *212:142 *2745:A1 0.00024468
105 *212:142 *2747:A1 0.000321243
106 *212:142 *2747:A3 1.25879e-05
107 *212:142 *2799:C1 0
108 *212:142 *2915:A1 5.04841e-06
109 *212:142 *2916:A 6.93704e-06
110 *212:142 *231:38 0.000144079
111 *2709:B1 *212:14 0.000154973
112 *2722:A2 *2801:A2 1.08359e-05
113 *2722:B1 *2801:A2 0.00035357
114 *2751:B *212:42 7.83207e-05
115 *2751:C *212:42 0.000118864
116 *2753:C *212:20 0.00024908
117 *2757:A3 *212:65 0.00012501
118 *2796:A2 *212:91 6.27197e-05
119 *3189:D *212:91 4.87669e-06
120 *3236:D *212:20 0.000175281
121 *3468:A *212:14 0
122 *176:44 *212:20 0
123 *183:75 *212:142 0
124 *194:8 *212:14 0
125 *202:107 *2801:A2 0
*RES
1 *2720:X *212:14 41.7554 
2 *212:14 *212:20 15.8125 
3 *212:20 *212:42 33.7679 
4 *212:42 *2757:A2 10.675 
5 *212:42 *212:65 24.1429 
6 *212:65 *212:67 2.92857 
7 *212:67 *212:71 7.91071 
8 *212:71 *212:91 31.8929 
9 *212:91 *2801:A2 35.55 
10 *212:91 *2721:B1 9.3 
11 *212:71 *2744:C 16.3536 
12 *212:67 *212:142 21.8929 
13 *212:142 *2798:A2 22.5679 
14 *212:142 *2747:A2 9.3 
15 *212:65 *2795:C 9.3 
16 *212:20 *2786:B 17.6571 
*END

*D_NET *213 0.00269785
*CONN
*I *2722:C1 I *D sky130_fd_sc_hd__a221o_1
*I *2721:X O *D sky130_fd_sc_hd__a22o_1
*CAP
1 *2722:C1 0.000752882
2 *2721:X 0.000752882
3 *2722:C1 *2590:A1 0
4 *2722:C1 *2722:A1 0.000122975
5 *2722:C1 *2722:B2 8.44022e-05
6 *2722:C1 *2729:A1 5.61222e-05
7 *2722:C1 *220:18 5.52302e-05
8 *2722:B1 *2722:C1 0.000262841
9 *2801:A2 *2722:C1 0.000437988
10 *202:107 *2722:C1 0.000172528
*RES
1 *2721:X *2722:C1 42.0643 
*END

*D_NET *214 0.000925647
*CONN
*I *2729:A1 I *D sky130_fd_sc_hd__o21a_1
*I *2722:X O *D sky130_fd_sc_hd__a221o_1
*CAP
1 *2729:A1 0.000160441
2 *2722:X 0.000160441
3 *2729:A1 *2590:A1 8.20684e-05
4 *2729:A1 *2591:A 5.52302e-05
5 *2729:A1 *220:18 2.61014e-05
6 *2729:A1 *544:22 0.000347181
7 *2722:A2 *2729:A1 2.59355e-05
8 *2722:B1 *2729:A1 1.21258e-05
9 *2722:C1 *2729:A1 5.61222e-05
*RES
1 *2722:X *2729:A1 23.2607 
*END

*D_NET *215 0.0400809
*CONN
*I *2785:C I *D sky130_fd_sc_hd__and3_1
*I *2754:C I *D sky130_fd_sc_hd__and3_1
*I *2759:B I *D sky130_fd_sc_hd__and3_1
*I *2811:B1 I *D sky130_fd_sc_hd__a22o_1
*I *2806:A2 I *D sky130_fd_sc_hd__a22o_1
*I *2724:A2 I *D sky130_fd_sc_hd__a22o_1
*I *2792:B1 I *D sky130_fd_sc_hd__a22o_1
*I *2741:A2 I *D sky130_fd_sc_hd__a22o_1
*I *2723:X O *D sky130_fd_sc_hd__and4b_4
*CAP
1 *2785:C 1.72674e-05
2 *2754:C 1.59879e-05
3 *2759:B 0
4 *2811:B1 0.000285954
5 *2806:A2 0.000230402
6 *2724:A2 0.000128948
7 *2792:B1 0.000132494
8 *2741:A2 0.000103071
9 *2723:X 5.16976e-05
10 *215:130 0.000396475
11 *215:108 0.00300505
12 *215:86 0.00466836
13 *215:72 0.00231142
14 *215:68 0.00176007
15 *215:38 0.00150992
16 *215:20 0.00396012
17 *215:8 0.00409698
18 *2724:A2 *2614:A 5.71472e-05
19 *2724:A2 *591:10 0
20 *2741:A2 *2743:B1 1.69961e-05
21 *2741:A2 *2794:B1 9.60939e-05
22 *2741:A2 *853:10 0
23 *2754:C *2754:A 1.95435e-05
24 *2785:C *430:30 9.50968e-06
25 *2806:A2 *535:14 0.000285619
26 *2811:B1 *3381:A 9.25014e-06
27 *2811:B1 *231:98 2.14378e-05
28 *2811:B1 *231:116 0.000192269
29 *2811:B1 *715:58 0.000215562
30 *2811:B1 *737:34 0.000281622
31 *215:8 *607:22 5.33005e-05
32 *215:8 *801:93 1.04232e-05
33 *215:20 *2680:C 0.000651729
34 *215:20 *2688:A 8.10658e-05
35 *215:20 *3015:A0 0.00018372
36 *215:20 *3022:A 5.33005e-05
37 *215:20 *3027:A 0.000192262
38 *215:20 *3187:CLK 3.4968e-05
39 *215:20 *391:16 0.000901346
40 *215:20 *391:37 3.17148e-05
41 *215:20 *801:93 9.51594e-05
42 *215:38 *2743:A1 0
43 *215:38 *2743:B1 0.000227526
44 *215:38 *2992:A 0
45 *215:38 *2993:A0 9.71197e-05
46 *215:38 *3076:A1 0.000178847
47 *215:38 *3182:CLK 9.90431e-05
48 *215:38 *3183:CLK 0.000110754
49 *215:38 *3187:CLK 0.000319507
50 *215:38 *3438:A 0
51 *215:38 *430:74 0.000114902
52 *215:38 *604:12 8.52803e-05
53 *215:38 *604:14 0.000928538
54 *215:68 *2753:A 0.000390154
55 *215:68 *2783:C 4.08132e-05
56 *215:68 *2829:A 0.000193675
57 *215:68 *2833:A 4.18238e-05
58 *215:68 *2851:B_N 0
59 *215:68 *2863:B2 0.00017309
60 *215:68 *3066:A0 0.00116775
61 *215:68 *3276:CLK 0.000128066
62 *215:68 *3276:D 1.34703e-05
63 *215:68 *3300:A 0.00011578
64 *215:68 *3315:A 1.21258e-05
65 *215:68 *317:25 0.000159689
66 *215:68 *361:30 0.000106826
67 *215:68 *419:136 0.000124174
68 *215:68 *607:22 2.95726e-05
69 *215:68 *608:10 9.22797e-05
70 *215:68 *608:16 0.000100969
71 *215:68 *773:24 0.000114759
72 *215:72 *2783:B 9.10431e-06
73 *215:72 *415:50 0
74 *215:72 *608:16 0.000143672
75 *215:72 *652:23 0.000148911
76 *215:86 *2556:B 5.15762e-05
77 *215:86 *2595:A0 2.76247e-05
78 *215:86 *2629:A 7.12762e-05
79 *215:86 *2632:B 9.76435e-06
80 *215:86 *2790:A1 9.58689e-05
81 *215:86 *2897:A 2.55806e-05
82 *215:86 *231:98 3.91463e-05
83 *215:86 *254:28 0.000314494
84 *215:86 *291:28 0.000344491
85 *215:86 *323:26 0.00021037
86 *215:86 *370:8 0.000182598
87 *215:86 *370:16 0.000285995
88 *215:86 *608:16 0.00065809
89 *215:86 *737:34 9.02029e-05
90 *215:108 *2567:A 0.000499565
91 *215:108 *2572:A 0.000262733
92 *215:108 *2590:A0 7.32173e-05
93 *215:108 *2622:B 0.000538142
94 *215:108 *2625:A1 0.000175892
95 *215:108 *2798:B1 1.80622e-05
96 *215:108 *2807:C1 7.2754e-05
97 *215:108 *3296:A 9.90431e-05
98 *215:108 *316:70 0
99 *215:108 *328:71 2.59355e-05
100 *215:108 *358:57 2.19778e-05
101 *215:108 *527:40 0.000223102
102 *215:108 *590:52 8.65399e-05
103 *215:108 *591:10 0
104 *215:108 *598:29 0
105 *215:108 *600:26 0.000107672
106 *215:130 *3381:A 0.000113685
107 *215:130 *231:98 8.83339e-05
108 *215:130 *737:34 0.000301147
109 *2754:B *215:72 0.00026467
110 *2785:B *215:68 0.000117903
111 *2785:B *215:72 0.000177948
112 *2792:A2 *2792:B1 7.59135e-05
113 *2792:A2 *215:38 0.000667249
114 *2806:B1 *2806:A2 1.24368e-05
115 *2811:A2 *2811:B1 4.02462e-05
116 *3187:D *215:20 0.000212112
117 *3268:D *215:86 9.58181e-05
118 *176:23 *215:72 0.000212627
119 *180:10 *215:20 3.06878e-06
120 *180:138 *215:20 4.46231e-06
121 *191:35 *215:68 4.16207e-05
122 *202:115 *2724:A2 0.000176234
123 *202:115 *215:108 0.000385724
124 *207:12 *215:20 4.89831e-05
125 *211:10 *215:68 0
126 *211:37 *215:68 0.000355965
127 *211:85 *215:108 0.000436592
*RES
1 *2723:X *215:8 10.5679 
2 *215:8 *215:20 46.1161 
3 *215:20 *215:38 36.2232 
4 *215:38 *2741:A2 11.4964 
5 *215:38 *2792:B1 12.1214 
6 *215:8 *215:68 40.2679 
7 *215:68 *215:72 10.375 
8 *215:72 *215:86 41.2589 
9 *215:86 *215:108 45.0175 
10 *215:108 *2724:A2 16.5857 
11 *215:108 *2806:A2 18.8536 
12 *215:86 *215:130 3.91964 
13 *215:130 *2811:B1 21.0679 
14 *215:130 *2759:B 13.8 
15 *215:72 *2754:C 13.9964 
16 *215:68 *2785:C 13.9964 
*END

*D_NET *216 0.00200118
*CONN
*I *2728:A I *D sky130_fd_sc_hd__or3_1
*I *2724:X O *D sky130_fd_sc_hd__a22o_1
*CAP
1 *2728:A 0.000355376
2 *2724:X 0.000355376
3 *2728:A *2578:S 1.08359e-05
4 *2728:A *2803:A1 5.80706e-06
5 *2728:A *3334:A 0
6 *2728:A *321:75 0
7 *2728:A *817:10 7.54343e-05
8 *2725:B1 *2728:A 0.000170385
9 *2803:A2 *2728:A 0.000227532
10 *2803:B1 *2728:A 5.52302e-05
11 *3262:D *2728:A 7.6021e-05
12 *202:115 *2728:A 0.000669182
*RES
1 *2724:X *2728:A 38.7071 
*END

*D_NET *217 0.000554186
*CONN
*I *2728:B I *D sky130_fd_sc_hd__or3_1
*I *2725:X O *D sky130_fd_sc_hd__a22o_1
*CAP
1 *2728:B 0.000127916
2 *2725:X 0.000127916
3 *2728:B *553:10 0.000139907
4 *2725:B1 *2728:B 8.00806e-05
5 *2803:A2 *2728:B 7.83659e-05
*RES
1 *2725:X *2728:B 29.9929 
*END

*D_NET *218 0.0441505
*CONN
*I *2782:C I *D sky130_fd_sc_hd__and3_1
*I *2752:A3 I *D sky130_fd_sc_hd__a311o_1
*I *2815:B1 I *D sky130_fd_sc_hd__a22o_1
*I *2732:B1 I *D sky130_fd_sc_hd__a221o_1
*I *2742:B1 I *D sky130_fd_sc_hd__a22o_1
*I *2793:B1 I *D sky130_fd_sc_hd__a22o_1
*I *2801:B1 I *D sky130_fd_sc_hd__a22o_1
*I *2727:B1 I *D sky130_fd_sc_hd__a22o_1
*I *2726:X O *D sky130_fd_sc_hd__and4b_4
*CAP
1 *2782:C 4.75134e-05
2 *2752:A3 6.51386e-05
3 *2815:B1 0.000273216
4 *2732:B1 0.00030049
5 *2742:B1 0
6 *2793:B1 6.27078e-05
7 *2801:B1 0.000300339
8 *2727:B1 0.000900412
9 *2726:X 0.00037865
10 *218:126 0.000953368
11 *218:124 0.00150114
12 *218:112 0.00123657
13 *218:108 0.00167506
14 *218:80 0.000171934
15 *218:42 0.0043119
16 *218:24 0.00565092
17 *218:12 0.00438678
18 *2727:B1 *2557:B 0.00034854
19 *2727:B1 *2577:A 0.000150618
20 *2727:B1 *2623:A0 0.000106427
21 *2727:B1 *2625:A1 2.25741e-05
22 *2727:B1 *2725:B2 0.000103253
23 *2727:B1 *328:71 0.00111658
24 *2727:B1 *345:79 7.80714e-06
25 *2727:B1 *350:118 0.000417417
26 *2727:B1 *350:120 0
27 *2727:B1 *358:30 4.88515e-05
28 *2727:B1 *527:50 3.34687e-05
29 *2727:B1 *528:82 0.000115957
30 *2727:B1 *538:22 0.000493287
31 *2732:B1 *2732:B2 1.00332e-05
32 *2732:B1 *896:12 0
33 *2752:A3 *2752:A1 8.58028e-05
34 *2752:A3 *2752:C1 0.000220943
35 *2752:A3 *3370:A 5.33005e-05
36 *2782:C *527:12 1.79251e-05
37 *2793:B1 *2742:A1 0.000224583
38 *2793:B1 *2742:B2 1.74352e-05
39 *2793:B1 *2793:B2 5.17614e-05
40 *2801:B1 *3404:A 5.35386e-05
41 *2801:B1 *358:57 0.000125679
42 *2801:B1 *848:8 0.000302793
43 *2815:B1 *2815:B2 9.41642e-05
44 *2815:B1 *2949:A 2.11336e-05
45 *2815:B1 *693:24 0.000651454
46 *2815:B1 *693:32 4.63219e-05
47 *218:12 *2940:A 0
48 *218:12 *3047:A 0
49 *218:12 *3066:A0 6.34676e-05
50 *218:12 *318:62 0
51 *218:12 *343:10 1.01912e-05
52 *218:12 *399:12 6.27272e-06
53 *218:12 *399:16 5.63146e-05
54 *218:12 *421:12 0.000481171
55 *218:12 *677:18 0
56 *218:24 *3066:A0 0.000375803
57 *218:24 *235:20 0.000115206
58 *218:24 *376:44 0.000543312
59 *218:24 *399:16 0.000452623
60 *218:24 *399:34 0.000113119
61 *218:24 *590:208 0.000604292
62 *218:24 *590:222 0.000219509
63 *218:42 *2623:A0 9.8126e-05
64 *218:42 *2623:A1 0.000107398
65 *218:42 *3070:A 9.23226e-05
66 *218:42 *345:61 0.00228139
67 *218:42 *350:118 0.000255722
68 *218:42 *474:69 4.15161e-05
69 *218:42 *483:18 4.51691e-05
70 *218:42 *532:18 6.55434e-05
71 *218:80 *430:64 5.44074e-05
72 *218:80 *474:69 0.000126439
73 *218:80 *483:18 0.000280021
74 *218:108 *2751:A 9.31209e-05
75 *218:108 *2752:C1 1.02504e-05
76 *218:108 *2788:D 0.000475963
77 *218:108 *2972:A 0.000111063
78 *218:108 *3122:B 0.000196276
79 *218:108 *231:14 1.90936e-05
80 *218:108 *245:14 0.000368315
81 *218:108 *371:16 0.000228314
82 *218:108 *403:49 1.84018e-05
83 *218:108 *476:12 3.51402e-05
84 *218:108 *476:14 0.000386946
85 *218:108 *527:12 0.000122614
86 *218:108 *619:39 1.09026e-05
87 *218:108 *759:22 0.000130596
88 *218:112 *2782:A 0.000113038
89 *218:112 *411:14 0.000121573
90 *218:124 *2752:A1 2.87085e-05
91 *218:124 *2782:A 3.34366e-05
92 *218:124 *2959:B 0.00142153
93 *218:124 *232:14 2.39153e-05
94 *218:124 *254:28 0.000135028
95 *218:124 *325:16 5.34472e-05
96 *218:124 *350:42 0
97 *218:124 *411:14 0.000738677
98 *218:124 *532:18 0.000120339
99 *218:124 *605:8 0.000543676
100 *218:124 *606:81 0.00104778
101 *218:124 *878:8 0.000125724
102 *218:124 *879:8 5.91386e-05
103 *218:126 *2740:A1 0
104 *218:126 *2959:B 6.80384e-05
105 *218:126 *605:8 9.77615e-05
106 *218:126 *605:18 1.18064e-05
107 *2708:B *218:108 0.000468355
108 *2709:B1 *218:108 0.000356917
109 *2722:B1 *2801:B1 3.79336e-05
110 *2725:B1 *2727:B1 0
111 *2729:B1 *218:42 2.52964e-05
112 *2753:C *218:108 1.08359e-05
113 *2790:A2 *218:124 5.72701e-05
114 *2793:A2 *2793:B1 1.82549e-05
115 *2803:A2 *2727:B1 9.99989e-05
116 *2807:A2 *2727:B1 0.000102177
117 *2815:A2 *2815:B1 1.87331e-05
118 *3172:D *218:126 0.000148903
119 *177:28 *218:124 1.2294e-05
120 *187:96 *218:108 8.17147e-05
121 *202:107 *2801:B1 5.54742e-05
122 *208:106 *218:24 0.0016586
123 *211:85 *2727:B1 1.11209e-05
124 *212:14 *218:12 4.16132e-05
125 *212:14 *218:108 0.000265212
126 *212:20 *218:108 4.97121e-06
127 *212:42 *218:108 7.70302e-05
*RES
1 *2726:X *218:12 24.8042 
2 *218:12 *218:24 30.3008 
3 *218:24 *218:42 24.8708 
4 *218:42 *2727:B1 41.3 
5 *218:42 *2801:B1 29.4964 
6 *218:24 *218:80 8.26786 
7 *218:80 *2793:B1 11.4786 
8 *218:80 *2742:B1 9.3 
9 *218:12 *218:108 44.7939 
10 *218:108 *218:112 6.14286 
11 *218:112 *218:124 42.5625 
12 *218:124 *218:126 7.86607 
13 *218:126 *2732:B1 18.4786 
14 *218:126 *2815:B1 21.3357 
15 *218:112 *2752:A3 15.9786 
16 *218:108 *2782:C 9.90714 
*END

*D_NET *219 0.00118766
*CONN
*I *2728:C I *D sky130_fd_sc_hd__or3_1
*I *2727:X O *D sky130_fd_sc_hd__a22o_1
*CAP
1 *2728:C 0.000463856
2 *2727:X 0.000463856
3 *2728:C *2557:B 0
4 *2728:C *2804:B1 0.000204729
5 *2728:C *345:61 0
6 *2728:C *345:79 0
7 *2803:A2 *2728:C 5.52238e-05
8 *2805:B1 *2728:C 0
*RES
1 *2727:X *2728:C 36.2071 
*END

*D_NET *220 0.00536918
*CONN
*I *2729:A2 I *D sky130_fd_sc_hd__o21a_1
*I *2728:X O *D sky130_fd_sc_hd__or3_1
*CAP
1 *2729:A2 0
2 *2728:X 0.000946078
3 *220:18 0.000946078
4 *220:18 *2567:A 1.43288e-05
5 *220:18 *2578:S 0.000645995
6 *220:18 *2580:S 0.000394005
7 *220:18 *2590:A0 0.000649326
8 *220:18 *2590:A1 0.000144647
9 *220:18 *2615:S 0.000506335
10 *220:18 *2808:A3 0.00010377
11 *220:18 *3296:A 0.000112667
12 *220:18 *350:118 0.000198025
13 *220:18 *350:120 1.21859e-05
14 *220:18 *544:22 1.15281e-05
15 *220:18 *547:14 0.000153045
16 *2722:B1 *220:18 0.000172029
17 *2722:C1 *220:18 5.52302e-05
18 *2729:A1 *220:18 2.61014e-05
19 *2801:A2 *220:18 0.000225096
20 *202:107 *220:18 7.47231e-06
21 *202:115 *220:18 4.52391e-05
*RES
1 *2728:X *220:18 48.0143 
2 *220:18 *2729:A2 9.3 
*END

*D_NET *221 0.00840698
*CONN
*I *2730:D1 I *D sky130_fd_sc_hd__a2111o_1
*I *2729:X O *D sky130_fd_sc_hd__o21a_1
*CAP
1 *2730:D1 0.000828721
2 *2729:X 0.00148854
3 *221:16 0.00231726
4 *2730:D1 *2704:A1 0.000123824
5 *2730:D1 *2800:B1 0
6 *2730:D1 *2800:D1 0.000122935
7 *2730:D1 *3109:A0 6.46783e-05
8 *2730:D1 *3110:A 0
9 *2730:D1 *3428:A 0.000403808
10 *2730:D1 *222:26 0
11 *2730:D1 *267:44 2.22594e-05
12 *2730:D1 *285:22 7.54868e-05
13 *2730:D1 *358:114 0
14 *2730:D1 *358:138 0
15 *2730:D1 *369:74 0
16 *221:16 *2582:A 5.33005e-05
17 *221:16 *2582:B 0.000354985
18 *221:16 *2587:A 0.000117881
19 *221:16 *2748:B1 5.81739e-05
20 *221:16 *3007:A1 2.58997e-05
21 *221:16 *3010:S 8.25843e-06
22 *221:16 *235:20 9.47378e-05
23 *221:16 *395:53 0.000698777
24 *221:16 *527:89 0.000127806
25 *221:16 *547:14 8.36989e-05
26 *221:16 *600:94 0
27 *2730:A1 *2730:D1 2.56811e-05
28 *2730:A2 *2730:D1 5.47409e-05
29 *2730:B1 *2730:D1 5.47409e-05
30 *2730:C1 *2730:D1 5.49489e-05
31 *2748:A1 *221:16 0.00104809
32 *190:18 *2730:D1 0
33 *193:26 *221:16 9.77423e-05
34 *207:86 *2730:D1 0
*RES
1 *2729:X *221:16 49.2286 
2 *221:16 *2730:D1 29.6036 
*END

*D_NET *222 0.0177621
*CONN
*I *2763:B1 I *D sky130_fd_sc_hd__o221a_1
*I *2730:X O *D sky130_fd_sc_hd__a2111o_1
*CAP
1 *2763:B1 0
2 *2730:X 0.00432111
3 *222:26 0.00432111
4 *222:26 *2763:A1 0
5 *222:26 *2770:C1 0.000111998
6 *222:26 *254:28 0.000105838
7 *222:26 *267:44 2.19604e-05
8 *222:26 *316:36 2.21047e-05
9 *222:26 *323:26 0.000136256
10 *222:26 *328:149 4.38265e-05
11 *222:26 *356:14 0.000148182
12 *222:26 *358:114 1.94879e-05
13 *222:26 *376:80 0.000116455
14 *222:26 *403:49 0.000474774
15 *222:26 *403:53 0.00213062
16 *222:26 *407:20 0.00253983
17 *222:26 *590:18 0.00177165
18 *222:26 *590:24 1.95025e-05
19 *222:26 *590:86 8.75016e-05
20 *222:26 *590:157 0.000812661
21 *222:26 *737:24 0
22 *2730:D1 *222:26 0
23 *2770:A2 *222:26 0.00044958
24 *193:60 *222:26 0.000107621
25 *202:52 *222:26 0
26 *211:47 *222:26 0
27 *211:71 *222:26 0
28 *211:85 *222:26 0
*RES
1 *2730:X *222:26 49.2553 
2 *222:26 *2763:B1 9.3 
*END

*D_NET *223 0.00264614
*CONN
*I *2732:C1 I *D sky130_fd_sc_hd__a221o_1
*I *2731:X O *D sky130_fd_sc_hd__a22o_1
*CAP
1 *2732:C1 0.00043758
2 *2731:X 0.00043758
3 *2732:C1 *2732:A1 9.28639e-05
4 *2732:C1 *2732:A2 0.000400661
5 *2732:C1 *2878:A0 9.60939e-05
6 *2732:C1 *2878:A1 1.55885e-05
7 *2732:C1 *2878:S 2.89114e-05
8 *2732:C1 *3352:A 0.000283293
9 *2732:C1 *356:14 0.000309612
10 *2732:C1 *416:12 0.000308883
11 *2732:C1 *693:24 9.58689e-05
12 *2732:C1 *889:14 0.000139202
*RES
1 *2731:X *2732:C1 41.0687 
*END

*D_NET *224 0.00153797
*CONN
*I *2740:A1 I *D sky130_fd_sc_hd__o31a_1
*I *2732:X O *D sky130_fd_sc_hd__a221o_1
*CAP
1 *2740:A1 0.000631648
2 *2732:X 0.000631648
3 *2740:A1 *2740:A3 5.80706e-06
4 *2740:A1 *2900:A1 0
5 *2740:A1 *2948:S 1.59689e-05
6 *2740:A1 *226:22 0.00010326
7 *2740:A1 *374:18 0
8 *2740:A1 *605:18 0
9 *2740:A1 *896:12 0.000149637
10 *218:126 *2740:A1 0
*RES
1 *2732:X *2740:A1 38.1893 
*END

*D_NET *225 0.00110987
*CONN
*I *2734:B1 I *D sky130_fd_sc_hd__a21o_1
*I *2733:X O *D sky130_fd_sc_hd__a22o_1
*CAP
1 *2734:B1 0.000269131
2 *2733:X 0.000269131
3 *2734:B1 *2733:A1 0.000182694
4 *2734:B1 *2734:A1 0.000170104
5 *2734:B1 *388:8 0.000118175
6 *2733:A2 *2734:B1 0.000100635
*RES
1 *2733:X *2734:B1 33.7429 
*END

*D_NET *226 0.0032417
*CONN
*I *2740:A2 I *D sky130_fd_sc_hd__o31a_1
*I *2734:X O *D sky130_fd_sc_hd__a21o_1
*CAP
1 *2740:A2 0
2 *2734:X 0.000702451
3 *226:22 0.000702451
4 *226:22 *2813:B1 0.000140243
5 *226:22 *2948:S 3.69697e-05
6 *226:22 *2949:A 0.000163711
7 *226:22 *2950:S 0.000240691
8 *226:22 *3150:CLK 8.30677e-05
9 *226:22 *374:18 0
10 *226:22 *605:18 0.000493701
11 *226:22 *605:29 0.000168496
12 *226:22 *693:32 0.000275714
13 *2740:A1 *226:22 0.00010326
14 *2815:A2 *226:22 0.000130943
*RES
1 *2734:X *226:22 43.1571 
2 *226:22 *2740:A2 9.3 
*END

*D_NET *227 0.00278305
*CONN
*I *2738:A I *D sky130_fd_sc_hd__or3_1
*I *2735:X O *D sky130_fd_sc_hd__a22o_1
*CAP
1 *2738:A 0.000783089
2 *2735:X 0.000783089
3 *2738:A *2736:A1 7.65658e-05
4 *2738:A *2738:B 5.33005e-05
5 *2738:A *2893:A 2.14757e-05
6 *2738:A *3392:A 2.80341e-05
7 *2736:B1 *2738:A 0.0010375
*RES
1 *2735:X *2738:A 33.1179 
*END

*D_NET *228 0.000140507
*CONN
*I *2738:B I *D sky130_fd_sc_hd__or3_1
*I *2736:X O *D sky130_fd_sc_hd__a22o_1
*CAP
1 *2738:B 4.36033e-05
2 *2736:X 4.36033e-05
3 *2738:A *2738:B 5.33005e-05
*RES
1 *2736:X *2738:B 19.1357 
*END

*D_NET *229 0.00104207
*CONN
*I *2738:C I *D sky130_fd_sc_hd__or3_1
*I *2737:X O *D sky130_fd_sc_hd__a22o_1
*CAP
1 *2738:C 0.000218351
2 *2737:X 0.000218351
3 *2738:C *2737:A1 9.90367e-05
4 *2738:C *374:18 0.000170654
5 *2738:C *374:76 0.000170654
6 *187:96 *2738:C 0.000165024
*RES
1 *2737:X *2738:C 32.9214 
*END

*D_NET *230 0.000804279
*CONN
*I *2740:A3 I *D sky130_fd_sc_hd__o31a_1
*I *2738:X O *D sky130_fd_sc_hd__or3_1
*CAP
1 *2740:A3 0.000192708
2 *2738:X 0.000192708
3 *2740:A3 *2740:B1 0.000310307
4 *2740:A3 *2817:B1 1.58163e-05
5 *2740:A3 *232:14 8.69321e-05
6 *2740:A3 *605:8 0
7 *2740:A1 *2740:A3 5.80706e-06
*RES
1 *2738:X *2740:A3 32.2071 
*END

*D_NET *231 0.021568
*CONN
*I *2759:C I *D sky130_fd_sc_hd__and3_1
*I *2817:B1 I *D sky130_fd_sc_hd__o21a_1
*I *2740:B1 I *D sky130_fd_sc_hd__o31a_1
*I *2796:A3 I *D sky130_fd_sc_hd__a31o_1
*I *2745:A3 I *D sky130_fd_sc_hd__a31o_1
*I *2798:A3 I *D sky130_fd_sc_hd__a32o_1
*I *2747:A3 I *D sky130_fd_sc_hd__a32o_1
*I *2739:X O *D sky130_fd_sc_hd__and2_2
*CAP
1 *2759:C 6.53046e-05
2 *2817:B1 0.000488767
3 *2740:B1 0.00017023
4 *2796:A3 0
5 *2745:A3 1.83694e-05
6 *2798:A3 0.000196823
7 *2747:A3 3.93703e-05
8 *2739:X 0.00115081
9 *231:116 0.00147613
10 *231:98 0.00185324
11 *231:44 0.000404493
12 *231:38 0.000589194
13 *231:26 0.00179995
14 *231:14 0.00351904
15 *2740:B1 *232:14 0
16 *2745:A3 *2745:B1 3.50166e-05
17 *2747:A3 *2748:C1 1.87097e-05
18 *2759:C *2759:A 3.95141e-05
19 *2759:C *2760:C1 1.32392e-05
20 *2759:C *3381:A 3.69047e-06
21 *2759:C *359:12 4.02347e-05
22 *2798:A3 *2798:A1 4.84159e-05
23 *2798:A3 *2799:C1 0.000135795
24 *2798:A3 *2916:A 0.000115446
25 *2798:A3 *316:60 4.60232e-06
26 *2798:A3 *600:66 3.47641e-06
27 *2798:A3 *600:81 0.000105091
28 *2817:B1 *2736:A1 0.000309266
29 *2817:B1 *2819:A3 9.99853e-05
30 *231:14 *2555:A 0.000220937
31 *231:14 *2751:A 6.90561e-05
32 *231:14 *2783:D 0.000862399
33 *231:14 *350:62 0
34 *231:14 *361:54 0
35 *231:14 *527:12 0.000820431
36 *231:14 *652:23 4.29615e-05
37 *231:14 *774:92 0.000351156
38 *231:26 *2795:A 1.10868e-05
39 *231:26 *2796:A1 2.36643e-05
40 *231:26 *2796:B1 5.65955e-05
41 *231:26 *369:74 0.000170935
42 *231:26 *371:57 1.09611e-05
43 *231:26 *380:38 9.83388e-05
44 *231:38 *2745:A1 8.5777e-05
45 *231:38 *2745:B1 9.76123e-05
46 *231:38 *2799:C1 0
47 *231:38 *3375:A 5.64029e-05
48 *231:44 *2748:B1 0.000180157
49 *231:44 *2748:C1 0.000166636
50 *231:44 *2799:C1 1.28693e-05
51 *231:44 *600:81 9.03038e-05
52 *231:98 *2595:A1 0.000268505
53 *231:98 *2756:A 0.000124326
54 *231:98 *3233:CLK 2.11419e-05
55 *231:98 *3379:A 1.69115e-05
56 *231:98 *3381:A 0.000122935
57 *231:98 *715:58 0.000606892
58 *231:98 *737:34 4.27023e-05
59 *231:98 *929:12 3.25862e-05
60 *231:116 *2812:A1 5.10822e-05
61 *231:116 *2819:A1 0.00014285
62 *231:116 *2819:A2 0.000283272
63 *231:116 *2942:S 5.58941e-05
64 *231:116 *2943:A 7.83587e-05
65 *231:116 *2945:A 0.000149896
66 *231:116 *232:14 0
67 *231:116 *372:14 0.000527807
68 *231:116 *511:18 0.000306311
69 *231:116 *715:58 9.16262e-05
70 *231:116 *759:34 0
71 *231:116 *893:35 0.000311933
72 *2740:A3 *2740:B1 0.000310307
73 *2740:A3 *2817:B1 1.58163e-05
74 *2745:A2 *2745:A3 6.19799e-05
75 *2745:A2 *231:44 0.000240009
76 *2757:A3 *231:98 2.18871e-05
77 *2782:B *231:14 5.52238e-05
78 *2796:A2 *231:26 2.70794e-05
79 *2796:A2 *231:38 9.87672e-05
80 *2798:A2 *2747:A3 6.54709e-05
81 *2798:A2 *2798:A3 9.21418e-06
82 *2811:B1 *231:98 2.14378e-05
83 *2811:B1 *231:116 0.000192269
84 *3154:D *231:38 4.42631e-05
85 *3154:D *231:44 9.83388e-05
86 *3155:D *231:26 1.90936e-05
87 *3167:D *231:116 2.05938e-05
88 *3233:D *231:98 2.34337e-05
89 *3295:A *231:26 0
90 *187:96 *2740:B1 0.00019323
91 *187:96 *231:14 1.90936e-05
92 *187:96 *231:116 8.74335e-05
93 *202:14 *231:98 0
94 *207:90 *231:44 3.14003e-05
95 *212:42 *231:14 0.000139907
96 *212:65 *231:98 6.09572e-05
97 *212:142 *2747:A3 1.25879e-05
98 *212:142 *231:38 0.000144079
99 *215:86 *231:98 3.91463e-05
100 *215:130 *231:98 8.83339e-05
101 *218:108 *231:14 1.90936e-05
*RES
1 *2739:X *231:14 34.1524 
2 *231:14 *231:26 13.0246 
3 *231:26 *231:38 17.7143 
4 *231:38 *231:44 10.3571 
5 *231:44 *2747:A3 15.0634 
6 *231:44 *2798:A3 17.8357 
7 *231:38 *2745:A3 10.2643 
8 *231:26 *2796:A3 9.3 
9 *231:14 *231:98 24.8475 
10 *231:98 *231:116 38.5714 
11 *231:116 *2740:B1 18.7821 
12 *231:116 *2817:B1 23.1214 
13 *231:98 *2759:C 15.3714 
*END

*D_NET *232 0.00495961
*CONN
*I *2762:A I *D sky130_fd_sc_hd__or4_1
*I *2740:X O *D sky130_fd_sc_hd__o31a_1
*CAP
1 *2762:A 0
2 *2740:X 0.00103891
3 *232:14 0.00103891
4 *232:14 *2737:A1 5.71472e-05
5 *232:14 *2760:B1 0.000192269
6 *232:14 *2762:C 0.000139331
7 *232:14 *2790:B1 0.000307679
8 *232:14 *2812:A1 0.000139787
9 *232:14 *2881:A 0.00114522
10 *232:14 *2944:A0 2.4075e-05
11 *232:14 *2959:B 0
12 *232:14 *254:28 5.33005e-05
13 *232:14 *411:14 0.000108878
14 *232:14 *590:86 0.000347433
15 *232:14 *590:92 0.000125724
16 *2740:A3 *232:14 8.69321e-05
17 *2740:B1 *232:14 0
18 *2790:A2 *232:14 0.000121867
19 *2790:A3 *232:14 8.23597e-06
20 *174:43 *232:14 0
21 *187:96 *232:14 0
22 *218:124 *232:14 2.39153e-05
23 *231:116 *232:14 0
*RES
1 *2740:X *232:14 46.1214 
2 *232:14 *2762:A 9.3 
*END

*D_NET *233 0.00211337
*CONN
*I *2743:B1 I *D sky130_fd_sc_hd__a211o_1
*I *2741:X O *D sky130_fd_sc_hd__a22o_1
*CAP
1 *2743:B1 0.000491343
2 *2741:X 0.000491343
3 *2743:B1 *2743:A1 1.97695e-05
4 *2743:B1 *2794:B1 5.52302e-05
5 *2743:B1 *3076:A0 0.000141985
6 *2743:B1 *3076:A1 0.000114986
7 *2743:B1 *3077:A 0.000139907
8 *2743:B1 *3078:S 0.000265378
9 *2741:A2 *2743:B1 1.69961e-05
10 *3214:D *2743:B1 0.000148903
11 *215:38 *2743:B1 0.000227526
*RES
1 *2741:X *2743:B1 38.3321 
*END

*D_NET *234 0.000318739
*CONN
*I *2743:C1 I *D sky130_fd_sc_hd__a211o_1
*I *2742:X O *D sky130_fd_sc_hd__a22o_1
*CAP
1 *2743:C1 5.57705e-05
2 *2742:X 5.57705e-05
3 *2743:C1 *285:12 5.48581e-05
4 *2743:C1 *430:64 0.00015234
*RES
1 *2742:X *2743:C1 29.5464 
*END

*D_NET *235 0.00847199
*CONN
*I *2748:A2 I *D sky130_fd_sc_hd__a211o_1
*I *2743:X O *D sky130_fd_sc_hd__a211o_1
*CAP
1 *2748:A2 0
2 *2743:X 0.000601762
3 *235:20 0.00151661
4 *235:14 0.00211837
5 *235:14 *3075:A 0.000656813
6 *235:14 *285:12 9.87092e-05
7 *235:14 *445:89 0
8 *235:20 *2587:A 0.000153054
9 *235:20 *2706:A 0.000355365
10 *235:20 *2768:A 7.73662e-05
11 *235:20 *2774:A1 0.000607322
12 *235:20 *2774:B1 5.83768e-05
13 *235:20 *3010:A1 4.84319e-05
14 *235:20 *3108:A 0.000306791
15 *235:20 *3226:CLK 1.55857e-05
16 *235:20 *267:44 0.000135435
17 *235:20 *350:93 0
18 *235:20 *399:34 0.000841312
19 *235:20 *603:39 6.93567e-05
20 *235:20 *748:24 0
21 *3227:D *235:20 0
22 *181:34 *235:20 0.000114663
23 *181:50 *235:20 0.00031453
24 *208:118 *235:20 7.6644e-05
25 *209:18 *235:20 9.55447e-05
26 *218:24 *235:20 0.000115206
27 *221:16 *235:20 9.47378e-05
*RES
1 *2743:X *235:14 32.55 
2 *235:14 *235:20 43.7321 
3 *235:20 *2748:A2 9.3 
*END

*D_NET *236 0.00156629
*CONN
*I *2745:B1 I *D sky130_fd_sc_hd__a31o_1
*I *2744:X O *D sky130_fd_sc_hd__and3_1
*CAP
1 *2745:B1 0.00040053
2 *2744:X 0.00040053
3 *2745:B1 *2582:A 3.11088e-05
4 *2745:B1 *2745:A1 9.96487e-05
5 *2745:B1 *2748:C1 9.15842e-06
6 *2745:B1 *2799:C1 0.000198542
7 *2744:B *2745:B1 5.52238e-05
8 *2745:A3 *2745:B1 3.50166e-05
9 *3154:D *2745:B1 0.000166085
10 *207:90 *2745:B1 7.28309e-05
11 *231:38 *2745:B1 9.76123e-05
*RES
1 *2744:X *2745:B1 44.5821 
*END

*D_NET *237 0.00123291
*CONN
*I *2748:B1 I *D sky130_fd_sc_hd__a211o_1
*I *2745:X O *D sky130_fd_sc_hd__a31o_1
*CAP
1 *2748:B1 0.000360988
2 *2745:X 0.000360988
3 *2748:B1 *395:53 3.33084e-05
4 *2748:B1 *600:81 4.26608e-05
5 *2745:A2 *2748:B1 1.38323e-05
6 *207:98 *2748:B1 0.000182799
7 *221:16 *2748:B1 5.81739e-05
8 *231:44 *2748:B1 0.000180157
*RES
1 *2745:X *2748:B1 33.0643 
*END

*D_NET *238 0.00226119
*CONN
*I *2747:B1 I *D sky130_fd_sc_hd__a32o_1
*I *2746:X O *D sky130_fd_sc_hd__a22o_1
*CAP
1 *2747:B1 0.000902333
2 *2746:X 0.000902333
3 *2747:B1 *2747:A1 0.000136422
4 *2747:B1 *2915:A0 0
5 *2747:B1 *2916:A 0.000117515
6 *2747:B1 *3163:CLK 0
7 *2747:B1 *528:62 0
8 *2747:B1 *528:66 0
9 *2747:B1 *600:12 0
10 *2747:B1 *600:66 0
11 *2747:B2 *2747:B1 5.49489e-05
12 *174:83 *2747:B1 8.43386e-05
13 *174:104 *2747:B1 5.98192e-05
14 *181:56 *2747:B1 3.47641e-06
15 *183:75 *2747:B1 0
*RES
1 *2746:X *2747:B1 43.0554 
*END

*D_NET *239 0.0013223
*CONN
*I *2748:C1 I *D sky130_fd_sc_hd__a211o_1
*I *2747:X O *D sky130_fd_sc_hd__a32o_1
*CAP
1 *2748:C1 0.000434419
2 *2747:X 0.000434419
3 *2748:C1 *2799:C1 0.000116173
4 *2748:C1 *3154:CLK 2.85234e-05
5 *2745:B1 *2748:C1 9.15842e-06
6 *2747:A3 *2748:C1 1.87097e-05
7 *2748:A1 *2748:C1 3.99614e-06
8 *2798:A2 *2748:C1 9.45048e-06
9 *3154:D *2748:C1 5.92518e-05
10 *207:90 *2748:C1 4.15618e-05
11 *231:44 *2748:C1 0.000166636
*RES
1 *2747:X *2748:C1 34.9214 
*END

*D_NET *240 0.00711412
*CONN
*I *2762:B I *D sky130_fd_sc_hd__or4_1
*I *2748:X O *D sky130_fd_sc_hd__a211o_1
*CAP
1 *2762:B 0.00282825
2 *2748:X 0.00282825
3 *2762:B *361:54 6.16477e-05
4 *2762:B *527:12 0.000111918
5 *2762:B *527:89 0
6 *2762:B *532:18 0.000989358
7 *181:50 *2762:B 0.000182783
8 *187:96 *2762:B 0.000111918
*RES
1 *2748:X *2762:B 44.0531 
*END

*D_NET *241 0.00388867
*CONN
*I *2750:B1 I *D sky130_fd_sc_hd__a31o_1
*I *2749:X O *D sky130_fd_sc_hd__and3_1
*CAP
1 *2750:B1 0
2 *2749:X 0.000836844
3 *241:32 0.000836844
4 *241:32 *2752:C1 5.49489e-05
5 *241:32 *2788:B 0.000218143
6 *241:32 *2791:B 0
7 *241:32 *2791:D 0.000102482
8 *241:32 *2834:B 0
9 *241:32 *2989:A 9.48074e-05
10 *241:32 *3408:A 0.000272174
11 *241:32 *281:24 0.00053668
12 *241:32 *361:36 0
13 *241:32 *361:54 0.000184919
14 *241:32 *419:57 0.000337755
15 *241:32 *619:39 0.000348775
16 *2752:A2 *241:32 2.38651e-06
17 *3238:D *241:32 1.40415e-05
18 *174:14 *241:32 4.78664e-05
*RES
1 *2749:X *241:32 47.9786 
2 *241:32 *2750:B1 9.3 
*END

*D_NET *242 0.00138713
*CONN
*I *2752:B1 I *D sky130_fd_sc_hd__a311o_1
*I *2750:X O *D sky130_fd_sc_hd__a31o_1
*CAP
1 *2752:B1 0.000400449
2 *2750:X 0.000400449
3 *2752:B1 *281:24 0.000145729
4 *2752:B1 *619:39 0.000437014
5 *2752:A2 *2752:B1 3.4846e-06
*RES
1 *2750:X *2752:B1 33.7786 
*END

*D_NET *243 0.00192531
*CONN
*I *2752:C1 I *D sky130_fd_sc_hd__a311o_1
*I *2751:X O *D sky130_fd_sc_hd__and3_1
*CAP
1 *2752:C1 0.000336446
2 *2751:X 0.000336446
3 *2752:C1 *2752:A1 6.09569e-05
4 *2752:C1 *2998:A0 0.00014183
5 *2752:C1 *3370:A 1.98839e-05
6 *2752:C1 *361:36 0
7 *2752:C1 *527:12 4.43142e-05
8 *2752:A2 *2752:C1 0.000375796
9 *2752:A3 *2752:C1 0.000220943
10 *177:24 *2752:C1 0.000222666
11 *187:96 *2752:C1 0.000100831
12 *218:108 *2752:C1 1.02504e-05
13 *241:32 *2752:C1 5.49489e-05
*RES
1 *2751:X *2752:C1 36.8857 
*END

*D_NET *244 0.00218351
*CONN
*I *2762:C I *D sky130_fd_sc_hd__or4_1
*I *2752:X O *D sky130_fd_sc_hd__a311o_1
*CAP
1 *2762:C 0.000310388
2 *2752:X 0.000310388
3 *2762:C *2761:B 0.000390641
4 *2762:C *254:28 0.000111876
5 *2762:C *350:50 0.00028286
6 *2762:C *355:34 0.000441274
7 *2762:C *411:14 1.06841e-05
8 *2762:C *532:18 1.90936e-05
9 *2762:C *606:102 0.000166973
10 *232:14 *2762:C 0.000139331
*RES
1 *2752:X *2762:C 37.9214 
*END

*D_NET *245 0.00519766
*CONN
*I *2761:A I *D sky130_fd_sc_hd__or4_1
*I *2753:X O *D sky130_fd_sc_hd__and3_1
*CAP
1 *2761:A 0
2 *2753:X 0.00108451
3 *245:14 0.00108451
4 *245:14 *2553:A0 9.55226e-05
5 *245:14 *2761:B 2.59355e-05
6 *245:14 *2997:A 0.000326963
7 *245:14 *476:31 7.02611e-05
8 *245:14 *759:22 0.00162407
9 *187:96 *245:14 0.000517574
10 *218:108 *245:14 0.000368315
*RES
1 *2753:X *245:14 44.4429 
2 *245:14 *2761:A 9.3 
*END

*D_NET *246 0.00088292
*CONN
*I *2755:B1 I *D sky130_fd_sc_hd__a31o_1
*I *2754:X O *D sky130_fd_sc_hd__and3_1
*CAP
1 *2755:B1 0.00014683
2 *2754:X 0.00014683
3 *2755:B1 *2779:A 0.000242938
4 *2755:B1 *2978:B 6.1237e-05
5 *2755:B1 *419:57 0.000135028
6 *2682:A *2755:B1 5.58941e-05
7 *174:14 *2755:B1 9.41642e-05
*RES
1 *2754:X *2755:B1 32.1179 
*END

*D_NET *247 0.00427924
*CONN
*I *2761:B I *D sky130_fd_sc_hd__or4_1
*I *2755:X O *D sky130_fd_sc_hd__a31o_1
*CAP
1 *2761:B 0.00122206
2 *2755:X 0.00122206
3 *2761:B *2762:D 1.58163e-05
4 *2761:B *254:28 5.49166e-05
5 *2761:B *281:24 0.000362531
6 *2761:B *350:50 9.41642e-05
7 *2761:B *355:34 0.000136676
8 *2761:B *419:57 2.38651e-06
9 *2755:A2 *2761:B 0.000752046
10 *2762:C *2761:B 0.000390641
11 *245:14 *2761:B 2.59355e-05
*RES
1 *2755:X *2761:B 47.6893 
*END

*D_NET *248 0.00171275
*CONN
*I *2757:B1 I *D sky130_fd_sc_hd__a31o_1
*I *2756:X O *D sky130_fd_sc_hd__and3_1
*CAP
1 *2757:B1 0.000457248
2 *2756:X 0.000457248
3 *2757:B1 *2593:A0 7.89362e-05
4 *2757:B1 *2918:C 3.22031e-05
5 *2757:B1 *316:46 9.47378e-05
6 *2757:B1 *384:43 0.000163697
7 *174:69 *2757:B1 0.000166711
8 *202:14 *2757:B1 0.000261967
*RES
1 *2756:X *2757:B1 38.2964 
*END

*D_NET *249 0.00228909
*CONN
*I *2761:C I *D sky130_fd_sc_hd__or4_1
*I *2757:X O *D sky130_fd_sc_hd__a31o_1
*CAP
1 *2761:C 0.000595081
2 *2757:X 0.000595081
3 *2761:C *2998:A1 1.21258e-05
4 *2761:C *2999:A 5.46299e-05
5 *2761:C *3185:CLK 3.18908e-05
6 *2761:C *3379:A 0.00018077
7 *2761:C *759:22 0.000256293
8 *3184:D *2761:C 0.000192805
9 *3185:D *2761:C 8.07903e-05
10 *212:42 *2761:C 0.000289619
*RES
1 *2757:X *2761:C 40.6893 
*END

*D_NET *250 0.00313902
*CONN
*I *2790:B1 I *D sky130_fd_sc_hd__a31o_1
*I *2760:B1 I *D sky130_fd_sc_hd__a311o_1
*I *2758:X O *D sky130_fd_sc_hd__and2_1
*CAP
1 *2790:B1 0.00019449
2 *2760:B1 0.000505899
3 *2758:X 0.000167929
4 *250:8 0.000868318
5 *2760:B1 *2760:C1 3.25477e-05
6 *2760:B1 *2761:D 5.65955e-05
7 *2760:B1 *359:8 9.90431e-05
8 *2760:B1 *359:12 3.22554e-05
9 *250:8 *322:16 2.15245e-05
10 *2760:A3 *2760:B1 0
11 *174:35 *250:8 7.48091e-05
12 *174:43 *2760:B1 0.000488964
13 *174:61 *2760:B1 9.66977e-05
14 *187:96 *2760:B1 0
15 *187:96 *2790:B1 0
16 *232:14 *2760:B1 0.000192269
17 *232:14 *2790:B1 0.000307679
*RES
1 *2758:X *250:8 15.9786 
2 *250:8 *2760:B1 24.6214 
3 *250:8 *2790:B1 17.8714 
*END

*D_NET *251 0.000167129
*CONN
*I *2760:C1 I *D sky130_fd_sc_hd__a311o_1
*I *2759:X O *D sky130_fd_sc_hd__and3_1
*CAP
1 *2760:C1 4.47374e-05
2 *2759:X 4.47374e-05
3 *2760:C1 *2759:A 0
4 *2760:C1 *359:12 3.18676e-05
5 *2759:C *2760:C1 1.32392e-05
6 *2760:B1 *2760:C1 3.25477e-05
*RES
1 *2759:X *2760:C1 19.8679 
*END

*D_NET *252 0.00154376
*CONN
*I *2761:D I *D sky130_fd_sc_hd__or4_1
*I *2760:X O *D sky130_fd_sc_hd__a311o_1
*CAP
1 *2761:D 0.000447564
2 *2760:X 0.000447564
3 *2761:D *291:28 0.00012546
4 *2761:D *370:33 0
5 *2761:D *372:14 7.83659e-05
6 *2761:D *759:22 0.000288813
7 *2760:B1 *2761:D 5.65955e-05
8 *3184:D *2761:D 9.9403e-05
*RES
1 *2760:X *2761:D 37.2964 
*END

*D_NET *253 0.000138843
*CONN
*I *2762:D I *D sky130_fd_sc_hd__or4_1
*I *2761:X O *D sky130_fd_sc_hd__or4_1
*CAP
1 *2762:D 6.15132e-05
2 *2761:X 6.15132e-05
3 *2762:D *254:28 0
4 *2761:B *2762:D 1.58163e-05
*RES
1 *2761:X *2762:D 19.5643 
*END

*D_NET *254 0.00469336
*CONN
*I *2763:B2 I *D sky130_fd_sc_hd__o221a_1
*I *2762:X O *D sky130_fd_sc_hd__or4_1
*CAP
1 *2763:B2 0
2 *2762:X 0.00124185
3 *254:28 0.00124185
4 *254:28 *2595:A0 5.56859e-05
5 *254:28 *2628:A0 1.90936e-05
6 *254:28 *2790:A1 0.000171355
7 *254:28 *3269:CLK 0.000348743
8 *254:28 *281:24 0.00018013
9 *254:28 *328:149 8.29818e-05
10 *254:28 *350:42 5.28442e-06
11 *254:28 *608:16 0.000182285
12 *2761:B *254:28 5.49166e-05
13 *2762:C *254:28 0.000111876
14 *2762:D *254:28 0
15 *3269:D *254:28 0.000228368
16 *211:47 *254:28 1.37292e-05
17 *211:71 *254:28 0.000146544
18 *215:86 *254:28 0.000314494
19 *218:124 *254:28 0.000135028
20 *222:26 *254:28 0.000105838
21 *232:14 *254:28 5.33005e-05
*RES
1 *2762:X *254:28 43.7844 
2 *254:28 *2763:B2 9.3 
*END

*D_NET *255 0.00106084
*CONN
*I *2767:B1 I *D sky130_fd_sc_hd__a211o_1
*I *2764:X O *D sky130_fd_sc_hd__a22o_1
*CAP
1 *2767:B1 0.000316378
2 *2764:X 0.000316378
3 *2767:B1 *2698:A1 2.84026e-05
4 *2767:B1 *2767:C1 3.57366e-05
5 *2698:A2 *2767:B1 7.8195e-05
6 *2698:C1 *2767:B1 0.000224577
7 *182:31 *2767:B1 2.0519e-05
8 *183:22 *2767:B1 4.06509e-05
*RES
1 *2764:X *2767:B1 24.7964 
*END

*D_NET *256 0.00146962
*CONN
*I *2766:C1 I *D sky130_fd_sc_hd__a221o_1
*I *2765:X O *D sky130_fd_sc_hd__a22o_1
*CAP
1 *2766:C1 0.000481101
2 *2765:X 0.000481101
3 *2766:C1 *2697:B2 0.000148514
4 *2766:C1 *3043:A0 5.58331e-05
5 *2766:C1 *3046:A 5.64835e-06
6 *2766:C1 *3055:A0 0.000262834
7 *2766:C1 *595:82 3.45899e-05
*RES
1 *2765:X *2766:C1 34.6 
*END

*D_NET *257 0.00308756
*CONN
*I *2767:C1 I *D sky130_fd_sc_hd__a211o_1
*I *2766:X O *D sky130_fd_sc_hd__a221o_1
*CAP
1 *2767:C1 0.000889774
2 *2766:X 0.000889774
3 *2767:C1 *3037:B 5.52302e-05
4 *2767:C1 *3050:A1 9.15842e-06
5 *2767:C1 *3051:A 0.000481562
6 *2696:A2 *2767:C1 6.58597e-05
7 *2765:A2 *2767:C1 1.59901e-05
8 *2766:A2 *2767:C1 6.11331e-05
9 *2767:B1 *2767:C1 3.57366e-05
10 *172:14 *2767:C1 7.09043e-05
11 *182:31 *2767:C1 0.000377344
12 *186:14 *2767:C1 8.53409e-05
13 *186:35 *2767:C1 4.97471e-05
*RES
1 *2766:X *2767:C1 47.5464 
*END

*D_NET *258 0.0101595
*CONN
*I *2800:A2 I *D sky130_fd_sc_hd__a2111o_1
*I *2767:X O *D sky130_fd_sc_hd__a211o_1
*CAP
1 *2800:A2 0
2 *2767:X 0.00356806
3 *258:28 0.00356806
4 *258:28 *2800:D1 0
5 *258:28 *3093:A1 5.33005e-05
6 *258:28 *282:22 5.33005e-05
7 *258:28 *321:63 0.00184103
8 *258:28 *369:74 9.50724e-05
9 *3295:A *258:28 0.000215283
10 *197:18 *258:28 0.000339348
11 *197:28 *258:28 0.000426037
*RES
1 *2767:X *258:28 41.9868 
2 *258:28 *2800:A2 9.3 
*END

*D_NET *259 0.00273737
*CONN
*I *2770:B1 I *D sky130_fd_sc_hd__a311o_1
*I *2768:X O *D sky130_fd_sc_hd__and3_1
*CAP
1 *2770:B1 0.000520443
2 *2768:X 0.000520443
3 *2770:B1 *2770:A1 5.46383e-06
4 *2770:B1 *2770:C1 0.00010146
5 *2770:B1 *3110:A 0.000400069
6 *2707:A3 *2770:B1 4.11486e-05
7 *2713:B *2770:B1 0.000257125
8 *2770:A3 *2770:B1 5.46383e-06
9 *177:112 *2770:B1 5.50052e-05
10 *177:116 *2770:B1 0
11 *207:86 *2770:B1 0.000830745
*RES
1 *2768:X *2770:B1 41.3857 
*END

*D_NET *260 0.00220769
*CONN
*I *2770:C1 I *D sky130_fd_sc_hd__a311o_1
*I *2769:X O *D sky130_fd_sc_hd__and3_1
*CAP
1 *2770:C1 0.000512962
2 *2769:X 0.000512962
3 *2770:C1 *3109:A0 5.65955e-05
4 *2770:C1 *3110:A 1.02504e-05
5 *2770:C1 *267:44 8.63192e-06
6 *2770:C1 *358:114 6.74686e-05
7 *2770:C1 *476:56 9.83442e-05
8 *2770:C1 *832:10 0.000305118
9 *2713:B *2770:C1 0.000257125
10 *2770:A2 *2770:C1 0
11 *2770:B1 *2770:C1 0.00010146
12 *2777:B2 *2770:C1 0.000143679
13 *177:112 *2770:C1 9.15842e-06
14 *193:76 *2770:C1 7.53554e-06
15 *207:86 *2770:C1 4.40513e-06
16 *222:26 *2770:C1 0.000111998
*RES
1 *2769:X *2770:C1 39.3143 
*END

*D_NET *261 0.000577898
*CONN
*I *2778:A I *D sky130_fd_sc_hd__or4_1
*I *2770:X O *D sky130_fd_sc_hd__a311o_1
*CAP
1 *2778:A 0.000183888
2 *2770:X 0.000183888
3 *2778:A *2770:A1 6.88121e-05
4 *2778:A *2778:B 3.466e-06
5 *2778:A *2778:C 0.000130355
6 *2778:A *2778:D 7.48927e-06
*RES
1 *2770:X *2778:A 22.2607 
*END

*D_NET *262 0.00179754
*CONN
*I *2772:B1 I *D sky130_fd_sc_hd__a31o_1
*I *2771:X O *D sky130_fd_sc_hd__and3_1
*CAP
1 *2772:B1 0.000370268
2 *2771:X 0.000370268
3 *2772:B1 *2772:A1 6.84941e-05
4 *2772:B1 *3096:A0 5.23735e-05
5 *2772:B1 *376:80 8.54483e-05
6 *2772:B1 *384:43 9.74367e-05
7 *2772:B1 *726:20 3.69047e-06
8 *3223:D *2772:B1 0.000200233
9 *194:41 *2772:B1 0.000545102
10 *202:14 *2772:B1 4.22135e-06
*RES
1 *2771:X *2772:B1 36.3143 
*END

*D_NET *263 0.00081704
*CONN
*I *2778:B I *D sky130_fd_sc_hd__or4_1
*I *2772:X O *D sky130_fd_sc_hd__a31o_1
*CAP
1 *2778:B 0.000355858
2 *2772:X 0.000355858
3 *2778:B *2770:A1 2.68481e-05
4 *2778:B *3100:A 1.83136e-05
5 *2778:A *2778:B 3.466e-06
6 *3223:D *2778:B 5.66971e-05
*RES
1 *2772:X *2778:B 22.8321 
*END

*D_NET *264 0.00142946
*CONN
*I *2774:B1 I *D sky130_fd_sc_hd__a31o_1
*I *2773:X O *D sky130_fd_sc_hd__and3_1
*CAP
1 *2774:B1 0.000382803
2 *2773:X 0.000382803
3 *2774:B1 *399:34 0.000121897
4 *192:67 *2774:B1 0.000483584
5 *235:20 *2774:B1 5.83768e-05
*RES
1 *2773:X *2774:B1 33.8857 
*END

*D_NET *265 0.00172728
*CONN
*I *2778:C I *D sky130_fd_sc_hd__or4_1
*I *2774:X O *D sky130_fd_sc_hd__a31o_1
*CAP
1 *2778:C 0.000433081
2 *2774:X 0.000433081
3 *2778:C *2770:A1 2.592e-05
4 *2778:C *2778:D 3.35718e-05
5 *2707:A3 *2778:C 0.000262841
6 *2707:B1 *2778:C 4.51148e-05
7 *2770:A3 *2778:C 4.35597e-05
8 *2778:A *2778:C 0.000130355
9 *177:112 *2778:C 1.98839e-05
10 *177:116 *2778:C 2.19907e-05
11 *177:147 *2778:C 0.000137639
12 *202:52 *2778:C 0.000140243
*RES
1 *2774:X *2778:C 27.3679 
*END

*D_NET *266 0.00228655
*CONN
*I *2777:A2 I *D sky130_fd_sc_hd__a22o_1
*I *2775:X O *D sky130_fd_sc_hd__a22o_1
*CAP
1 *2777:A2 0.000543625
2 *2775:X 0.000543625
3 *2777:A2 *2707:A1 5.37721e-05
4 *2777:A2 *3176:CLK 2.59355e-05
5 *2777:A2 *267:44 5.37741e-06
6 *2777:A2 *424:22 9.25014e-06
7 *2777:A2 *474:49 0.000312976
8 *2777:A2 *603:25 5.29944e-05
9 *2777:A2 *603:31 0.000201685
10 *190:18 *2777:A2 5.50722e-05
11 *207:86 *2777:A2 0.000482239
*RES
1 *2775:X *2777:A2 49.1893 
*END

*D_NET *267 0.00604981
*CONN
*I *2777:B1 I *D sky130_fd_sc_hd__a22o_1
*I *2776:X O *D sky130_fd_sc_hd__a22o_1
*CAP
1 *2777:B1 0
2 *2776:X 0.00144875
3 *267:44 0.00144875
4 *267:44 *2776:A2 0
5 *267:44 *2778:D 0.00011739
6 *267:44 *3113:A 0.000358696
7 *267:44 *3115:A 0.000515882
8 *267:44 *3127:B 9.66977e-05
9 *267:44 *358:114 0.000303244
10 *267:44 *399:34 6.94126e-05
11 *267:44 *407:20 0.000180058
12 *267:44 *476:56 1.65169e-05
13 *267:44 *476:66 0.000276033
14 *267:44 *508:6 0.000140933
15 *267:44 *518:10 5.33005e-05
16 *267:44 *603:68 0.000318431
17 *2712:B1 *267:44 9.02232e-05
18 *2730:D1 *267:44 2.22594e-05
19 *2770:A2 *267:44 0.000183527
20 *2770:C1 *267:44 8.63192e-06
21 *2777:A2 *267:44 5.37741e-06
22 *2777:B2 *267:44 2.26055e-05
23 *3228:D *267:44 1.98839e-05
24 *177:147 *267:44 3.04786e-06
25 *190:18 *267:44 0.000176099
26 *197:60 *267:44 1.66706e-05
27 *222:26 *267:44 2.19604e-05
28 *235:20 *267:44 0.000135435
*RES
1 *2776:X *267:44 47.3743 
2 *267:44 *2777:B1 13.8 
*END

*D_NET *268 0.000478846
*CONN
*I *2778:D I *D sky130_fd_sc_hd__or4_1
*I *2777:X O *D sky130_fd_sc_hd__a22o_1
*CAP
1 *2778:D 8.40989e-05
2 *2777:X 8.40989e-05
3 *2778:D *2770:A1 3.09889e-05
4 *2778:A *2778:D 7.48927e-06
5 *2778:C *2778:D 3.35718e-05
6 *190:18 *2778:D 0.000121208
7 *267:44 *2778:D 0.00011739
*RES
1 *2777:X *2778:D 30.2071 
*END

*D_NET *269 0.00245257
*CONN
*I *2800:B1 I *D sky130_fd_sc_hd__a2111o_1
*I *2778:X O *D sky130_fd_sc_hd__or4_1
*CAP
1 *2800:B1 0.000721951
2 *2778:X 0.000721951
3 *2800:B1 *3107:S 0
4 *2800:B1 *3384:A 0.000120635
5 *2800:B1 *369:74 0.000591424
6 *2800:B1 *430:20 5.65955e-05
7 *2800:B1 *476:56 0
8 *2704:A3 *2800:B1 2.11419e-05
9 *2713:A *2800:B1 5.25862e-06
10 *2730:B1 *2800:B1 5.18871e-05
11 *2730:D1 *2800:B1 0
12 *2769:C *2800:B1 0.000161725
13 *190:18 *2800:B1 0
*RES
1 *2778:X *2800:B1 41.8232 
*END

*D_NET *270 0.00144783
*CONN
*I *2783:A I *D sky130_fd_sc_hd__or4_1
*I *2779:X O *D sky130_fd_sc_hd__and3_1
*CAP
1 *2783:A 0.000414076
2 *2779:X 0.000414076
3 *2783:A *2783:D 0.000150625
4 *2783:A *2834:A 0.000150625
5 *2783:A *2834:B 1.33343e-05
6 *2783:A *2983:A 7.65719e-05
7 *2783:A *3277:RESET_B 2.59355e-05
8 *2783:A *415:50 9.32406e-05
9 *2783:A *652:23 4.58194e-05
10 *2783:A *775:61 6.3521e-05
*RES
1 *2779:X *2783:A 35.3857 
*END

*D_NET *271 0.0012107
*CONN
*I *2783:B I *D sky130_fd_sc_hd__or4_1
*I *2780:X O *D sky130_fd_sc_hd__and3_1
*CAP
1 *2783:B 0.000241783
2 *2780:X 0.000241783
3 *2783:B *2780:A 3.36015e-05
4 *2783:B *2783:C 0.000315887
5 *2783:B *415:50 0.000291648
6 *2785:B *2783:B 2.16719e-05
7 *211:37 *2783:B 5.52238e-05
8 *215:72 *2783:B 9.10431e-06
*RES
1 *2780:X *2783:B 33.9393 
*END

*D_NET *272 0.00203245
*CONN
*I *2783:C I *D sky130_fd_sc_hd__or4_1
*I *2781:X O *D sky130_fd_sc_hd__and3_1
*CAP
1 *2783:C 0.000461738
2 *2781:X 0.000461738
3 *2783:C *2780:A 6.97108e-05
4 *2783:C *2783:D 5.33005e-05
5 *2783:C *3238:CLK 7.61656e-05
6 *2783:C *415:50 4.38511e-05
7 *2780:C *2783:C 6.04072e-05
8 *2783:B *2783:C 0.000315887
9 *2785:B *2783:C 0.000249486
10 *176:27 *2783:C 9.60939e-05
11 *211:37 *2783:C 0.00010326
12 *215:68 *2783:C 4.08132e-05
*RES
1 *2781:X *2783:C 37.5643 
*END

*D_NET *273 0.00264865
*CONN
*I *2783:D I *D sky130_fd_sc_hd__or4_1
*I *2782:X O *D sky130_fd_sc_hd__and3_1
*CAP
1 *2783:D 0.000706767
2 *2782:X 0.000706767
3 *2783:D *415:50 0.000148911
4 *2783:A *2783:D 0.000150625
5 *2783:C *2783:D 5.33005e-05
6 *176:27 *2783:D 1.98839e-05
7 *231:14 *2783:D 0.000862399
*RES
1 *2782:X *2783:D 38.8321 
*END

*D_NET *274 0.000857192
*CONN
*I *2791:A I *D sky130_fd_sc_hd__or4_1
*I *2783:X O *D sky130_fd_sc_hd__or4_1
*CAP
1 *2791:A 0.00015657
2 *2783:X 0.00015657
3 *2791:A *282:22 5.06672e-05
4 *2791:A *415:50 3.4323e-06
5 *2791:A *430:30 0.000261794
6 *2791:A *607:46 0.000102435
7 *2791:A *775:61 0.000125724
*RES
1 *2783:X *2791:A 31.8321 
*END

*D_NET *275 0.00258365
*CONN
*I *2788:A I *D sky130_fd_sc_hd__or4_1
*I *2784:X O *D sky130_fd_sc_hd__and3_1
*CAP
1 *2788:A 0.000610693
2 *2784:X 0.000610693
3 *2788:A *2788:B 7.43578e-06
4 *2788:A *2788:D 4.13496e-05
5 *2788:A *2789:A 0.000180073
6 *2788:A *3378:A 0.000293887
7 *2788:A *370:54 0.000501199
8 *2788:A *715:30 0.000169608
9 *2784:B *2788:A 9.25014e-06
10 *187:71 *2788:A 6.81704e-05
11 *187:96 *2788:A 6.57032e-05
12 *193:131 *2788:A 2.55889e-05
*RES
1 *2784:X *2788:A 42.0464 
*END

*D_NET *276 0.00323718
*CONN
*I *2788:B I *D sky130_fd_sc_hd__or4_1
*I *2785:X O *D sky130_fd_sc_hd__and3_1
*CAP
1 *2788:B 0.000869774
2 *2785:X 0.000869774
3 *2788:B *2791:B 9.83388e-05
4 *2788:B *281:24 5.41794e-05
5 *2788:B *361:36 0
6 *2788:B *430:30 0.000646482
7 *2788:A *2788:B 7.43578e-06
8 *176:27 *2788:B 0.000473053
9 *241:32 *2788:B 0.000218143
*RES
1 *2785:X *2788:B 42.7071 
*END

*D_NET *277 0.000971702
*CONN
*I *2788:C I *D sky130_fd_sc_hd__or4_1
*I *2786:X O *D sky130_fd_sc_hd__and3_1
*CAP
1 *2788:C 0.000198987
2 *2786:X 0.000198987
3 *2788:C *2751:A 0.000128146
4 *2788:C *3414:A 0.00019252
5 *2786:B *2788:C 9.71197e-05
6 *176:44 *2788:C 0.000155943
*RES
1 *2786:X *2788:C 32.6179 
*END

*D_NET *278 0.00134033
*CONN
*I *2788:D I *D sky130_fd_sc_hd__or4_1
*I *2787:X O *D sky130_fd_sc_hd__and3_1
*CAP
1 *2788:D 0.000260486
2 *2787:X 0.000260486
3 *2788:D *3378:A 5.71472e-05
4 *2788:A *2788:D 4.13496e-05
5 *212:20 *2788:D 0.000103041
6 *212:42 *2788:D 0.000141859
7 *218:108 *2788:D 0.000475963
*RES
1 *2787:X *2788:D 35.1536 
*END

*D_NET *279 0.00186946
*CONN
*I *2791:B I *D sky130_fd_sc_hd__or4_1
*I *2788:X O *D sky130_fd_sc_hd__or4_1
*CAP
1 *2791:B 0.000721455
2 *2788:X 0.000721455
3 *2791:B *281:24 2.79421e-05
4 *2791:B *361:30 1.59347e-05
5 *2791:B *361:36 0.000106468
6 *2791:B *511:150 4.22986e-05
7 *2788:B *2791:B 9.83388e-05
8 *176:27 *2791:B 0.000135565
9 *241:32 *2791:B 0
*RES
1 *2788:X *2791:B 37.3857 
*END

*D_NET *280 0.0026119
*CONN
*I *2791:C I *D sky130_fd_sc_hd__or4_1
*I *2789:X O *D sky130_fd_sc_hd__and3_1
*CAP
1 *2791:C 0.000379951
2 *2789:X 0.000379951
3 *2791:C *2791:D 0.000137561
4 *2791:C *3125:A0 0.000123288
5 *2791:C *3232:CLK 0.000177821
6 *2791:C *282:22 0.000598414
7 *2791:C *430:30 0.000401295
8 *3232:D *2791:C 0.000288605
9 *187:64 *2791:C 0.00012501
*RES
1 *2789:X *2791:C 40.0464 
*END

*D_NET *281 0.00443943
*CONN
*I *2791:D I *D sky130_fd_sc_hd__or4_1
*I *2790:X O *D sky130_fd_sc_hd__a31o_1
*CAP
1 *2791:D 0.000165625
2 *2790:X 0.0008807
3 *281:24 0.00104632
4 *2791:D *282:22 0.000137561
5 *281:24 *2790:A1 0.000104253
6 *281:24 *322:10 0
7 *281:24 *350:42 0.000178517
8 *281:24 *350:50 0
9 *281:24 *355:38 7.47202e-05
10 *281:24 *355:42 7.54868e-05
11 *281:24 *361:36 0
12 *281:24 *527:118 0.000107255
13 *281:24 *532:18 2.59355e-05
14 *2752:B1 *281:24 0.000145729
15 *2761:B *281:24 0.000362531
16 *2788:B *281:24 5.41794e-05
17 *2791:B *281:24 2.79421e-05
18 *2791:C *2791:D 0.000137561
19 *176:27 *281:24 9.58126e-05
20 *241:32 *2791:D 0.000102482
21 *241:32 *281:24 0.00053668
22 *254:28 *281:24 0.00018013
*RES
1 *2790:X *281:24 45.8179 
2 *281:24 *2791:D 21.9071 
*END

*D_NET *282 0.00774147
*CONN
*I *2800:C1 I *D sky130_fd_sc_hd__a2111o_1
*I *2791:X O *D sky130_fd_sc_hd__or4_1
*CAP
1 *2800:C1 0
2 *2791:X 0.00186736
3 *282:22 0.00186736
4 *282:22 *3093:A0 6.42095e-05
5 *282:22 *3093:A1 0.000856347
6 *282:22 *3232:CLK 1.10868e-05
7 *282:22 *3233:CLK 0.000164656
8 *282:22 *430:20 0.000154075
9 *282:22 *430:30 0.00111118
10 *282:22 *825:8 0.000389879
11 *2791:A *282:22 5.06672e-05
12 *2791:C *282:22 0.000598414
13 *2791:D *282:22 0.000137561
14 *3232:D *282:22 0.000415371
15 *258:28 *282:22 5.33005e-05
*RES
1 *2791:X *282:22 44.9964 
2 *282:22 *2800:C1 9.3 
*END

*D_NET *283 0.000781707
*CONN
*I *2794:B1 I *D sky130_fd_sc_hd__a211o_1
*I *2792:X O *D sky130_fd_sc_hd__a22o_1
*CAP
1 *2794:B1 0.000131627
2 *2792:X 0.000131627
3 *2794:B1 *2794:A1 0
4 *2794:B1 *2794:C1 4.22908e-05
5 *2794:B1 *285:12 1.74352e-05
6 *2794:B1 *602:101 0.000148911
7 *2741:A2 *2794:B1 9.60939e-05
8 *2741:B1 *2794:B1 4.57538e-05
9 *2743:B1 *2794:B1 5.52302e-05
10 *197:108 *2794:B1 9.90367e-05
11 *197:112 *2794:B1 1.3701e-05
*RES
1 *2792:X *2794:B1 31.8679 
*END

*D_NET *284 0.00105946
*CONN
*I *2794:C1 I *D sky130_fd_sc_hd__a211o_1
*I *2793:X O *D sky130_fd_sc_hd__a22o_1
*CAP
1 *2794:C1 0.000270142
2 *2793:X 0.000270142
3 *2794:C1 *2742:B2 5.52302e-05
4 *2794:C1 *3078:S 0
5 *2794:C1 *3081:A0 7.83659e-05
6 *2794:C1 *285:12 0.00018372
7 *2794:C1 *486:10 0
8 *2794:C1 *602:86 0.000114819
9 *2793:A2 *2794:C1 9.25014e-06
10 *2794:B1 *2794:C1 4.22908e-05
11 *197:108 *2794:C1 3.54971e-05
*RES
1 *2793:X *2794:C1 34.1 
*END

*D_NET *285 0.010881
*CONN
*I *2799:A2 I *D sky130_fd_sc_hd__a211o_1
*I *2794:X O *D sky130_fd_sc_hd__a211o_1
*CAP
1 *2799:A2 0
2 *2794:X 0.00146949
3 *285:22 0.00222888
4 *285:12 0.00369838
5 *285:12 *430:64 0
6 *285:22 *2711:A 0
7 *285:22 *2712:A1 0.000196184
8 *285:22 *2799:C1 0
9 *285:22 *3020:S 0
10 *285:22 *3093:A1 0.000901145
11 *285:22 *3113:A 0.000309887
12 *285:22 *3413:A 0
13 *285:22 *345:30 0
14 *285:22 *350:93 9.31209e-05
15 *285:22 *358:96 0.000168067
16 *285:22 *399:73 0.00042979
17 *285:22 *430:64 0
18 *285:22 *445:89 0
19 *285:22 *445:124 0.000203038
20 *285:22 *476:98 0
21 *285:22 *590:222 0
22 *285:22 *748:39 7.47072e-05
23 *285:22 *869:8 5.75957e-05
24 *2711:C *285:22 6.94124e-05
25 *2712:B1 *285:22 7.44554e-05
26 *2730:D1 *285:22 7.54868e-05
27 *2743:C1 *285:12 5.48581e-05
28 *2792:A2 *285:12 0.000115474
29 *2794:B1 *285:12 1.74352e-05
30 *2794:C1 *285:12 0.00018372
31 *2796:A2 *285:22 0
32 *3193:D *285:22 0
33 *3214:D *285:12 0.000122899
34 *197:108 *285:12 9.78683e-05
35 *197:112 *285:12 2.65105e-05
36 *197:128 *285:12 5.62995e-05
37 *208:139 *285:12 5.7616e-05
38 *235:14 *285:12 9.87092e-05
*RES
1 *2794:X *285:12 35.6482 
2 *285:12 *285:22 48.8839 
3 *285:22 *2799:A2 13.8 
*END

*D_NET *286 0.000267783
*CONN
*I *2796:B1 I *D sky130_fd_sc_hd__a31o_1
*I *2795:X O *D sky130_fd_sc_hd__and3_1
*CAP
1 *2796:B1 4.07874e-05
2 *2795:X 4.07874e-05
3 *2796:B1 *2796:A1 9.83388e-05
4 *2796:B1 *380:38 3.12738e-05
5 *231:26 *2796:B1 5.65955e-05
*RES
1 *2795:X *2796:B1 19.975 
*END

*D_NET *287 0.000628999
*CONN
*I *2799:B1 I *D sky130_fd_sc_hd__a211o_1
*I *2796:X O *D sky130_fd_sc_hd__a31o_1
*CAP
1 *2799:B1 0.000164338
2 *2796:X 0.000164338
3 *2799:B1 *2799:C1 0
4 *2799:B1 *3006:B 0.000195542
5 *2799:B1 *380:38 0
6 *2748:A1 *2799:B1 5.45307e-05
7 *2799:A1 *2799:B1 5.38444e-06
8 *193:26 *2799:B1 4.48647e-05
*RES
1 *2796:X *2799:B1 31.4393 
*END

*D_NET *288 0.00335271
*CONN
*I *2798:B1 I *D sky130_fd_sc_hd__a32o_1
*I *2797:X O *D sky130_fd_sc_hd__a22o_1
*CAP
1 *2798:B1 0.000823697
2 *2797:X 0.000823697
3 *2798:B1 *2608:S 0.00013905
4 *2798:B1 *2610:S 0.000174844
5 *2798:B1 *2746:A1 0.000177234
6 *2798:B1 *2797:A1 7.20829e-05
7 *2798:B1 *2805:B2 0
8 *2798:B1 *2914:A 2.39852e-05
9 *2798:B1 *2916:A 0.000321736
10 *2798:B1 *3330:A 0.000374045
11 *2798:B1 *328:30 7.97875e-05
12 *2798:B1 *395:53 0.000137903
13 *2798:B1 *395:57 1.6424e-05
14 *2798:B1 *528:66 0
15 *2798:B1 *600:26 0.000104788
16 *2798:A2 *2798:B1 3.91223e-05
17 *3156:D *2798:B1 6.84059e-06
18 *174:104 *2798:B1 1.94135e-05
19 *215:108 *2798:B1 1.80622e-05
*RES
1 *2797:X *2798:B1 47.7696 
*END

*D_NET *289 0.0025628
*CONN
*I *2799:C1 I *D sky130_fd_sc_hd__a211o_1
*I *2798:X O *D sky130_fd_sc_hd__a32o_1
*CAP
1 *2799:C1 0.000852093
2 *2798:X 0.000852093
3 *2799:C1 *2587:A 2.7814e-05
4 *2799:C1 *2745:A1 0
5 *2799:C1 *2914:A 9.20464e-06
6 *2799:C1 *3375:A 3.93986e-05
7 *2799:C1 *316:60 7.69776e-06
8 *2799:C1 *600:81 5.50052e-05
9 *2744:C *2799:C1 9.91086e-05
10 *2745:B1 *2799:C1 0.000198542
11 *2748:C1 *2799:C1 0.000116173
12 *2796:A2 *2799:C1 7.73758e-05
13 *2798:A3 *2799:C1 0.000135795
14 *2799:B1 *2799:C1 0
15 *3154:D *2799:C1 4.61656e-05
16 *207:90 *2799:C1 0
17 *212:91 *2799:C1 3.34687e-05
18 *212:142 *2799:C1 0
19 *231:38 *2799:C1 0
20 *231:44 *2799:C1 1.28693e-05
21 *285:22 *2799:C1 0
*RES
1 *2798:X *2799:C1 42.8857 
*END

*D_NET *290 0.000584258
*CONN
*I *2800:D1 I *D sky130_fd_sc_hd__a2111o_1
*I *2799:X O *D sky130_fd_sc_hd__a211o_1
*CAP
1 *2800:D1 9.55209e-05
2 *2799:X 9.55209e-05
3 *2800:D1 *3093:A1 0.000141734
4 *2800:D1 *291:16 7.83587e-05
5 *2800:D1 *430:20 5.01883e-05
6 *2730:D1 *2800:D1 0.000122935
7 *258:28 *2800:D1 0
*RES
1 *2799:X *2800:D1 30.6 
*END

*D_NET *291 0.0114988
*CONN
*I *2819:A1 I *D sky130_fd_sc_hd__o31a_1
*I *2800:X O *D sky130_fd_sc_hd__a2111o_1
*CAP
1 *2819:A1 0.000407364
2 *2800:X 0.000779313
3 *291:28 0.00176051
4 *291:16 0.00213245
5 *2819:A1 *2819:A2 0.000117874
6 *2819:A1 *2941:B 5.65955e-05
7 *2819:A1 *2944:A0 0.000269898
8 *2819:A1 *2944:A1 0.000185643
9 *2819:A1 *3447:A 0.000175892
10 *2819:A1 *325:8 0.000110316
11 *2819:A1 *325:16 0.000178847
12 *2819:A1 *400:6 8.05212e-05
13 *2819:A1 *893:35 1.97695e-05
14 *291:16 *3093:A1 5.33005e-05
15 *291:28 *2596:A 0.0001249
16 *291:28 *2891:B 2.28499e-05
17 *291:28 *2899:B 0.00125683
18 *291:28 *365:22 0.00035855
19 *291:28 *370:16 1.98839e-05
20 *291:28 *371:57 0.000145205
21 *291:28 *371:61 0.000699205
22 *291:28 *372:14 0
23 *291:28 *606:42 0.000515928
24 *291:28 *737:34 0
25 *291:28 *759:34 9.97552e-05
26 *2761:D *291:28 0.00012546
27 *2800:D1 *291:16 7.83587e-05
28 *3220:D *291:16 5.7298e-05
29 *3281:D *2819:A1 0.000100262
30 *174:61 *291:28 0.000133952
31 *177:24 *291:16 0.000181803
32 *193:20 *291:16 2.14757e-05
33 *193:26 *291:16 0.000621424
34 *208:18 *291:28 0.000120043
35 *215:86 *291:28 0.000344491
36 *231:116 *2819:A1 0.00014285
*RES
1 *2800:X *291:16 33.5321 
2 *291:16 *291:28 49.6607 
3 *291:28 *2819:A1 21.0857 
*END

*D_NET *292 0.00266089
*CONN
*I *2802:B1 I *D sky130_fd_sc_hd__a21o_1
*I *2801:X O *D sky130_fd_sc_hd__a22o_1
*CAP
1 *2802:B1 0.000525709
2 *2801:X 0.000525709
3 *2802:B1 *2623:A1 4.23643e-05
4 *2802:B1 *2623:S 9.41642e-05
5 *2802:B1 *2805:A1 0.000600019
6 *2802:B1 *3267:CLK 0.00017403
7 *2802:B1 *568:6 0.000221978
8 *2729:B1 *2802:B1 7.32073e-05
9 *2808:B1 *2802:B1 0.000181832
10 *3267:D *2802:B1 0.000221879
*RES
1 *2801:X *2802:B1 41.2071 
*END

*D_NET *293 0.00105226
*CONN
*I *2808:A1 I *D sky130_fd_sc_hd__o31a_1
*I *2802:X O *D sky130_fd_sc_hd__a21o_1
*CAP
1 *2808:A1 0.00026558
2 *2802:X 0.00026558
3 *2808:A1 *2572:A 6.01582e-05
4 *2808:A1 *2612:B 0
5 *2808:A1 *2626:A 0.000102196
6 *2808:A1 *2808:A2 7.22263e-05
7 *2808:A1 *299:22 5.922e-05
8 *2808:A1 *527:50 0
9 *2808:B1 *2808:A1 0.0002273
*RES
1 *2802:X *2808:A1 33.4571 
*END

*D_NET *294 0.00267411
*CONN
*I *2804:B1 I *D sky130_fd_sc_hd__a21o_1
*I *2803:X O *D sky130_fd_sc_hd__a22o_1
*CAP
1 *2804:B1 0.000781461
2 *2803:X 0.000781461
3 *2804:B1 *2557:B 0
4 *2804:B1 *2615:A1 0
5 *2804:B1 *2804:A1 0.000139913
6 *2804:B1 *2808:A2 5.52302e-05
7 *2804:B1 *3263:CLK 4.43256e-05
8 *2728:C *2804:B1 0.000204729
9 *2803:A2 *2804:B1 0.000309266
10 *2805:B1 *2804:B1 0.000222416
11 *3258:D *2804:B1 0.000135304
12 *3263:D *2804:B1 0
*RES
1 *2803:X *2804:B1 42.8857 
*END

*D_NET *295 0.00233746
*CONN
*I *2808:A2 I *D sky130_fd_sc_hd__o31a_1
*I *2804:X O *D sky130_fd_sc_hd__a21o_1
*CAP
1 *2808:A2 0.000712425
2 *2804:X 0.000712425
3 *2808:A2 *2804:A1 1.54142e-05
4 *2808:A2 *3263:CLK 0.000322848
5 *2808:A2 *3455:A 0
6 *2808:A2 *299:22 0.000136951
7 *2808:A2 *399:73 0
8 *2808:A2 *538:22 0
9 *2808:A2 *562:14 0.000148903
10 *2808:A2 *892:8 0.000129595
11 *2808:A2 *893:12 0
12 *2804:B1 *2808:A2 5.52302e-05
13 *2805:B1 *2808:A2 0
14 *2808:A1 *2808:A2 7.22263e-05
15 *2808:B1 *2808:A2 2.8616e-05
16 *3263:D *2808:A2 2.8266e-06
*RES
1 *2804:X *2808:A2 41.1 
*END

*D_NET *296 0.00249398
*CONN
*I *2807:B1 I *D sky130_fd_sc_hd__a211o_1
*I *2805:X O *D sky130_fd_sc_hd__a22o_1
*CAP
1 *2807:B1 0.000630617
2 *2805:X 0.000630617
3 *2807:B1 *2572:A 5.68722e-05
4 *2807:B1 *2572:B 9.90367e-05
5 *2807:B1 *2612:B 3.59472e-05
6 *2807:B1 *2622:B 8.283e-05
7 *2807:B1 *2626:A 0.000110237
8 *2807:B1 *2802:A2 0
9 *2807:B1 *2807:A1 5.69177e-05
10 *2807:B1 *2808:A3 3.62863e-05
11 *2807:B1 *527:50 0.000131342
12 *2807:B1 *528:28 3.32631e-05
13 *2807:B1 *538:22 2.14658e-05
14 *2805:B1 *2807:B1 0.000515246
15 *2807:A2 *2807:B1 5.33005e-05
*RES
1 *2805:X *2807:B1 42.6357 
*END

*D_NET *297 0.00181445
*CONN
*I *2807:C1 I *D sky130_fd_sc_hd__a211o_1
*I *2806:X O *D sky130_fd_sc_hd__a22o_1
*CAP
1 *2807:C1 0.000469858
2 *2806:X 0.000469858
3 *2807:C1 *2807:A1 0.000353086
4 *2807:C1 *3303:A 8.99214e-05
5 *2807:C1 *535:14 0.000358977
6 *2807:C1 *591:10 0
7 *215:108 *2807:C1 7.2754e-05
*RES
1 *2806:X *2807:C1 36.3679 
*END

*D_NET *298 0.00143607
*CONN
*I *2808:A3 I *D sky130_fd_sc_hd__o31a_1
*I *2807:X O *D sky130_fd_sc_hd__a211o_1
*CAP
1 *2808:A3 0.000292148
2 *2807:X 0.000292148
3 *2808:A3 *2567:B 4.87854e-05
4 *2808:A3 *2807:A1 0.00019187
5 *2808:A3 *328:71 5.33005e-05
6 *2808:A3 *350:118 0.000102184
7 *2808:A3 *527:50 0.000151816
8 *2808:A3 *538:22 5.52302e-05
9 *2807:A2 *2808:A3 5.52302e-05
10 *2807:B1 *2808:A3 3.62863e-05
11 *2808:B1 *2808:A3 5.33005e-05
12 *220:18 *2808:A3 0.00010377
*RES
1 *2807:X *2808:A3 34.6893 
*END

*D_NET *299 0.010398
*CONN
*I *2819:A2 I *D sky130_fd_sc_hd__o31a_1
*I *2808:X O *D sky130_fd_sc_hd__o31a_1
*CAP
1 *2819:A2 0.0017337
2 *2808:X 0.0014176
3 *299:22 0.00315131
4 *2819:A2 *2811:B2 0.000128496
5 *2819:A2 *2887:A 1.21258e-05
6 *2819:A2 *2935:B 1.58163e-05
7 *2819:A2 *2944:A1 4.21497e-05
8 *2819:A2 *2944:S 6.37237e-05
9 *2819:A2 *3448:A 0
10 *2819:A2 *400:6 0.000376634
11 *2819:A2 *893:35 7.35119e-05
12 *2819:A2 *918:6 0.000309266
13 *299:22 *2608:A1 3.30237e-05
14 *299:22 *2608:S 0.000313235
15 *299:22 *2609:A 1.98839e-05
16 *299:22 *2613:A0 0.000413778
17 *299:22 *2888:A1 0.000407917
18 *299:22 *2889:A 2.27416e-05
19 *299:22 *2935:B 8.15095e-05
20 *299:22 *3304:A 5.33005e-05
21 *299:22 *359:18 1.98839e-05
22 *299:22 *371:79 2.56527e-05
23 *299:22 *391:43 0
24 *299:22 *399:73 0.000286137
25 *299:22 *562:14 5.52302e-05
26 *299:22 *599:10 0.000528337
27 *299:22 *606:42 6.05161e-06
28 *2808:A1 *299:22 5.922e-05
29 *2808:A2 *299:22 0.000136951
30 *2819:A1 *2819:A2 0.000117874
31 *3149:D *299:22 4.01643e-05
32 *3281:D *2819:A2 7.90323e-05
33 *181:50 *299:22 9.04785e-05
34 *231:116 *2819:A2 0.000283272
*RES
1 *2808:X *299:22 45.8536 
2 *299:22 *2819:A2 38.4607 
*END

*D_NET *300 0.00325771
*CONN
*I *2810:C1 I *D sky130_fd_sc_hd__a221o_1
*I *2809:X O *D sky130_fd_sc_hd__a22o_1
*CAP
1 *2810:C1 0
2 *2809:X 0.00102285
3 *300:20 0.00102285
4 *300:20 *2731:A2 0.000137983
5 *300:20 *2809:A1 5.74499e-06
6 *300:20 *2809:B2 4.82865e-05
7 *300:20 *2810:B2 0
8 *300:20 *2954:A0 2.48266e-05
9 *300:20 *2954:A1 0.000114622
10 *300:20 *2954:S 5.49995e-05
11 *300:20 *2956:S 2.85321e-05
12 *300:20 *2963:A 7.51726e-05
13 *300:20 *3445:A 3.51442e-05
14 *300:20 *350:20 4.78056e-05
15 *300:20 *351:150 0
16 *300:20 *356:14 0.000121831
17 *300:20 *592:24 2.69397e-05
18 *300:20 *592:26 6.04069e-05
19 *300:20 *592:76 0.000142856
20 *3173:D *300:20 0.000223558
21 *211:47 *300:20 6.33089e-05
*RES
1 *2809:X *300:20 45.6393 
2 *300:20 *2810:C1 9.3 
*END

*D_NET *301 0.00129832
*CONN
*I *2817:A1 I *D sky130_fd_sc_hd__o21a_1
*I *2810:X O *D sky130_fd_sc_hd__a221o_1
*CAP
1 *2817:A1 0.000269793
2 *2810:X 0.000269793
3 *2817:A1 *511:10 0.000206325
4 *2817:A1 *619:62 0.000125724
5 *2817:A1 *796:30 0.000300955
6 *211:47 *2817:A1 0.000125724
*RES
1 *2810:X *2817:A1 35.5286 
*END

*D_NET *302 0.000918709
*CONN
*I *2812:C1 I *D sky130_fd_sc_hd__a221o_1
*I *2811:X O *D sky130_fd_sc_hd__a22o_1
*CAP
1 *2812:C1 0.000317286
2 *2811:X 0.000317286
3 *2812:C1 *2812:B2 2.85551e-05
4 *2812:C1 *3166:CLK 0
5 *2812:C1 *351:114 9.25014e-06
6 *2812:C1 *511:18 0.000104088
7 *2812:C1 *715:58 0
8 *2812:C1 *737:34 8.00806e-05
9 *2812:C1 *759:34 0
10 *2812:B1 *2812:C1 6.21632e-05
*RES
1 *2811:X *2812:C1 33.4571 
*END

*D_NET *303 0.00141414
*CONN
*I *2816:A I *D sky130_fd_sc_hd__or3_1
*I *2812:X O *D sky130_fd_sc_hd__a221o_1
*CAP
1 *2816:A 0.000361011
2 *2812:X 0.000361011
3 *2816:A *2736:A2 0
4 *2816:A *2736:B2 0
5 *2816:A *2812:A1 9.87672e-05
6 *2816:A *2812:B2 0.000114403
7 *2816:A *2816:C 3.47641e-06
8 *2816:A *2892:A1 7.83659e-05
9 *2816:A *3150:CLK 1.08192e-05
10 *2816:A *307:18 0.000195547
11 *2816:A *325:32 5.52238e-05
12 *2816:A *351:114 7.83659e-05
13 *187:112 *2816:A 5.71472e-05
*RES
1 *2812:X *2816:A 35.5821 
*END

*D_NET *304 0.00099809
*CONN
*I *2814:C1 I *D sky130_fd_sc_hd__a221o_1
*I *2813:X O *D sky130_fd_sc_hd__a22o_1
*CAP
1 *2814:C1 0.000170651
2 *2813:X 0.000170651
3 *2814:C1 *2814:B2 0.000190991
4 *2814:C1 *369:104 7.58841e-05
5 *2814:C1 *396:12 0.000328226
6 *2813:A2 *2814:C1 2.85234e-05
7 *181:75 *2814:C1 3.31626e-05
*RES
1 *2813:X *2814:C1 32.5107 
*END

*D_NET *305 0.00187606
*CONN
*I *2816:B I *D sky130_fd_sc_hd__or3_1
*I *2814:X O *D sky130_fd_sc_hd__a221o_1
*CAP
1 *2816:B 0.000437333
2 *2814:X 0.000437333
3 *2816:B *2816:C 7.83659e-05
4 *2816:B *2892:S 0.000312222
5 *2816:B *3168:CLK 0.000106147
6 *2816:B *325:32 1.39726e-05
7 *2816:B *345:79 1.33343e-05
8 *2816:B *369:132 3.01245e-06
9 *2816:B *715:58 4.61259e-05
10 *2734:A2 *2816:B 4.84319e-05
11 *2815:A2 *2816:B 2.56694e-05
12 *187:112 *2816:B 0.000354111
*RES
1 *2814:X *2816:B 45.7964 
*END

*D_NET *306 0.00144853
*CONN
*I *2816:C I *D sky130_fd_sc_hd__or3_1
*I *2815:X O *D sky130_fd_sc_hd__a22o_1
*CAP
1 *2816:C 0.000351164
2 *2815:X 0.000351164
3 *2816:C *2812:B2 0.000331488
4 *2816:C *2949:A 0.000226266
5 *2816:C *325:32 5.33005e-05
6 *2815:A2 *2816:C 0
7 *2816:A *2816:C 3.47641e-06
8 *2816:B *2816:C 7.83659e-05
9 *187:112 *2816:C 5.33005e-05
*RES
1 *2815:X *2816:C 34.6893 
*END

*D_NET *307 0.00388601
*CONN
*I *2817:A2 I *D sky130_fd_sc_hd__o21a_1
*I *2816:X O *D sky130_fd_sc_hd__or3_1
*CAP
1 *2817:A2 0
2 *2816:X 0.00124428
3 *307:18 0.00124428
4 *307:18 *2736:B2 1.65558e-05
5 *307:18 *2880:A 4.16473e-05
6 *307:18 *2881:A 1.58163e-05
7 *307:18 *3150:CLK 1.17968e-05
8 *307:18 *325:28 0.000114195
9 *307:18 *325:101 0.000260574
10 *307:18 *328:133 7.70035e-05
11 *307:18 *350:42 0
12 *307:18 *358:6 6.28241e-05
13 *307:18 *358:22 0.00029611
14 *307:18 *374:8 0.000137983
15 *307:18 *412:6 0.000167387
16 *2816:A *307:18 0.000195547
*RES
1 *2816:X *307:18 45.3893 
2 *307:18 *2817:A2 9.3 
*END

*D_NET *308 0.00218452
*CONN
*I *2819:A3 I *D sky130_fd_sc_hd__o31a_1
*I *2817:X O *D sky130_fd_sc_hd__o21a_1
*CAP
1 *2819:A3 0.0006526
2 *2817:X 0.0006526
3 *2819:A3 *2636:A 0.000467989
4 *2819:A3 *328:133 7.29712e-05
5 *2819:A3 *350:42 0
6 *2819:A3 *608:37 5.3254e-05
7 *2817:B1 *2819:A3 9.99853e-05
8 *3281:D *2819:A3 0.000185118
*RES
1 *2817:X *2819:A3 39.7607 
*END

*D_NET *309 0.00247316
*CONN
*I *2819:B1 I *D sky130_fd_sc_hd__o31a_1
*I *2818:X O *D sky130_fd_sc_hd__o21a_1
*CAP
1 *2819:B1 0.000616007
2 *2818:X 0.000616007
3 *2819:B1 *2633:A1 0.000271345
4 *2819:B1 *2818:A1 5.33433e-05
5 *2819:B1 *2837:A 5.49489e-05
6 *2819:B1 *3351:A 0.000166416
7 *2819:B1 *316:22 9.71197e-05
8 *2819:B1 *316:36 5.33005e-05
9 *2819:B1 *325:8 0.000182592
10 *3281:D *2819:B1 0.000362083
*RES
1 *2818:X *2819:B1 31.8857 
*END

*D_NET *310 0.00477635
*CONN
*I *2852:B I *D sky130_fd_sc_hd__and2_1
*I *2844:B I *D sky130_fd_sc_hd__nand2_1
*I *2825:A I *D sky130_fd_sc_hd__and2_1
*I *2642:B1 I *D sky130_fd_sc_hd__o21ai_1
*I *2824:A1 I *D sky130_fd_sc_hd__a32o_1
*I *2820:Y O *D sky130_fd_sc_hd__inv_2
*CAP
1 *2852:B 0.000192265
2 *2844:B 0.000205493
3 *2825:A 2.3923e-05
4 *2642:B1 6.3747e-05
5 *2824:A1 0.000104555
6 *2820:Y 0.000290452
7 *310:57 0.00064782
8 *310:36 0.000285852
9 *310:14 0.000239354
10 *310:12 0.000373372
11 *2642:B1 *2642:A1 9.24825e-05
12 *2642:B1 *2643:B1 8.87097e-05
13 *2642:B1 *3277:D 5.71472e-05
14 *2824:A1 *2824:A2 1.02504e-05
15 *2824:A1 *2824:B1 0
16 *2824:A1 *3285:RESET_B 0.000197977
17 *2824:A1 *590:138 0
18 *2825:A *2821:B 5.49489e-05
19 *2825:A *3318:A 5.01297e-05
20 *2844:B *2823:A 4.60235e-05
21 *2844:B *775:21 9.58181e-05
22 *2844:B *780:20 9.66977e-05
23 *2852:B *2847:A1 5.49489e-05
24 *2852:B *2852:A 0.000192411
25 *2852:B *775:14 0
26 *2852:B *780:30 4.60497e-05
27 *310:12 *2643:B1 8.48686e-05
28 *310:12 *2643:B2 5.49489e-05
29 *310:12 *2668:B 0
30 *310:12 *2821:B 4.73286e-05
31 *310:12 *2824:A3 9.83442e-05
32 *310:12 *3318:A 1.10868e-05
33 *310:12 *780:30 3.08664e-05
34 *310:12 *780:37 0.000204509
35 *310:14 *2642:A1 2.40107e-05
36 *310:14 *2643:B1 0.000309434
37 *310:14 *3318:A 1.69142e-05
38 *310:57 *3318:A 0
39 *310:57 *779:10 7.54868e-05
40 *310:57 *779:14 5.33614e-05
41 *310:57 *780:30 0.000201375
42 *2643:A2 *310:12 5.33882e-05
43 *159:20 *2852:B 0
44 *159:20 *310:57 0
*RES
1 *2820:Y *310:12 25.1036 
2 *310:12 *310:14 3 
3 *310:14 *2824:A1 20.8536 
4 *310:14 *2642:B1 11.9071 
5 *310:12 *310:36 0.428571 
6 *310:36 *2825:A 11.1304 
7 *310:36 *310:57 9.53571 
8 *310:57 *2844:B 17.9607 
9 *310:57 *2852:B 17.4964 
*END

*D_NET *311 0.00233863
*CONN
*I *2643:B2 I *D sky130_fd_sc_hd__a22o_1
*I *2824:A3 I *D sky130_fd_sc_hd__a32o_1
*I *2821:X O *D sky130_fd_sc_hd__or2_1
*CAP
1 *2643:B2 0.000312185
2 *2824:A3 0.000435916
3 *2821:X 0
4 *311:4 0.0007481
5 *2643:B2 *2643:A1 5.47564e-05
6 *2643:B2 *2643:B1 5.52302e-05
7 *2643:B2 *2820:A 3.99614e-06
8 *2643:B2 *596:44 8.55987e-05
9 *2824:A3 *2643:A1 1.25866e-05
10 *2824:A3 *2643:B1 5.00805e-05
11 *2824:A3 *2677:A 8.06561e-05
12 *2824:A3 *2824:B1 0.000102825
13 *2824:A3 *2824:B2 0.000198355
14 *2643:A2 *2643:B2 4.30073e-05
15 *3285:D *2643:B2 2.04275e-06
16 *159:20 *2824:A3 0
17 *310:12 *2643:B2 5.49489e-05
18 *310:12 *2824:A3 9.83442e-05
*RES
1 *2821:X *311:4 9.3 
2 *311:4 *2824:A3 27.7643 
3 *311:4 *2643:B2 23.8893 
*END

*D_NET *312 0.00618288
*CONN
*I *2846:B I *D sky130_fd_sc_hd__nand2_1
*I *2823:D I *D sky130_fd_sc_hd__and4_1
*I *2865:A1 I *D sky130_fd_sc_hd__a21o_1
*I *2822:X O *D sky130_fd_sc_hd__and4_1
*CAP
1 *2846:B 4.90089e-05
2 *2823:D 0.000615662
3 *2865:A1 0.000119533
4 *2822:X 0.000872468
5 *312:27 0.001175
6 *312:10 0.00150233
7 *2823:D *2847:A2 6.555e-05
8 *2823:D *313:10 4.89867e-05
9 *2823:D *334:10 0
10 *2823:D *596:12 5.30637e-06
11 *2823:D *674:20 0
12 *2846:B *2847:A2 7.95687e-05
13 *2846:B *2853:A 5.36422e-05
14 *2846:B *2868:B 9.15842e-06
15 *2846:B *332:8 5.33005e-05
16 *2846:B *774:76 5.33005e-05
17 *2865:A1 *2866:B 4.27842e-06
18 *2865:A1 *3316:A 0.000141935
19 *312:10 *3274:CLK 0
20 *312:10 *3317:A 3.13838e-05
21 *312:10 *334:55 0
22 *312:27 *2853:A 0.000166287
23 *312:27 *2865:B1 0.00053495
24 *312:27 *2866:B 7.48554e-05
25 *312:27 *346:10 9.56282e-05
26 *312:27 *674:20 2.50403e-05
27 *2823:C *2823:D 0.00027068
28 *2847:B1 *2823:D 0.000135028
29 *2848:B1_N *2823:D 0
*RES
1 *2822:X *312:10 28.2018 
2 *312:10 *2865:A1 15.7375 
3 *312:10 *312:27 10.7321 
4 *312:27 *2823:D 22.5768 
5 *312:27 *2846:B 15.5232 
*END

*D_NET *313 0.00280769
*CONN
*I *2642:A2 I *D sky130_fd_sc_hd__o21ai_1
*I *2824:B1 I *D sky130_fd_sc_hd__a32o_1
*I *2823:X O *D sky130_fd_sc_hd__and4_1
*CAP
1 *2642:A2 2.25053e-05
2 *2824:B1 0.00037854
3 *2823:X 0.000419459
4 *313:10 0.000820504
5 *2642:A2 *2642:A1 1.58163e-05
6 *2642:A2 *3277:D 5.33005e-05
7 *2824:B1 *590:138 0.000200406
8 *313:10 *3278:D 0.000186669
9 *313:10 *3285:RESET_B 0
10 *313:10 *590:138 0.000350859
11 *313:10 *596:12 5.52302e-05
12 *313:10 *674:20 0
13 *313:10 *775:14 9.93569e-05
14 *313:10 *775:21 2.36643e-05
15 *2823:D *313:10 4.89867e-05
16 *2824:A1 *2824:B1 0
17 *2824:A3 *2824:B1 0.000102825
18 *2847:B1 *313:10 2.95726e-05
*RES
1 *2823:X *313:10 23.5321 
2 *313:10 *2824:B1 21.0054 
3 *313:10 *2642:A2 14.3357 
*END

*D_NET *314 0.000515874
*CONN
*I *2826:A I *D sky130_fd_sc_hd__buf_1
*I *2825:X O *D sky130_fd_sc_hd__and2_1
*CAP
1 *2826:A 0.000147525
2 *2825:X 0.000147525
3 *2826:A *3318:A 9.74665e-05
4 *2826:A *780:30 0.000123359
*RES
1 *2825:X *2826:A 30.1893 
*END

*D_NET *315 0.00512589
*CONN
*I *2652:A2 I *D sky130_fd_sc_hd__o21ai_1
*I *2828:A I *D sky130_fd_sc_hd__buf_2
*I *3116:A I *D sky130_fd_sc_hd__clkbuf_4
*I *2871:A I *D sky130_fd_sc_hd__clkbuf_4
*I *2827:X O *D sky130_fd_sc_hd__xor2_2
*CAP
1 *2652:A2 0
2 *2828:A 0
3 *3116:A 0.000146191
4 *2871:A 6.78523e-05
5 *2827:X 0.000670266
6 *315:39 0.000301137
7 *315:22 0.000531007
8 *315:12 0.000978473
9 *2871:A *350:20 0.000112801
10 *3116:A *796:30 0.000116757
11 *315:12 *2654:A1 0.00070156
12 *315:22 *2653:A2 0.000519869
13 *315:22 *350:20 5.52302e-05
14 *315:22 *592:102 6.87574e-05
15 *315:22 *682:14 0
16 *315:22 *796:16 3.92757e-05
17 *315:39 *2639:A 4.46186e-06
18 *315:39 *2640:A0 0
19 *315:39 *316:22 6.05161e-06
20 *315:39 *359:83 9.01334e-05
21 *315:39 *796:30 1.39726e-05
22 *2639:B *315:22 0.000227539
23 *3293:D *315:12 3.85645e-05
24 *3294:D *315:12 0
25 *163:32 *315:12 3.42301e-05
26 *163:32 *315:22 0.000401764
*RES
1 *2827:X *315:12 28.7643 
2 *315:12 *315:22 18.3929 
3 *315:22 *2871:A 10.9786 
4 *315:22 *315:39 11.7857 
5 *315:39 *3116:A 12.3 
6 *315:39 *2828:A 9.3 
7 *315:12 *2652:A2 9.3 
*END

*D_NET *316 0.0302736
*CONN
*I *2640:A0 I *D sky130_fd_sc_hd__mux2_1
*I *2633:A0 I *D sky130_fd_sc_hd__mux2_1
*I *2628:A0 I *D sky130_fd_sc_hd__mux2_1
*I *2593:A0 I *D sky130_fd_sc_hd__mux2_1
*I *2623:A0 I *D sky130_fd_sc_hd__mux2_1
*I *2613:A0 I *D sky130_fd_sc_hd__mux2_1
*I *2608:A0 I *D sky130_fd_sc_hd__mux2_1
*I *2839:A1 I *D sky130_fd_sc_hd__mux2_1
*I *2618:A0 I *D sky130_fd_sc_hd__mux2_1
*I *2603:A0 I *D sky130_fd_sc_hd__mux2_1
*I *2828:X O *D sky130_fd_sc_hd__buf_2
*CAP
1 *2640:A0 0.000485011
2 *2633:A0 0
3 *2628:A0 0.000430769
4 *2593:A0 5.01078e-05
5 *2623:A0 0.00120973
6 *2613:A0 0.000666826
7 *2608:A0 0
8 *2839:A1 0.000195768
9 *2618:A0 0.000554054
10 *2603:A0 0
11 *2828:X 0
12 *316:89 0.000999338
13 *316:78 0.000765767
14 *316:72 0.000572767
15 *316:70 0.0012019
16 *316:60 0.00277987
17 *316:46 0.00213763
18 *316:36 0.00217933
19 *316:22 0.00200596
20 *316:4 0.00173835
21 *2593:A0 *2918:C 4.96722e-05
22 *2613:A0 *2608:A1 3.57366e-05
23 *2613:A0 *2612:B 0
24 *2613:A0 *2613:A1 5.57989e-05
25 *2613:A0 *2615:S 1.39841e-05
26 *2613:A0 *538:22 4.43698e-05
27 *2613:A0 *562:14 0.000150485
28 *2618:A0 *2805:B2 4.25809e-05
29 *2618:A0 *358:22 0
30 *2618:A0 *528:72 0.000273269
31 *2618:A0 *528:82 0.000440711
32 *2623:A0 *2623:A1 6.57032e-05
33 *2623:A0 *2623:S 8.43535e-06
34 *2623:A0 *2625:A1 0.000195993
35 *2623:A0 *3267:CLK 1.84776e-05
36 *2623:A0 *568:6 3.69047e-06
37 *2623:A0 *848:8 6.13757e-06
38 *2628:A0 *2595:A0 7.54868e-05
39 *2628:A0 *2628:A1 5.65955e-05
40 *2628:A0 *2628:S 2.36643e-05
41 *2628:A0 *2631:A 1.26938e-05
42 *2628:A0 *2877:B 3.12359e-05
43 *2628:A0 *322:10 0
44 *2628:A0 *350:42 0.000130607
45 *2628:A0 *571:18 0
46 *2640:A0 *2651:B 4.46186e-06
47 *2640:A0 *359:83 0
48 *2640:A0 *630:12 0
49 *2640:A0 *796:30 2.98016e-05
50 *2839:A1 *2605:A1 4.88546e-05
51 *2839:A1 *2797:B2 0.000272603
52 *2839:A1 *2839:A0 3.4796e-05
53 *2839:A1 *2839:S 1.17091e-05
54 *2839:A1 *358:22 6.61386e-05
55 *2839:A1 *924:8 0.000180249
56 *316:22 *2633:S 7.83587e-05
57 *316:22 *2650:A 0
58 *316:22 *2651:B 0
59 *316:22 *3271:CLK 0.000137535
60 *316:22 *3280:CLK 0.000255048
61 *316:22 *3281:RESET_B 0
62 *316:22 *3351:A 6.42338e-05
63 *316:22 *356:14 3.57844e-05
64 *316:22 *359:83 0.000310031
65 *316:22 *796:30 4.46231e-06
66 *316:36 *2877:B 0.000131553
67 *316:36 *323:26 0.000369286
68 *316:36 *328:149 0.000230777
69 *316:36 *350:42 6.51048e-05
70 *316:36 *356:14 0.000308592
71 *316:36 *415:52 0.000579913
72 *316:46 *2790:A1 0.00027514
73 *316:46 *2877:B 0.000310328
74 *316:46 *2918:B 0.000271066
75 *316:46 *2997:A 0.000189471
76 *316:46 *370:33 7.2266e-05
77 *316:46 *715:47 0.000140734
78 *316:46 *827:10 0.000137639
79 *316:60 *2747:A1 0.000357466
80 *316:60 *2913:A0 0.000222686
81 *316:60 *2914:A 0.000511868
82 *316:60 *2918:A 2.85321e-05
83 *316:60 *2918:B 3.24049e-05
84 *316:60 *3437:A 0.000127779
85 *316:60 *385:10 2.2131e-05
86 *316:60 *395:53 0.000134037
87 *316:60 *532:18 6.93695e-05
88 *316:70 *2805:B2 5.10215e-05
89 *316:70 *395:53 2.02794e-05
90 *316:70 *528:28 6.70761e-05
91 *316:70 *600:26 6.84743e-05
92 *316:70 *748:24 0
93 *316:72 *2805:B2 2.79092e-05
94 *316:72 *748:24 0
95 *316:78 *2605:A1 9.90367e-05
96 *316:78 *2605:S 9.76689e-05
97 *316:78 *2805:B2 0.000168125
98 *316:78 *328:44 0
99 *316:78 *511:30 0.000140011
100 *316:78 *599:12 0
101 *316:78 *748:24 0
102 *316:89 *2603:A1 5.52238e-05
103 *316:89 *2605:S 5.33334e-05
104 *316:89 *2805:B2 0.000129314
105 *316:89 *328:30 0
106 *316:89 *358:22 0
107 *2639:B *2640:A0 2.84398e-05
108 *2727:B1 *2623:A0 0.000106427
109 *2755:A2 *2628:A0 0.000141734
110 *2757:B1 *2593:A0 7.89362e-05
111 *2757:B1 *316:46 9.47378e-05
112 *2790:A2 *316:46 1.98839e-05
113 *2798:A3 *316:60 4.60232e-06
114 *2799:C1 *316:60 7.69776e-06
115 *2808:B1 *2613:A0 2.80412e-05
116 *2819:B1 *316:22 9.71197e-05
117 *2819:B1 *316:36 5.33005e-05
118 *3156:D *316:60 8.80339e-05
119 *3260:D *316:78 5.35423e-05
120 *3261:D *316:78 0
121 *3267:D *2623:A0 6.32651e-06
122 *3269:D *2628:A0 7.7159e-06
123 *3281:D *316:22 4.43256e-05
124 *3281:D *316:36 2.89016e-05
125 *174:69 *2593:A0 9.93918e-06
126 *174:104 *316:60 0.000465712
127 *174:112 *2623:A0 0.000309311
128 *181:50 *316:60 0.000126374
129 *181:50 *316:70 0.000214617
130 *208:58 *2839:A1 0.000753598
131 *211:47 *316:22 0
132 *211:71 *316:36 9.55263e-05
133 *211:85 *316:60 4.14351e-05
134 *215:108 *316:70 0
135 *218:42 *2623:A0 9.8126e-05
136 *222:26 *316:36 2.21047e-05
137 *254:28 *2628:A0 1.90936e-05
138 *299:22 *2613:A0 0.000413778
139 *315:39 *2640:A0 0
140 *315:39 *316:22 6.05161e-06
*RES
1 *2828:X *316:4 9.3 
2 *316:4 *316:22 38.8214 
3 *316:22 *316:36 22.1247 
4 *316:36 *316:46 24.8036 
5 *316:46 *316:60 30.3389 
6 *316:60 *316:70 18.2143 
7 *316:70 *316:72 1.03571 
8 *316:72 *316:78 15.8036 
9 *316:78 *2603:A0 9.3 
10 *316:78 *316:89 10.125 
11 *316:89 *2618:A0 22.1393 
12 *316:89 *2839:A1 22.6929 
13 *316:72 *2608:A0 13.8 
14 *316:70 *2613:A0 35.425 
15 *316:60 *2623:A0 39.1571 
16 *316:46 *2593:A0 19.6393 
17 *316:36 *2628:A0 22.4786 
18 *316:22 *2633:A0 9.3 
19 *316:4 *2640:A0 24.6571 
*END

*D_NET *317 0.0107994
*CONN
*I *2952:A I *D sky130_fd_sc_hd__or3_4
*I *2958:A I *D sky130_fd_sc_hd__or3_2
*I *2946:A I *D sky130_fd_sc_hd__or3_4
*I *2898:D_N I *D sky130_fd_sc_hd__or4b_4
*I *2928:B I *D sky130_fd_sc_hd__or3b_4
*I *2905:D_N I *D sky130_fd_sc_hd__or4b_4
*I *2934:B I *D sky130_fd_sc_hd__or3b_2
*I *2911:D_N I *D sky130_fd_sc_hd__or4b_2
*I *2863:B2 I *D sky130_fd_sc_hd__a2bb2o_1
*I *2833:A I *D sky130_fd_sc_hd__nand2_2
*I *2829:X O *D sky130_fd_sc_hd__buf_2
*CAP
1 *2952:A 2.20512e-05
2 *2958:A 0
3 *2946:A 7.22749e-05
4 *2898:D_N 0
5 *2928:B 0
6 *2905:D_N 1.98239e-05
7 *2934:B 0.000131928
8 *2911:D_N 2.25053e-05
9 *2863:B2 5.58061e-05
10 *2833:A 0.000159784
11 *2829:X 3.34544e-05
12 *317:113 0.000177934
13 *317:72 0.000578173
14 *317:66 0.000777081
15 *317:54 0.00064398
16 *317:52 0.000385189
17 *317:48 0.000642615
18 *317:38 0.000692658
19 *317:25 0.000345277
20 *317:6 0.000274333
21 *2833:A *2833:B 4.87854e-05
22 *2833:A *3276:CLK 8.21418e-05
23 *2833:A *319:44 6.07943e-05
24 *2863:B2 *3300:A 0.00017309
25 *2905:D_N *447:12 3.49456e-06
26 *2911:D_N *3190:CLK 1.58163e-05
27 *2911:D_N *321:28 5.33005e-05
28 *2934:B *2934:A 3.36635e-05
29 *2934:B *321:22 0
30 *2934:B *380:10 2.84494e-05
31 *2946:A *2958:C 0
32 *2946:A *336:23 1.39726e-05
33 *2946:A *336:25 0.000126639
34 *2946:A *340:43 0.000188586
35 *2946:A *340:53 9.90431e-05
36 *317:6 *2833:B 2.89114e-05
37 *317:25 *2851:B_N 5.12344e-05
38 *317:25 *3300:A 9.25014e-06
39 *317:38 *2952:C 9.60939e-05
40 *317:38 *3141:CLK 0.000178847
41 *317:38 *340:27 2.39999e-05
42 *317:38 *340:29 1.03037e-05
43 *317:38 *407:8 0.000249017
44 *317:38 *595:10 1.98839e-05
45 *317:48 *2874:A 5.52238e-05
46 *317:48 *2874:B 2.14757e-05
47 *317:48 *2917:A 0.000202739
48 *317:48 *2917:B 2.15613e-05
49 *317:48 *2917:C 1.10868e-05
50 *317:48 *340:29 2.27766e-05
51 *317:48 *340:41 3.30871e-05
52 *317:48 *407:8 9.91383e-05
53 *317:48 *773:59 0.000126771
54 *317:52 *2874:B 3.89749e-05
55 *317:54 *2898:B 6.12642e-05
56 *317:54 *2898:C 5.33005e-05
57 *317:54 *2971:B 2.59355e-05
58 *317:54 *340:53 8.27532e-05
59 *317:54 *340:61 0.000522023
60 *317:54 *370:119 5.33005e-05
61 *317:54 *371:16 5.52238e-05
62 *317:54 *419:158 4.43256e-05
63 *317:66 *2971:B 3.08382e-06
64 *317:66 *3015:S 6.22396e-05
65 *317:66 *340:61 4.24573e-05
66 *317:66 *340:88 0
67 *317:66 *419:158 0.000137983
68 *317:66 *432:46 9.96264e-05
69 *317:66 *447:12 1.24368e-05
70 *317:66 *678:12 0.00036417
71 *317:66 *759:12 1.81805e-05
72 *317:72 *2905:A 0.000223675
73 *317:72 *3015:S 2.38501e-05
74 *317:72 *3095:A 2.12647e-05
75 *317:72 *370:88 3.73408e-05
76 *317:72 *380:10 0.000111921
77 *317:72 *474:49 0.000145858
78 *317:72 *498:10 5.49489e-05
79 *317:113 *2875:B 0.000149554
80 *317:113 *2946:C 5.26291e-05
81 *317:113 *340:53 0
82 *317:113 *677:18 1.01075e-05
83 *3190:D *317:66 0.000230208
84 *183:56 *2934:B 0.00022484
85 *183:56 *317:72 0.000237278
86 *215:68 *2833:A 4.18238e-05
87 *215:68 *2863:B2 0.00017309
88 *215:68 *317:25 0.000159689
*RES
1 *2829:X *317:6 9.83571 
2 *317:6 *2833:A 21.2286 
3 *317:6 *317:25 6.75 
4 *317:25 *2863:B2 16.05 
5 *317:25 *317:38 9.14286 
6 *317:38 *317:48 8.21429 
7 *317:48 *317:52 1.375 
8 *317:52 *317:54 7.51786 
9 *317:54 *317:66 17.125 
10 *317:66 *317:72 13.5357 
11 *317:72 *2911:D_N 14.3357 
12 *317:72 *2934:B 16.9607 
13 *317:66 *2905:D_N 9.72857 
14 *317:54 *2928:B 9.3 
15 *317:52 *2898:D_N 9.3 
16 *317:48 *317:113 11.25 
17 *317:113 *2946:A 12.3179 
18 *317:113 *2958:A 9.3 
19 *317:38 *2952:A 9.72857 
*END

*D_NET *318 0.0099345
*CONN
*I *2857:A1 I *D sky130_fd_sc_hd__a31o_1
*I *2849:A1 I *D sky130_fd_sc_hd__o21ai_1
*I *2850:A1 I *D sky130_fd_sc_hd__o21a_1
*I *2964:A I *D sky130_fd_sc_hd__or4_2
*I *2917:A I *D sky130_fd_sc_hd__or4b_2
*I *2890:A I *D sky130_fd_sc_hd__or3_2
*I *2940:A I *D sky130_fd_sc_hd__or4b_4
*I *2860:A I *D sky130_fd_sc_hd__nand2_1
*I *2832:A I *D sky130_fd_sc_hd__and3_1
*I *2851:B_N I *D sky130_fd_sc_hd__or2b_1
*I *2830:X O *D sky130_fd_sc_hd__buf_2
*CAP
1 *2857:A1 0
2 *2849:A1 0.000238254
3 *2850:A1 7.33266e-05
4 *2964:A 0
5 *2917:A 7.8283e-05
6 *2890:A 8.4342e-05
7 *2940:A 0.00022058
8 *2860:A 0
9 *2832:A 0
10 *2851:B_N 0.000346936
11 *2830:X 0
12 *318:123 0.000760694
13 *318:117 0.000599454
14 *318:84 0.000287743
15 *318:62 0.000476885
16 *318:52 0.000413688
17 *318:50 0.000722799
18 *318:10 0.00139601
19 *318:4 0.000508882
20 *2849:A1 *2849:B1 1.3701e-05
21 *2849:A1 *334:65 0.000107155
22 *2850:A1 *2858:A 0
23 *2850:A1 *334:76 0.000125724
24 *2851:B_N *2829:A 4.19624e-06
25 *2851:B_N *2851:A 0.000154578
26 *2851:B_N *2854:A1_N 3.11088e-05
27 *2851:B_N *3300:A 0.000177183
28 *2851:B_N *3316:A 6.69271e-05
29 *2851:B_N *319:10 2.75651e-06
30 *2851:B_N *319:12 2.31124e-05
31 *2890:A *340:41 0.000165011
32 *2890:A *415:27 0.000165011
33 *2917:A *2917:B 2.55806e-05
34 *2917:A *2917:C 6.46276e-05
35 *2940:A *2940:B 0.000139637
36 *2940:A *399:12 4.543e-05
37 *2940:A *677:18 0.000194698
38 *318:10 *2829:A 3.45321e-05
39 *318:10 *2873:A 0.000161868
40 *318:10 *3138:CLK 2.89114e-05
41 *318:10 *319:10 3.64354e-05
42 *318:10 *770:14 7.48301e-06
43 *318:50 *2862:A 4.7854e-05
44 *318:50 *2964:C 2.05695e-05
45 *318:50 *2964:D 8.6229e-06
46 *318:50 *3066:A0 0.000124415
47 *318:50 *321:22 5.0437e-05
48 *318:52 *2862:A 3.97677e-05
49 *318:52 *321:22 7.61603e-05
50 *318:62 *2861:A 0.000211877
51 *318:62 *2862:A 6.21402e-05
52 *318:62 *321:22 0.000149852
53 *318:62 *343:10 7.09043e-05
54 *318:62 *677:18 5.59013e-05
55 *318:62 *772:67 2.36643e-05
56 *318:62 *773:49 5.47001e-05
57 *318:62 *773:59 5.47047e-05
58 *318:84 *340:41 6.56632e-05
59 *318:84 *415:27 0.000206002
60 *318:84 *773:49 1.88177e-05
61 *318:117 *2854:B1 4.1331e-06
62 *318:117 *3138:CLK 4.87854e-05
63 *318:117 *663:34 0
64 *318:123 *2854:B1 4.25809e-05
65 *318:123 *334:65 1.92905e-05
66 *3138:D *318:117 2.56601e-05
67 *3139:D *318:117 0.000139653
68 *3139:D *318:123 7.48268e-05
69 *211:10 *2851:B_N 0
70 *215:68 *2851:B_N 0
71 *218:12 *2940:A 0
72 *218:12 *318:62 0
73 *317:25 *2851:B_N 5.12344e-05
74 *317:48 *2917:A 0.000202739
*RES
1 *2830:X *318:4 9.3 
2 *318:4 *318:10 9.8125 
3 *318:10 *2851:B_N 22.3268 
4 *318:10 *2832:A 13.8 
5 *318:10 *318:50 14.2439 
6 *318:50 *318:52 0.946429 
7 *318:52 *318:62 10.7321 
8 *318:62 *2860:A 13.8 
9 *318:62 *2940:A 18.5321 
10 *318:52 *318:84 7.35714 
11 *318:84 *2890:A 16.05 
12 *318:84 *2917:A 16.425 
13 *318:50 *2964:A 9.3 
14 *318:4 *318:117 7.39286 
15 *318:117 *318:123 10.375 
16 *318:123 *2850:A1 19.9429 
17 *318:123 *2849:A1 12.925 
18 *318:117 *2857:A1 13.8 
*END

*D_NET *319 0.010268
*CONN
*I *2857:A2 I *D sky130_fd_sc_hd__a31o_1
*I *2854:B1 I *D sky130_fd_sc_hd__a2bb2o_1
*I *2873:B_N I *D sky130_fd_sc_hd__or2b_1
*I *2964:B I *D sky130_fd_sc_hd__or4_2
*I *2940:B I *D sky130_fd_sc_hd__or4b_4
*I *2860:B I *D sky130_fd_sc_hd__nand2_1
*I *2917:B I *D sky130_fd_sc_hd__or4b_2
*I *2890:B I *D sky130_fd_sc_hd__or3_2
*I *2832:B I *D sky130_fd_sc_hd__and3_1
*I *2851:A I *D sky130_fd_sc_hd__or2b_1
*I *2831:X O *D sky130_fd_sc_hd__clkbuf_2
*CAP
1 *2857:A2 0
2 *2854:B1 0.000255876
3 *2873:B_N 0
4 *2964:B 0
5 *2940:B 0.000191989
6 *2860:B 0
7 *2917:B 0.000117924
8 *2890:B 0.000166741
9 *2832:B 4.16687e-05
10 *2851:A 0.000294111
11 *2831:X 0.00035323
12 *319:128 0.000481911
13 *319:88 0.000764298
14 *319:56 0.000340083
15 *319:54 0.000726069
16 *319:50 0.000318951
17 *319:44 0.000539851
18 *319:34 0.000545275
19 *319:12 0.000368016
20 *319:10 0.000385466
21 *2832:B *2833:B 2.89016e-05
22 *2851:A *2854:A1_N 0.000141941
23 *2851:A *2856:A 0.000310307
24 *2854:B1 *2850:B1 0
25 *2854:B1 *2854:A2_N 5.7661e-06
26 *2854:B1 *2854:B2 5.52302e-05
27 *2854:B1 *2855:A1 9.90367e-05
28 *2854:B1 *2857:A3 5.52238e-05
29 *2854:B1 *2863:B1 3.32731e-05
30 *2854:B1 *338:29 3.4879e-05
31 *2854:B1 *663:34 0.00021262
32 *2854:B1 *663:40 0.000127439
33 *2890:B *2875:A 3.10821e-05
34 *2890:B *352:20 0
35 *2890:B *415:27 0.000286553
36 *2917:B *2917:C 5.65955e-05
37 *2917:B *340:41 0.000135028
38 *2917:B *772:82 1.21436e-05
39 *2940:B *2940:C 2.32897e-05
40 *2940:B *3047:A 8.77919e-05
41 *2940:B *677:18 0.000161765
42 *319:10 *2829:A 0
43 *319:10 *2856:A 3.34366e-05
44 *319:10 *3276:CLK 0
45 *319:10 *663:8 0
46 *319:10 *663:92 0
47 *319:10 *772:18 0.000117196
48 *319:10 *772:20 0.000162125
49 *319:10 *773:24 0
50 *319:12 *2856:A 7.90803e-05
51 *319:44 *2829:A 5.33005e-05
52 *319:44 *2832:C 2.46525e-05
53 *319:44 *2833:B 0.000273546
54 *319:44 *321:22 5.52238e-05
55 *319:50 *2833:B 0
56 *319:50 *2862:A 9.58181e-05
57 *319:50 *321:22 0.00011432
58 *319:54 *2862:A 0.000140088
59 *319:56 *2964:D 2.34204e-05
60 *319:56 *352:12 0
61 *319:56 *415:27 9.1144e-05
62 *319:88 *2941:B 1.91871e-05
63 *319:88 *2964:D 1.08601e-05
64 *319:88 *3047:A 2.30314e-05
65 *319:88 *3066:A0 8.38323e-05
66 *319:88 *415:27 3.29754e-05
67 *319:88 *677:18 4.46689e-05
68 *319:128 *2832:C 3.17016e-05
69 *319:128 *2833:B 4.08637e-05
70 *319:128 *2855:A1 7.0606e-05
71 *319:128 *2857:B1 0.000144875
72 *2833:A *319:44 6.07943e-05
73 *2851:B_N *2851:A 0.000154578
74 *2851:B_N *319:10 2.75651e-06
75 *2851:B_N *319:12 2.31124e-05
76 *2917:A *2917:B 2.55806e-05
77 *2940:A *2940:B 0.000139637
78 *3139:D *2854:B1 0
79 *211:10 *2851:A 7.25296e-05
80 *211:10 *319:10 0.00012798
81 *317:48 *2917:B 2.15613e-05
82 *318:10 *319:10 3.64354e-05
83 *318:117 *2854:B1 4.1331e-06
84 *318:123 *2854:B1 4.25809e-05
*RES
1 *2831:X *319:10 21.4429 
2 *319:10 *319:12 1.03571 
3 *319:12 *2851:A 21.05 
4 *319:12 *2832:B 14.3357 
5 *319:10 *319:34 4.5 
6 *319:34 *319:44 6.57143 
7 *319:44 *319:50 3.75 
8 *319:50 *319:54 5.85714 
9 *319:54 *319:56 1.33929 
10 *319:56 *2890:B 17.5679 
11 *319:56 *2917:B 16.4071 
12 *319:54 *319:88 9.28409 
13 *319:88 *2860:B 13.8 
14 *319:88 *2940:B 18.55 
15 *319:50 *2964:B 9.3 
16 *319:44 *2873:B_N 9.3 
17 *319:34 *319:128 4.92857 
18 *319:128 *2854:B1 25.425 
19 *319:128 *2857:A2 9.3 
*END

*D_NET *320 0.0025256
*CONN
*I *2855:A1 I *D sky130_fd_sc_hd__o21ai_1
*I *2833:B I *D sky130_fd_sc_hd__nand2_2
*I *2832:X O *D sky130_fd_sc_hd__and3_1
*CAP
1 *2855:A1 0.000451106
2 *2833:B 0.000180753
3 *2832:X 0
4 *320:4 0.000631858
5 *2833:B *2829:A 5.52302e-05
6 *2855:A1 *2855:B1 7.17509e-05
7 *2855:A1 *2857:A3 4.27437e-05
8 *2855:A1 *2857:B1 0.000180777
9 *2855:A1 *2858:B 9.71197e-05
10 *2855:A1 *334:76 4.52937e-05
11 *2855:A1 *663:34 0.000103256
12 *2855:A1 *663:40 7.50601e-05
13 *2832:B *2833:B 2.89016e-05
14 *2833:A *2833:B 4.87854e-05
15 *2854:B1 *2855:A1 9.90367e-05
16 *317:6 *2833:B 2.89114e-05
17 *319:44 *2833:B 0.000273546
18 *319:50 *2833:B 0
19 *319:128 *2833:B 4.08637e-05
20 *319:128 *2855:A1 7.0606e-05
*RES
1 *2832:X *320:4 9.3 
2 *320:4 *2833:B 13.9786 
3 *320:4 *2855:A1 28.1393 
*END

*D_NET *321 0.0335314
*CONN
*I *2973:A I *D sky130_fd_sc_hd__nor2_1
*I *2838:A I *D sky130_fd_sc_hd__nor2_1
*I *2557:A I *D sky130_fd_sc_hd__or2_1
*I *3060:A I *D sky130_fd_sc_hd__nor2_1
*I *2833:Y O *D sky130_fd_sc_hd__nand2_2
*CAP
1 *2973:A 0
2 *2838:A 0.000262187
3 *2557:A 0
4 *3060:A 0.00223614
5 *2833:Y 0.00177638
6 *321:75 0.0017091
7 *321:63 0.00654597
8 *321:34 0.00682108
9 *321:28 0.000566297
10 *321:22 0.00233242
11 *2838:A *2602:A 8.57023e-05
12 *2838:A *2797:B2 0
13 *2838:A *3151:CLK 0.000131472
14 *2838:A *359:18 0
15 *2838:A *511:18 9.71197e-05
16 *3060:A *3060:B 2.83284e-06
17 *3060:A *3070:A 0.00117297
18 *3060:A *3080:A 0.00121405
19 *321:22 *2861:A 4.13595e-05
20 *321:22 *2861:C_N 9.60875e-05
21 *321:22 *2862:A 3.47798e-05
22 *321:22 *2911:A 0.000168519
23 *321:22 *2911:C 3.57366e-05
24 *321:22 *3015:A0 3.38861e-06
25 *321:22 *3016:A 0.00017282
26 *321:22 *3052:A 0.00022511
27 *321:22 *3398:A 0.000102676
28 *321:22 *343:10 7.02611e-05
29 *321:22 *376:14 6.58989e-05
30 *321:22 *419:158 7.64153e-05
31 *321:22 *421:12 9.80173e-05
32 *321:22 *772:67 9.66977e-05
33 *321:28 *2707:A1 0.000177545
34 *321:28 *2911:A 5.52238e-05
35 *321:28 *2934:A 9.60875e-05
36 *321:28 *2974:S 0.000136951
37 *321:28 *3190:CLK 8.32332e-05
38 *321:28 *380:10 5.52238e-05
39 *321:34 *2770:A1 2.06112e-05
40 *321:34 *3001:A1 1.90936e-05
41 *321:63 *2797:B2 0
42 *321:63 *3070:A 2.41653e-05
43 *321:63 *3080:A 2.9599e-05
44 *321:63 *369:74 0.000135968
45 *321:75 *2602:A 0.000339828
46 *321:75 *2602:B 1.82328e-05
47 *321:75 *2604:A 0.000656826
48 *321:75 *2605:S 0.000288693
49 *321:75 *2616:A 3.20468e-05
50 *321:75 *3354:A 5.33005e-05
51 *321:75 *328:48 6.58317e-05
52 *321:75 *358:36 0.00015234
53 *321:75 *511:18 0.00121922
54 *321:75 *538:22 0.000333071
55 *321:75 *556:8 0.000144466
56 *321:75 *817:10 0
57 *2728:A *321:75 0
58 *2735:A2 *2838:A 0.00022287
59 *2735:A2 *321:63 5.78673e-05
60 *2911:D_N *321:28 5.33005e-05
61 *2934:B *321:22 0
62 *3162:D *2838:A 2.16394e-05
63 *3263:D *321:75 2.59355e-05
64 *176:74 *321:63 0.00011994
65 *183:56 *321:22 0
66 *183:75 *321:63 0.000103363
67 *197:28 *321:63 0.000260437
68 *197:128 *3060:A 0
69 *258:28 *321:63 0.00184103
70 *318:50 *321:22 5.0437e-05
71 *318:52 *321:22 7.61603e-05
72 *318:62 *321:22 0.000149852
73 *319:44 *321:22 5.52238e-05
74 *319:50 *321:22 0.00011432
*RES
1 *2833:Y *321:22 48.6571 
2 *321:22 *321:28 10.125 
3 *321:28 *321:34 8.18679 
4 *321:34 *3060:A 22.8667 
5 *321:34 *321:63 26.936 
6 *321:63 *321:75 41.6071 
7 *321:75 *2557:A 9.3 
8 *321:63 *2838:A 24.8357 
9 *321:28 *2973:A 9.3 
*END

*D_NET *322 0.0108565
*CONN
*I *2877:A I *D sky130_fd_sc_hd__or2_1
*I *2836:A I *D sky130_fd_sc_hd__or2_1
*I *2899:A I *D sky130_fd_sc_hd__nor2_1
*I *2912:A I *D sky130_fd_sc_hd__nor2_1
*I *2906:A I *D sky130_fd_sc_hd__nor2_1
*I *2918:A I *D sky130_fd_sc_hd__or3_2
*I *2891:A I *D sky130_fd_sc_hd__or2_1
*I *2885:A I *D sky130_fd_sc_hd__or2_1
*I *2834:Y O *D sky130_fd_sc_hd__nand3_4
*CAP
1 *2877:A 8.2039e-05
2 *2836:A 7.91155e-05
3 *2899:A 0
4 *2912:A 0
5 *2906:A 8.88261e-05
6 *2918:A 2.03225e-05
7 *2891:A 3.34103e-05
8 *2885:A 0
9 *2834:Y 0.000779355
10 *322:61 0.000712694
11 *322:42 0.000758382
12 *322:31 0.000430782
13 *322:18 0.000421874
14 *322:16 0.000772305
15 *322:12 0.000753005
16 *322:10 0.000901672
17 *2836:A *2758:A 9.91224e-05
18 *2836:A *2836:B 5.01117e-05
19 *2836:A *350:42 3.01126e-05
20 *2877:A *359:70 0.000122488
21 *2891:A *2891:B 5.33005e-05
22 *2906:A *2582:A 1.80261e-05
23 *2906:A *2912:B 8.04661e-05
24 *2906:A *377:10 1.35553e-05
25 *2918:A *385:10 2.59355e-05
26 *322:10 *2631:A 0.00011333
27 *322:10 *2758:A 8.18233e-06
28 *322:10 *2836:B 0
29 *322:10 *2877:B 9.60293e-05
30 *322:10 *323:26 4.21517e-05
31 *322:10 *361:54 0
32 *322:10 *571:18 0.000465565
33 *322:12 *2758:A 5.33005e-05
34 *322:12 *359:70 0.000170161
35 *322:16 *2758:A 0.000733068
36 *322:16 *2899:B 3.41033e-05
37 *322:16 *359:70 0.000178425
38 *322:18 *2885:B 4.72917e-05
39 *322:18 *2899:B 0.000140856
40 *322:31 *2885:B 1.82029e-05
41 *322:31 *2886:A0 0.00014285
42 *322:31 *2886:A1 6.58013e-05
43 *322:31 *2888:S 5.30637e-06
44 *322:31 *362:6 0.000128535
45 *322:31 *385:10 0.000122934
46 *322:31 *528:18 0.000694747
47 *322:42 *385:10 0.000164766
48 *322:61 *2596:A 2.57552e-06
49 *322:61 *2912:B 5.48394e-05
50 *322:61 *2918:C 0.000112655
51 *322:61 *3255:CLK 8.91725e-05
52 *322:61 *384:43 3.20387e-05
53 *322:61 *419:57 2.51343e-06
54 *2628:A0 *322:10 0
55 *2683:B *322:10 2.30866e-05
56 *3254:D *322:61 4.87669e-06
57 *3269:D *322:10 1.94879e-05
58 *174:18 *322:10 0.000261436
59 *174:35 *2877:A 9.66977e-05
60 *174:35 *322:12 6.11724e-05
61 *174:35 *322:16 4.59075e-05
62 *174:69 *322:61 0
63 *174:83 *322:61 3.42164e-05
64 *208:18 *322:42 3.76969e-05
65 *208:18 *322:61 7.03633e-05
66 *208:20 *322:31 6.11983e-05
67 *208:20 *322:42 4.39569e-05
68 *250:8 *322:16 2.15245e-05
69 *281:24 *322:10 0
70 *316:60 *2918:A 2.85321e-05
*RES
1 *2834:Y *322:10 33.3 
2 *322:10 *322:12 1.76786 
3 *322:12 *322:16 11.9464 
4 *322:16 *322:18 3 
5 *322:18 *2885:A 9.3 
6 *322:18 *322:31 13.6786 
7 *322:31 *2891:A 14.3357 
8 *322:31 *322:42 2.85714 
9 *322:42 *2918:A 14.3357 
10 *322:42 *322:61 14.6786 
11 *322:61 *2906:A 11.5143 
12 *322:61 *2912:A 9.3 
13 *322:16 *2899:A 9.3 
14 *322:12 *2836:A 20.55 
15 *322:10 *2877:A 11.5143 
*END

*D_NET *323 0.0161084
*CONN
*I *2875:A I *D sky130_fd_sc_hd__or2_1
*I *2836:B I *D sky130_fd_sc_hd__or2_1
*I *2897:A I *D sky130_fd_sc_hd__buf_2
*I *2835:X O *D sky130_fd_sc_hd__or4b_2
*CAP
1 *2875:A 0.000828396
2 *2836:B 0.000226573
3 *2897:A 3.29699e-05
4 *2835:X 0.00125088
5 *323:54 0.00281572
6 *323:26 0.00131152
7 *323:10 0.00429017
8 *2836:B *2758:A 6.8646e-06
9 *2836:B *2877:B 2.61337e-05
10 *2836:B *350:42 0.000304585
11 *2875:A *2876:A 5.78102e-05
12 *2875:A *2876:B 0.000208109
13 *2875:A *3316:A 0.00107444
14 *2875:A *336:12 2.6913e-05
15 *2875:A *352:20 7.6612e-06
16 *2875:A *352:34 1.08997e-05
17 *2875:A *415:27 0
18 *2875:A *419:136 0.000571439
19 *2897:A *2556:B 1.32056e-05
20 *2897:A *528:135 9.58126e-05
21 *323:10 *2677:A 0.000111118
22 *323:10 *2835:D_N 0.00014258
23 *323:10 *2981:S 0.000113056
24 *323:10 *3312:A 5.33005e-05
25 *323:10 *359:83 2.51343e-06
26 *323:10 *795:62 6.05161e-06
27 *323:26 *2556:B 4.24766e-06
28 *323:26 *2632:B 0.000151701
29 *323:26 *2877:B 1.02503e-05
30 *323:26 *528:135 3.26548e-05
31 *323:54 *2699:A_N 6.97972e-05
32 *323:54 *2869:A2_N 0
33 *323:54 *2981:S 0.000412098
34 *323:54 *2984:S 8.86448e-05
35 *323:54 *2985:A 7.89362e-05
36 *323:54 *2987:S 0.000113691
37 *323:54 *2988:A 0.000114296
38 *323:54 *3181:CLK 0
39 *323:54 *3278:RESET_B 0
40 *323:54 *338:29 0
41 *323:54 *663:40 0.000311174
42 *323:54 *774:92 0
43 *323:54 *802:12 5.33882e-05
44 *2677:B *323:10 2.89016e-05
45 *2678:A *323:10 0.000129595
46 *2836:A *2836:B 5.01117e-05
47 *2890:B *2875:A 3.10821e-05
48 *3180:D *323:54 0
49 *3211:D *323:54 0
50 *211:71 *323:26 5.55191e-05
51 *215:86 *2897:A 2.55806e-05
52 *215:86 *323:26 0.00021037
53 *222:26 *323:26 0.000136256
54 *316:36 *323:26 0.000369286
55 *322:10 *2836:B 0
56 *322:10 *323:26 4.21517e-05
*RES
1 *2835:X *323:10 29.7911 
2 *323:10 *323:26 17.0577 
3 *323:26 *2897:A 10.2464 
4 *323:26 *2836:B 23.4071 
5 *323:10 *323:54 44.5089 
6 *323:54 *2875:A 35.4071 
*END

*D_NET *324 0.000517354
*CONN
*I *2837:A I *D sky130_fd_sc_hd__buf_2
*I *2836:X O *D sky130_fd_sc_hd__or2_1
*CAP
1 *2837:A 0.000142985
2 *2836:X 0.000142985
3 *2837:A *2636:A 0.000115358
4 *2837:A *2758:A 4.48188e-06
5 *2837:A *350:42 0
6 *2819:B1 *2837:A 5.49489e-05
7 *3281:D *2837:A 5.65955e-05
*RES
1 *2836:X *2837:A 30.3143 
*END

*D_NET *325 0.0159802
*CONN
*I *2941:A I *D sky130_fd_sc_hd__or2_1
*I *2965:A I *D sky130_fd_sc_hd__or2_1
*I *2953:A I *D sky130_fd_sc_hd__or2_1
*I *2959:A I *D sky130_fd_sc_hd__or2_1
*I *2947:A I *D sky130_fd_sc_hd__nor2_1
*I *2838:B I *D sky130_fd_sc_hd__nor2_1
*I *2935:A I *D sky130_fd_sc_hd__nor2_1
*I *2929:A I *D sky130_fd_sc_hd__nor2_1
*I *2923:A I *D sky130_fd_sc_hd__nor2_1
*I *2837:X O *D sky130_fd_sc_hd__buf_2
*CAP
1 *2941:A 0
2 *2965:A 6.64084e-05
3 *2953:A 0
4 *2959:A 0
5 *2947:A 5.05974e-05
6 *2838:B 0.000293551
7 *2935:A 0
8 *2929:A 1.42885e-05
9 *2923:A 0.000175577
10 *2837:X 0.000424601
11 *325:118 0.000594208
12 *325:101 0.000663469
13 *325:57 0.000140676
14 *325:49 0.000824577
15 *325:32 0.000791504
16 *325:28 0.000605106
17 *325:16 0.000937039
18 *325:8 0.000882752
19 *2838:B *2894:A0 9.41642e-05
20 *2838:B *2894:A1 0.00024295
21 *2838:B *2894:S 0.000392019
22 *2838:B *358:22 5.04589e-05
23 *2838:B *396:12 0.000408189
24 *2923:A *345:79 7.36469e-05
25 *2923:A *369:132 0.000141935
26 *2923:A *385:10 7.47788e-05
27 *2929:A *2933:A 5.52238e-05
28 *2965:A *2953:B 1.32056e-05
29 *2965:A *2965:B 9.67754e-05
30 *2965:A *408:8 2.24718e-05
31 *325:8 *2941:B 5.49544e-05
32 *325:16 *2736:A1 0.000103267
33 *325:16 *2881:A 0.000950196
34 *325:16 *2959:B 0.000135774
35 *325:16 *605:8 0.000123752
36 *325:16 *899:10 0.000185297
37 *325:28 *2881:A 4.27935e-05
38 *325:28 *3150:CLK 0.00015656
39 *325:28 *3435:A 2.28598e-05
40 *325:28 *328:20 0.000604179
41 *325:28 *358:6 0.000169359
42 *325:28 *358:22 0.000362259
43 *325:28 *917:8 1.98839e-05
44 *325:32 *2892:A0 5.71472e-05
45 *325:32 *2892:A1 0.00044366
46 *325:32 *2892:S 9.76689e-05
47 *325:49 *2886:A0 0.000142797
48 *325:49 *2892:A0 0.000389146
49 *325:49 *2893:A 0.000171568
50 *325:49 *385:10 7.57851e-05
51 *325:49 *511:18 0.00022766
52 *325:57 *2930:A0 2.89016e-05
53 *325:57 *2930:S 1.66761e-05
54 *325:57 *2935:B 4.46186e-06
55 *325:57 *396:12 0.000125731
56 *325:57 *511:18 4.58194e-05
57 *325:101 *2880:A 0.000145099
58 *325:101 *2959:B 7.91011e-05
59 *325:101 *328:20 7.73337e-05
60 *325:118 *2880:A 0.000141729
61 *325:118 *2953:B 9.99853e-05
62 *325:118 *2960:S 0
63 *325:118 *328:20 0.000128523
64 *325:118 *350:42 0.000148189
65 *325:118 *693:24 6.99879e-05
66 *2734:A2 *2923:A 7.12019e-05
67 *2734:A2 *325:49 6.2169e-06
68 *2809:B1 *2965:A 0.00021042
69 *2809:B1 *325:118 0.000185124
70 *2816:A *325:32 5.52238e-05
71 *2816:B *325:32 1.39726e-05
72 *2816:C *325:32 5.33005e-05
73 *2819:A1 *325:8 0.000110316
74 *2819:A1 *325:16 0.000178847
75 *2819:B1 *325:8 0.000182592
76 *3281:D *325:8 3.96825e-05
77 *181:75 *2838:B 0.000218104
78 *181:75 *2929:A 5.33005e-05
79 *181:75 *325:57 0
80 *187:100 *2947:A 5.33005e-05
81 *187:112 *2947:A 1.24368e-05
82 *187:112 *325:32 0.00016747
83 *197:28 *325:57 0.000162192
84 *218:124 *325:16 5.34472e-05
85 *307:18 *325:28 0.000114195
86 *307:18 *325:101 0.000260574
*RES
1 *2837:X *325:8 15.1929 
2 *325:8 *325:16 23.0357 
3 *325:16 *325:28 19.3214 
4 *325:28 *325:32 11.1964 
5 *325:32 *2923:A 18.3179 
6 *325:32 *325:49 15.8393 
7 *325:49 *325:57 12.5 
8 *325:57 *2929:A 9.83571 
9 *325:57 *2935:A 9.3 
10 *325:49 *2838:B 28.6393 
11 *325:28 *2947:A 10.2643 
12 *325:16 *325:101 13.1607 
13 *325:101 *2959:A 9.3 
14 *325:101 *325:118 20.2857 
15 *325:118 *2953:A 9.3 
16 *325:118 *2965:A 11.4786 
17 *325:8 *2941:A 9.3 
*END

*D_NET *326 0.00117992
*CONN
*I *2842:S I *D sky130_fd_sc_hd__mux2_1
*I *2839:S I *D sky130_fd_sc_hd__mux2_1
*I *2838:Y O *D sky130_fd_sc_hd__nor2_1
*CAP
1 *2842:S 0.00015816
2 *2839:S 8.69035e-05
3 *2838:Y 3.90836e-05
4 *326:6 0.000284148
5 *2839:S *358:22 4.38522e-05
6 *2842:S *2842:A0 3.69047e-06
7 *2842:S *3151:CLK 0.000100823
8 *326:6 *358:22 2.72967e-05
9 *2839:A1 *2839:S 1.17091e-05
10 *187:112 *2842:S 0.000123053
11 *208:58 *2839:S 0.000181978
12 *208:58 *2842:S 7.83587e-05
13 *208:58 *326:6 4.08637e-05
*RES
1 *2838:Y *326:6 10.2464 
2 *326:6 *2839:S 11.8 
3 *326:6 *2842:S 22.0321 
*END

*D_NET *327 0.0015503
*CONN
*I *2840:A I *D sky130_fd_sc_hd__clkbuf_1
*I *2839:X O *D sky130_fd_sc_hd__mux2_1
*CAP
1 *2840:A 0.000396565
2 *2839:X 0.000396565
3 *2840:A *2896:A 5.49995e-05
4 *2840:A *328:30 0.00014734
5 *2840:A *358:22 0
6 *2840:A *528:72 0.000100474
7 *2840:A *599:59 3.94572e-05
8 *3135:D *2840:A 0.000148047
9 *208:58 *2840:A 0.000266851
*RES
1 *2839:X *2840:A 35.1 
*END

*D_NET *328 0.0321079
*CONN
*I *2635:A0 I *D sky130_fd_sc_hd__mux2_1
*I *2595:A0 I *D sky130_fd_sc_hd__mux2_1
*I *2630:A0 I *D sky130_fd_sc_hd__mux2_1
*I *2842:A1 I *D sky130_fd_sc_hd__mux2_1
*I *2610:A0 I *D sky130_fd_sc_hd__mux2_1
*I *2605:A0 I *D sky130_fd_sc_hd__mux2_1
*I *2620:A0 I *D sky130_fd_sc_hd__mux2_1
*I *2625:A0 I *D sky130_fd_sc_hd__mux2_1
*I *2590:A0 I *D sky130_fd_sc_hd__mux2_1
*I *2615:A0 I *D sky130_fd_sc_hd__mux2_1
*I *2841:X O *D sky130_fd_sc_hd__buf_2
*CAP
1 *2635:A0 8.40104e-05
2 *2595:A0 0.00190832
3 *2630:A0 0.000103797
4 *2842:A1 0
5 *2610:A0 0
6 *2605:A0 0
7 *2620:A0 0.00029315
8 *2625:A0 0
9 *2590:A0 0.000526301
10 *2615:A0 1.42796e-05
11 *2841:X 0
12 *328:149 0.00276068
13 *328:133 0.00133518
14 *328:71 0.00105652
15 *328:48 0.000891451
16 *328:46 0.000700877
17 *328:44 0.000335256
18 *328:30 0.00109793
19 *328:20 0.00314238
20 *328:4 0.00282154
21 *2590:A0 *2625:S 0.000219402
22 *2590:A0 *3296:A 1.3701e-05
23 *2590:A0 *350:118 2.47635e-05
24 *2595:A0 *2595:S 1.87701e-05
25 *2595:A0 *2630:S 0.000184287
26 *2595:A0 *2631:A 1.46148e-05
27 *2595:A0 *2978:A 2.42759e-05
28 *2595:A0 *3184:CLK 2.03181e-05
29 *2595:A0 *3269:CLK 3.58424e-05
30 *2595:A0 *350:42 7.74068e-05
31 *2595:A0 *419:57 0.000187595
32 *2595:A0 *606:102 0.00030516
33 *2615:A0 *2615:A1 5.52302e-05
34 *2615:A0 *538:22 5.33005e-05
35 *2620:A0 *2606:A 4.15914e-05
36 *2620:A0 *2618:A1 6.09572e-05
37 *2620:A0 *2619:A 0
38 *2620:A0 *3265:CLK 0.000406477
39 *2620:A0 *599:14 0.000142797
40 *2620:A0 *599:16 0.000191877
41 *2630:A0 *3268:CLK 0.000137639
42 *328:20 *2617:A 0.00213321
43 *328:20 *2737:B2 4.15161e-05
44 *328:20 *2839:A0 9.14771e-06
45 *328:20 *2842:A0 7.69776e-06
46 *328:20 *2880:A 0.000109082
47 *328:20 *2947:B 8.76309e-05
48 *328:20 *3150:CLK 7.35213e-06
49 *328:20 *372:14 6.07232e-05
50 *328:20 *796:30 4.4622e-05
51 *328:30 *2610:A1 0.000193804
52 *328:30 *2610:S 0.000316184
53 *328:30 *2842:A0 1.83053e-05
54 *328:30 *2843:A 5.65955e-05
55 *328:30 *358:22 8.7863e-05
56 *328:30 *528:66 0.000133253
57 *328:30 *528:72 0.000241801
58 *328:44 *2611:A 1.74352e-05
59 *328:44 *3263:CLK 3.57366e-05
60 *328:44 *599:12 1.02504e-05
61 *328:44 *599:14 0.00017309
62 *328:44 *748:24 1.33343e-05
63 *328:46 *2604:A 2.79421e-05
64 *328:48 *2604:A 0.00013073
65 *328:48 *2615:A1 0.00029551
66 *328:48 *2616:A 0.000141554
67 *328:48 *538:22 9.60939e-05
68 *328:71 *2577:B 0.000128154
69 *328:71 *350:118 0.000640697
70 *328:71 *527:50 8.08022e-05
71 *328:71 *538:22 9.80405e-05
72 *328:133 *2960:S 7.68318e-05
73 *328:133 *350:42 0
74 *328:133 *351:95 4.00679e-05
75 *328:133 *608:37 0.000382739
76 *328:133 *796:30 9.33671e-05
77 *328:149 *2630:S 5.14352e-05
78 *328:149 *2632:B 0.000115054
79 *328:149 *2790:A1 0.000148444
80 *328:149 *2965:B 0.000506779
81 *328:149 *351:95 4.35131e-05
82 *328:149 *359:70 0.000136958
83 *328:149 *415:50 7.33784e-05
84 *328:149 *415:52 0.000501456
85 *328:149 *511:10 6.8646e-06
86 *328:149 *511:150 0.000173587
87 *328:149 *608:37 0
88 *2628:A0 *2595:A0 7.54868e-05
89 *2727:B1 *328:71 0.00111658
90 *2755:A2 *2595:A0 0.000107709
91 *2798:B1 *328:30 7.97875e-05
92 *2805:B1 *2620:A0 0.000160887
93 *2807:A2 *328:71 0.000121416
94 *2808:A3 *328:71 5.33005e-05
95 *2808:B1 *328:71 3.593e-05
96 *2819:A3 *328:133 7.29712e-05
97 *2840:A *328:30 0.00014734
98 *3184:D *2595:A0 4.87669e-06
99 *3269:D *2595:A0 5.85966e-05
100 *3271:D *328:149 0.000186641
101 *187:112 *328:30 0.00052787
102 *202:107 *2590:A0 0.000139945
103 *215:86 *2595:A0 2.76247e-05
104 *215:108 *2590:A0 7.32173e-05
105 *215:108 *328:71 2.59355e-05
106 *220:18 *2590:A0 0.000649326
107 *222:26 *328:149 4.38265e-05
108 *254:28 *2595:A0 5.56859e-05
109 *254:28 *328:149 8.29818e-05
110 *307:18 *328:133 7.70035e-05
111 *316:36 *328:149 0.000230777
112 *316:78 *328:44 0
113 *316:89 *328:30 0
114 *321:75 *328:48 6.58317e-05
115 *325:28 *328:20 0.000604179
116 *325:101 *328:20 7.73337e-05
117 *325:118 *328:20 0.000128523
*RES
1 *2841:X *328:4 9.3 
2 *328:4 *328:20 33.0596 
3 *328:20 *328:30 30.0714 
4 *328:30 *328:44 14.7143 
5 *328:44 *328:46 0.946429 
6 *328:46 *328:48 7.92857 
7 *328:48 *2615:A0 9.83571 
8 *328:48 *328:71 34 
9 *328:71 *2590:A0 30.8179 
10 *328:71 *2625:A0 9.3 
11 *328:46 *2620:A0 27.8357 
12 *328:44 *2605:A0 9.3 
13 *328:30 *2610:A0 9.3 
14 *328:20 *2842:A1 9.3 
15 *328:4 *328:133 17.9286 
16 *328:133 *328:149 34.2857 
17 *328:149 *2630:A0 15.1571 
18 *328:149 *2595:A0 48.7464 
19 *328:133 *2635:A0 10.2464 
*END

*D_NET *329 0.000177667
*CONN
*I *2843:A I *D sky130_fd_sc_hd__clkbuf_1
*I *2842:X O *D sky130_fd_sc_hd__mux2_1
*CAP
1 *2843:A 6.05359e-05
2 *2842:X 6.05359e-05
3 *328:30 *2843:A 5.65955e-05
*RES
1 *2842:X *2843:A 19.8679 
*END

*D_NET *330 0.0063309
*CONN
*I *2848:A1 I *D sky130_fd_sc_hd__o21ba_2
*I *2849:A2 I *D sky130_fd_sc_hd__o21ai_1
*I *2855:A2 I *D sky130_fd_sc_hd__o21ai_1
*I *2844:Y O *D sky130_fd_sc_hd__nand2_1
*CAP
1 *2848:A1 0
2 *2849:A2 0.000114741
3 *2855:A2 0.000299157
4 *2844:Y 0.000652448
5 *330:28 0.00138002
6 *330:18 0.00161857
7 *2849:A2 *2854:B2 0.000150632
8 *2849:A2 *2855:B1 0
9 *2849:A2 *2858:A 4.35048e-05
10 *2849:A2 *3274:CLK 3.69865e-05
11 *2855:A2 *2854:B2 4.8035e-05
12 *2855:A2 *338:29 0.000274288
13 *330:18 *2823:A 9.83388e-05
14 *330:18 *2847:A1 0.000404413
15 *330:18 *2847:A2 0.000152029
16 *330:18 *2848:A2 5.71472e-05
17 *330:18 *337:16 0.000144074
18 *330:18 *774:12 0.000176226
19 *330:28 *2848:A2 5.00917e-05
20 *330:28 *3274:CLK 9.33561e-05
21 *330:28 *3302:A 0.000117157
22 *330:28 *334:10 0.000227539
23 *330:28 *338:29 0
24 *330:28 *597:14 7.9321e-05
25 *330:28 *597:45 5.20476e-05
26 *330:28 *597:56 6.07797e-05
*RES
1 *2844:Y *330:18 31.5143 
2 *330:18 *330:28 23.7143 
3 *330:28 *2855:A2 18.0321 
4 *330:28 *2849:A2 16.9607 
5 *330:18 *2848:A1 9.3 
*END

*D_NET *331 0.000727809
*CONN
*I *2847:A1 I *D sky130_fd_sc_hd__o21a_1
*I *2845:Y O *D sky130_fd_sc_hd__inv_2
*CAP
1 *2847:A1 0.000134223
2 *2845:Y 0.000134223
3 *2852:B *2847:A1 5.49489e-05
4 *330:18 *2847:A1 0.000404413
*RES
1 *2845:Y *2847:A1 22.4214 
*END

*D_NET *332 0.00261525
*CONN
*I *2868:B I *D sky130_fd_sc_hd__or2_1
*I *2847:A2 I *D sky130_fd_sc_hd__o21a_1
*I *2864:A1 I *D sky130_fd_sc_hd__a21bo_1
*I *2846:Y O *D sky130_fd_sc_hd__nand2_1
*CAP
1 *2868:B 0.000300819
2 *2847:A2 0.000336206
3 *2864:A1 2.64663e-05
4 *2846:Y 6.7578e-05
5 *332:17 0.000637025
6 *332:8 9.40443e-05
7 *2847:A2 *2848:A2 7.61932e-05
8 *2847:A2 *334:10 0
9 *2864:A1 *2864:A2 2.24718e-05
10 *2864:A1 *774:76 9.84673e-05
11 *2868:B *2853:A 0.000329768
12 *2868:B *334:21 0
13 *2868:B *346:10 7.5196e-05
14 *332:8 *2864:A2 0.000104394
15 *332:8 *337:16 5.33005e-05
16 *332:8 *774:76 3.37161e-05
17 *2823:D *2847:A2 6.555e-05
18 *2846:B *2847:A2 7.95687e-05
19 *2846:B *2868:B 9.15842e-06
20 *2846:B *332:8 5.33005e-05
21 *330:18 *2847:A2 0.000152029
*RES
1 *2846:Y *332:8 11.0857 
2 *332:8 *2864:A1 10.2464 
3 *332:8 *332:17 4.5 
4 *332:17 *2847:A2 18.7464 
5 *332:17 *2868:B 18.9964 
*END

*D_NET *333 0.000289981
*CONN
*I *2848:A2 I *D sky130_fd_sc_hd__o21ba_2
*I *2847:X O *D sky130_fd_sc_hd__o21a_1
*CAP
1 *2848:A2 5.32744e-05
2 *2847:X 5.32744e-05
3 *2847:A2 *2848:A2 7.61932e-05
4 *330:18 *2848:A2 5.71472e-05
5 *330:28 *2848:A2 5.00917e-05
*RES
1 *2847:X *2848:A2 20.3857 
*END

*D_NET *334 0.00615456
*CONN
*I *2849:B1 I *D sky130_fd_sc_hd__o21ai_1
*I *2850:A2 I *D sky130_fd_sc_hd__o21a_1
*I *2857:A3 I *D sky130_fd_sc_hd__a31o_1
*I *2855:B1 I *D sky130_fd_sc_hd__o21ai_1
*I *2865:A2 I *D sky130_fd_sc_hd__a21o_1
*I *2853:B I *D sky130_fd_sc_hd__nand2_1
*I *2864:B1_N I *D sky130_fd_sc_hd__a21bo_1
*I *2848:X O *D sky130_fd_sc_hd__o21ba_2
*CAP
1 *2849:B1 2.42305e-05
2 *2850:A2 0
3 *2857:A3 0.000190897
4 *2855:B1 0.000156193
5 *2865:A2 2.18398e-05
6 *2853:B 0.000143345
7 *2864:B1_N 6.60309e-05
8 *2848:X 0.000357215
9 *334:76 0.000292552
10 *334:65 0.000539858
11 *334:55 0.000631333
12 *334:40 0.000484007
13 *334:21 0.000439032
14 *334:10 0.000581859
15 *2853:B *2853:A 2.84424e-05
16 *2853:B *2869:A2_N 7.15909e-05
17 *2853:B *3142:CLK 0.000140243
18 *2853:B *338:10 5.50052e-05
19 *2853:B *775:51 4.51234e-05
20 *2855:B1 *2858:A 0
21 *2855:B1 *663:40 0
22 *2864:B1_N *774:76 9.84729e-05
23 *2865:A2 *2867:A 0.000141941
24 *2865:A2 *3316:A 0.000141941
25 *334:10 *597:14 0.000104331
26 *334:10 *597:45 1.06172e-05
27 *334:21 *346:10 0
28 *334:21 *597:45 2.59197e-05
29 *334:21 *597:56 1.48252e-05
30 *334:21 *775:49 4.3143e-05
31 *334:40 *3274:CLK 4.68089e-05
32 *334:40 *597:56 5.13026e-05
33 *334:55 *3274:CLK 0.000133089
34 *334:76 *2858:A 0
35 *334:76 *663:34 0
36 *2823:D *334:10 0
37 *2847:A2 *334:10 0
38 *2848:B1_N *334:10 0
39 *2849:A1 *2849:B1 1.3701e-05
40 *2849:A1 *334:65 0.000107155
41 *2849:A2 *2855:B1 0
42 *2850:A1 *334:76 0.000125724
43 *2854:B1 *2857:A3 5.52238e-05
44 *2855:A1 *2855:B1 7.17509e-05
45 *2855:A1 *2857:A3 4.27437e-05
46 *2855:A1 *334:76 4.52937e-05
47 *2868:B *334:21 0
48 *3138:D *2857:A3 5.17614e-05
49 *3142:D *2853:B 3.50746e-05
50 *3142:D *334:21 1.00887e-05
51 *3142:D *334:40 0.00026803
52 *312:10 *334:55 0
53 *318:123 *334:65 1.92905e-05
54 *330:28 *334:10 0.000227539
*RES
1 *2848:X *334:10 20.05 
2 *334:10 *2864:B1_N 14.7464 
3 *334:10 *334:21 2.55357 
4 *334:21 *2853:B 17.8 
5 *334:21 *334:40 4.07143 
6 *334:40 *2865:A2 15.1571 
7 *334:40 *334:55 10.9464 
8 *334:55 *334:65 9.71429 
9 *334:65 *2855:B1 16.6571 
10 *334:65 *334:76 2.55357 
11 *334:76 *2857:A3 16.925 
12 *334:76 *2850:A2 13.8 
13 *334:55 *2849:B1 10.0321 
*END

*D_NET *335 0.00276608
*CONN
*I *2850:B1 I *D sky130_fd_sc_hd__o21a_1
*I *2854:B2 I *D sky130_fd_sc_hd__a2bb2o_1
*I *2849:Y O *D sky130_fd_sc_hd__o21ai_1
*CAP
1 *2850:B1 0.000546857
2 *2854:B2 0.000266848
3 *2849:Y 0
4 *335:6 0.000813705
5 *2850:B1 *2858:B 2.8518e-05
6 *2850:B1 *3274:CLK 8.39e-05
7 *2850:B1 *773:14 5.29554e-05
8 *2854:B2 *2858:A 0.000218045
9 *2854:B2 *2863:B1 0.000225616
10 *2854:B2 *3274:CLK 0.000120655
11 *2854:B2 *338:29 0.000133111
12 *2854:B2 *773:14 2.19684e-05
13 *2849:A2 *2854:B2 0.000150632
14 *2854:B1 *2850:B1 0
15 *2854:B1 *2854:B2 5.52302e-05
16 *2855:A2 *2854:B2 4.8035e-05
*RES
1 *2849:Y *335:6 13.8 
2 *335:6 *2854:B2 22.5321 
3 *335:6 *2850:B1 21.8536 
*END

*D_NET *336 0.00770038
*CONN
*I *2854:A1_N I *D sky130_fd_sc_hd__a2bb2o_1
*I *2958:C I *D sky130_fd_sc_hd__or3_2
*I *2934:A I *D sky130_fd_sc_hd__or3b_2
*I *2911:C I *D sky130_fd_sc_hd__or4b_2
*I *2884:A I *D sky130_fd_sc_hd__or2_2
*I *2851:X O *D sky130_fd_sc_hd__or2b_1
*CAP
1 *2854:A1_N 0.000444895
2 *2958:C 2.23854e-05
3 *2934:A 0.000224698
4 *2911:C 1.41579e-05
5 *2884:A 0
6 *2851:X 0
7 *336:25 0.00106287
8 *336:23 0.00161651
9 *336:12 0.00103403
10 *336:4 0.000708813
11 *2854:A1_N *3316:A 0.000235459
12 *2854:A1_N *340:10 0
13 *2854:A1_N *663:40 0
14 *2934:A *2911:A 0.000123589
15 *2934:A *3190:CLK 1.21289e-05
16 *2934:A *380:10 9.25014e-06
17 *2934:A *395:8 5.33433e-05
18 *2934:A *419:158 0.000140933
19 *336:12 *2862:A 3.34366e-05
20 *336:12 *3316:A 0.000109448
21 *336:12 *352:20 6.99874e-05
22 *336:12 *361:30 0.000174455
23 *336:23 *2862:A 1.58163e-05
24 *336:23 *2875:B 0.000272508
25 *336:23 *2884:B 2.36898e-05
26 *336:23 *2890:C 4.1518e-05
27 *336:23 *340:43 9.22103e-06
28 *336:23 *354:6 1.83136e-05
29 *336:23 *361:10 1.97695e-05
30 *336:23 *677:18 6.57032e-05
31 *336:25 *3190:CLK 2.89016e-05
32 *336:25 *403:28 0.000133705
33 *336:25 *432:46 0.000136676
34 *336:25 *873:14 1.00073e-05
35 *2851:A *2854:A1_N 0.000141941
36 *2851:B_N *2854:A1_N 3.11088e-05
37 *2875:A *336:12 2.6913e-05
38 *2934:B *2934:A 3.36635e-05
39 *2946:A *2958:C 0
40 *2946:A *336:23 1.39726e-05
41 *2946:A *336:25 0.000126639
42 *3190:D *336:25 0.000266784
43 *3468:A *336:25 6.13181e-05
44 *211:10 *2854:A1_N 0
45 *321:22 *2911:C 3.57366e-05
46 *321:28 *2934:A 9.60875e-05
*RES
1 *2851:X *336:4 9.3 
2 *336:4 *336:12 14.25 
3 *336:12 *2884:A 9.3 
4 *336:12 *336:23 9.91071 
5 *336:23 *336:25 13.6786 
6 *336:25 *2911:C 9.72857 
7 *336:25 *2934:A 23.0857 
8 *336:23 *2958:C 9.72857 
9 *336:4 *2854:A1_N 26.6571 
*END

*D_NET *337 0.0031879
*CONN
*I *2853:A I *D sky130_fd_sc_hd__nand2_1
*I *2864:A2 I *D sky130_fd_sc_hd__a21bo_1
*I *2852:X O *D sky130_fd_sc_hd__and2_1
*CAP
1 *2853:A 0.00030348
2 *2864:A2 9.83383e-05
3 *2852:X 0.00035172
4 *337:16 0.000753539
5 *2853:A *3142:CLK 0.000269747
6 *2853:A *346:10 7.67203e-05
7 *2853:A *775:51 0.000139338
8 *337:16 *774:48 9.21413e-05
9 *337:16 *774:76 9.86486e-06
10 *337:16 *775:14 0.000124406
11 *2846:B *2853:A 5.36422e-05
12 *2853:B *2853:A 2.84424e-05
13 *2864:A1 *2864:A2 2.24718e-05
14 *2868:B *2853:A 0.000329768
15 *3142:D *2853:A 6.62302e-05
16 *312:27 *2853:A 0.000166287
17 *330:18 *337:16 0.000144074
18 *332:8 *2864:A2 0.000104394
19 *332:8 *337:16 5.33005e-05
*RES
1 *2852:X *337:16 24.3179 
2 *337:16 *2864:A2 11.0857 
3 *337:16 *2853:A 27.4071 
*END

*D_NET *338 0.00326474
*CONN
*I *2854:A2_N I *D sky130_fd_sc_hd__a2bb2o_1
*I *2863:A1_N I *D sky130_fd_sc_hd__a2bb2o_1
*I *2869:A1_N I *D sky130_fd_sc_hd__a2bb2o_1
*I *2853:Y O *D sky130_fd_sc_hd__nand2_1
*CAP
1 *2854:A2_N 3.73154e-05
2 *2863:A1_N 0.000250694
3 *2869:A1_N 0
4 *2853:Y 0.000111982
5 *338:29 0.000820057
6 *338:10 0.00064403
7 *2854:A2_N *2863:B1 1.32276e-05
8 *2863:A1_N *2856:A 7.16452e-05
9 *2863:A1_N *2863:A2_N 0
10 *2863:A1_N *2863:B1 0.000120168
11 *2863:A1_N *340:10 5.33005e-05
12 *338:10 *2869:A2_N 0.000347832
13 *338:10 *3302:A 0.000146398
14 *338:10 *775:51 5.93321e-05
15 *338:29 *2863:B1 1.68715e-05
16 *338:29 *2869:A2_N 2.35753e-05
17 *338:29 *3302:A 4.5258e-05
18 *338:29 *663:40 0
19 *2853:B *338:10 5.50052e-05
20 *2854:B1 *2854:A2_N 5.7661e-06
21 *2854:B1 *338:29 3.4879e-05
22 *2854:B2 *338:29 0.000133111
23 *2855:A2 *338:29 0.000274288
24 *323:54 *338:29 0
25 *330:28 *338:29 0
*RES
1 *2853:Y *338:10 17.925 
2 *338:10 *2869:A1_N 13.8 
3 *338:10 *338:29 15.4196 
4 *338:29 *2863:A1_N 14.1661 
5 *338:29 *2854:A2_N 10.3625 
*END

*D_NET *339 0.00327857
*CONN
*I *2858:A I *D sky130_fd_sc_hd__and2_1
*I *2863:B1 I *D sky130_fd_sc_hd__a2bb2o_1
*I *2855:Y O *D sky130_fd_sc_hd__o21ai_1
*CAP
1 *2858:A 0.000370702
2 *2863:B1 0.000585358
3 *2855:Y 0
4 *339:4 0.000956059
5 *2858:A *773:14 0.00020212
6 *2863:B1 *2856:A 0.000136958
7 *2863:B1 *2863:A2_N 0.000178847
8 *2849:A2 *2858:A 4.35048e-05
9 *2850:A1 *2858:A 0
10 *2854:A2_N *2863:B1 1.32276e-05
11 *2854:B1 *2863:B1 3.32731e-05
12 *2854:B2 *2858:A 0.000218045
13 *2854:B2 *2863:B1 0.000225616
14 *2855:B1 *2858:A 0
15 *2863:A1_N *2863:B1 0.000120168
16 *3141:D *2863:B1 0.000177821
17 *334:76 *2858:A 0
18 *338:29 *2863:B1 1.68715e-05
*RES
1 *2855:Y *339:4 9.3 
2 *339:4 *2863:B1 19.8357 
3 *339:4 *2858:A 24.8536 
*END

*D_NET *340 0.0126163
*CONN
*I *2952:B I *D sky130_fd_sc_hd__or3_4
*I *2964:D I *D sky130_fd_sc_hd__or4_2
*I *2958:B I *D sky130_fd_sc_hd__or3_2
*I *2946:B I *D sky130_fd_sc_hd__or3_4
*I *2898:A I *D sky130_fd_sc_hd__or4b_4
*I *2928:C_N I *D sky130_fd_sc_hd__or3b_4
*I *2934:C_N I *D sky130_fd_sc_hd__or3b_2
*I *2911:A I *D sky130_fd_sc_hd__or4b_2
*I *2905:A I *D sky130_fd_sc_hd__or4b_4
*I *2857:B1 I *D sky130_fd_sc_hd__a31o_1
*I *2856:X O *D sky130_fd_sc_hd__buf_2
*CAP
1 *2952:B 2.30826e-05
2 *2964:D 8.17417e-05
3 *2958:B 2.30855e-05
4 *2946:B 0
5 *2898:A 0
6 *2928:C_N 0
7 *2934:C_N 0
8 *2911:A 7.62127e-05
9 *2905:A 0.000365753
10 *2857:B1 9.85507e-05
11 *2856:X 0.000176228
12 *340:88 0.000283012
13 *340:61 0.000944461
14 *340:53 0.000551815
15 *340:43 0.0002236
16 *340:41 0.000706661
17 *340:29 0.000866292
18 *340:27 0.000847515
19 *340:10 0.000954543
20 *2857:B1 *595:10 6.19181e-05
21 *2905:A *2771:A 0.000362373
22 *2905:A *2905:C 2.38501e-05
23 *2905:A *3015:A1 9.54798e-06
24 *2905:A *3015:S 9.58632e-05
25 *2905:A *3095:A 0
26 *2905:A *370:86 9.86486e-06
27 *2905:A *370:88 1.58163e-05
28 *2905:A *759:12 0.000201887
29 *2911:A *3190:CLK 5.71472e-05
30 *2911:A *380:10 2.39779e-05
31 *2964:D *2862:A 1.17341e-05
32 *2964:D *2964:C 1.21309e-05
33 *2964:D *352:12 0.000121254
34 *340:10 *595:10 2.94103e-05
35 *340:10 *663:40 0
36 *340:27 *2952:C 1.56e-05
37 *340:27 *595:10 0.000330055
38 *340:29 *2952:C 1.58163e-05
39 *340:41 *2875:B 0.000320125
40 *340:41 *3047:A 0
41 *340:41 *365:14 4.15526e-05
42 *340:41 *384:14 0
43 *340:41 *411:8 5.49544e-05
44 *340:41 *415:27 3.48025e-05
45 *340:41 *677:20 0
46 *340:41 *773:59 0
47 *340:43 *2875:B 1.33343e-05
48 *340:53 *2898:B 5.33005e-05
49 *340:53 *2898:C 2.28499e-05
50 *340:53 *2946:C 6.24834e-05
51 *340:61 *2898:C 0.000246998
52 *340:61 *419:158 2.39999e-05
53 *340:88 *3015:A0 5.52238e-05
54 *340:88 *3015:A1 0.000171488
55 *340:88 *376:14 1.98839e-05
56 *340:88 *419:158 0.000420372
57 *2854:A1_N *340:10 0
58 *2855:A1 *2857:B1 0.000180777
59 *2863:A1_N *340:10 5.33005e-05
60 *2890:A *340:41 0.000165011
61 *2917:B *340:41 0.000135028
62 *2934:A *2911:A 0.000123589
63 *2946:A *340:43 0.000188586
64 *2946:A *340:53 9.90431e-05
65 *3139:D *340:10 1.50087e-05
66 *3141:D *340:10 0.00010326
67 *3468:A *340:43 0.000173328
68 *3468:A *340:53 0.00010096
69 *211:10 *2857:B1 0.000116481
70 *211:10 *340:10 0.000313458
71 *212:14 *340:53 0.000238846
72 *317:38 *340:27 2.39999e-05
73 *317:38 *340:29 1.03037e-05
74 *317:48 *340:29 2.27766e-05
75 *317:48 *340:41 3.30871e-05
76 *317:54 *340:53 8.27532e-05
77 *317:54 *340:61 0.000522023
78 *317:66 *340:61 4.24573e-05
79 *317:66 *340:88 0
80 *317:72 *2905:A 0.000223675
81 *317:113 *340:53 0
82 *318:50 *2964:D 8.6229e-06
83 *318:84 *340:41 6.56632e-05
84 *319:56 *2964:D 2.34204e-05
85 *319:88 *2964:D 1.08601e-05
86 *319:128 *2857:B1 0.000144875
87 *321:22 *2911:A 0.000168519
88 *321:28 *2911:A 5.52238e-05
89 *336:23 *340:43 9.22103e-06
*RES
1 *2856:X *340:10 18.4071 
2 *340:10 *2857:B1 17.2107 
3 *340:10 *340:27 12.9643 
4 *340:27 *340:29 1.76786 
5 *340:29 *340:41 19.5 
6 *340:41 *340:43 2.17857 
7 *340:43 *340:53 14.0536 
8 *340:53 *340:61 8.5 
9 *340:61 *2905:A 26.8536 
10 *340:61 *340:88 5.51786 
11 *340:88 *2911:A 21.0857 
12 *340:88 *2934:C_N 9.3 
13 *340:61 *2928:C_N 9.3 
14 *340:53 *2898:A 9.3 
15 *340:43 *2946:B 9.3 
16 *340:41 *2958:B 9.72857 
17 *340:29 *2964:D 20.2464 
18 *340:27 *2952:B 9.72857 
*END

*D_NET *341 0.000876686
*CONN
*I *2858:B I *D sky130_fd_sc_hd__and2_1
*I *2857:X O *D sky130_fd_sc_hd__a31o_1
*CAP
1 *2858:B 0.000375524
2 *2857:X 0.000375524
3 *2850:B1 *2858:B 2.8518e-05
4 *2855:A1 *2858:B 9.71197e-05
*RES
1 *2857:X *2858:B 23.4571 
*END

*D_NET *342 0.00210896
*CONN
*I *2859:A I *D sky130_fd_sc_hd__clkbuf_1
*I *2858:X O *D sky130_fd_sc_hd__and2_1
*CAP
1 *2859:A 0.000474248
2 *2858:X 0.000474248
3 *2859:A *3138:CLK 9.80173e-05
4 *2859:A *3138:RESET_B 9.84891e-05
5 *2859:A *595:10 1.02504e-05
6 *2859:A *595:23 0.000195555
7 *2859:A *595:36 0.000173097
8 *2859:A *663:30 0
9 *2859:A *663:32 0
10 *2859:A *663:34 0
11 *2859:A *770:14 0.000367031
12 *2859:A *773:14 0
13 *3139:D *2859:A 0.000218026
14 *3140:D *2859:A 0
*RES
1 *2858:X *2859:A 48.9929 
*END

*D_NET *343 0.00184457
*CONN
*I *2861:A I *D sky130_fd_sc_hd__or3b_1
*I *2898:B I *D sky130_fd_sc_hd__or4b_4
*I *2946:C I *D sky130_fd_sc_hd__or3_4
*I *2860:Y O *D sky130_fd_sc_hd__nand2_1
*CAP
1 *2861:A 5.46849e-05
2 *2898:B 0.000115508
3 *2946:C 0.00017838
4 *2860:Y 0
5 *343:10 0.000430171
6 *343:4 0.000190968
7 *2861:A *2861:C_N 9.60875e-05
8 *2861:A *772:67 4.25176e-05
9 *2898:B *2898:C 5.52302e-05
10 *2946:C *677:18 1.51745e-05
11 *343:10 *677:18 3.15739e-05
12 *212:14 *2946:C 0
13 *212:14 *343:10 0
14 *218:12 *343:10 1.01912e-05
15 *317:54 *2898:B 6.12642e-05
16 *317:113 *2946:C 5.26291e-05
17 *318:62 *2861:A 0.000211877
18 *318:62 *343:10 7.09043e-05
19 *321:22 *2861:A 4.13595e-05
20 *321:22 *343:10 7.02611e-05
21 *340:53 *2898:B 5.33005e-05
22 *340:53 *2946:C 6.24834e-05
*RES
1 *2860:Y *343:4 9.3 
2 *343:4 *343:10 7.5 
3 *343:10 *2946:C 16.9607 
4 *343:10 *2898:B 16.1214 
5 *343:4 *2861:A 11.4786 
*END

*D_NET *344 0.00240903
*CONN
*I *2862:A I *D sky130_fd_sc_hd__buf_2
*I *2861:X O *D sky130_fd_sc_hd__or3b_1
*CAP
1 *2862:A 0.000689653
2 *2861:X 0.000689653
3 *2862:A *2863:A2_N 1.97695e-05
4 *2862:A *2873:A 9.09049e-05
5 *2862:A *3070:A 5.76822e-05
6 *2862:A *352:12 0.000100999
7 *2862:A *352:20 0.000188447
8 *2862:A *361:10 3.63587e-05
9 *2862:A *361:30 1.41029e-05
10 *2862:A *607:22 4.00228e-05
11 *2964:D *2862:A 1.17341e-05
12 *318:50 *2862:A 4.7854e-05
13 *318:52 *2862:A 3.97677e-05
14 *318:62 *2862:A 6.21402e-05
15 *319:50 *2862:A 9.58181e-05
16 *319:54 *2862:A 0.000140088
17 *321:22 *2862:A 3.47798e-05
18 *336:12 *2862:A 3.34366e-05
19 *336:23 *2862:A 1.58163e-05
*RES
1 *2861:X *2862:A 41.3143 
*END

*D_NET *345 0.0327973
*CONN
*I *2863:A2_N I *D sky130_fd_sc_hd__a2bb2o_1
*I *3017:A I *D sky130_fd_sc_hd__nor2_1
*I *2597:A I *D sky130_fd_sc_hd__nor2_1
*I *2923:B I *D sky130_fd_sc_hd__nor2_1
*I *3101:A I *D sky130_fd_sc_hd__nor2_1
*I *2862:X O *D sky130_fd_sc_hd__buf_2
*CAP
1 *2863:A2_N 0.000193572
2 *3017:A 0
3 *2597:A 0
4 *2923:B 0
5 *3101:A 0.000557961
6 *2862:X 0
7 *345:79 0.00237386
8 *345:61 0.00639753
9 *345:30 0.0053435
10 *345:16 0.00399813
11 *345:4 0.00342983
12 *3101:A *3102:A1 0.000100074
13 *3101:A *3389:A 6.44788e-05
14 *3101:A *407:20 0
15 *3101:A *445:21 2.06178e-05
16 *3101:A *476:98 0.000167081
17 *345:16 *2707:A1 1.45957e-05
18 *345:16 *3017:B 3.4355e-05
19 *345:16 *3066:A0 0.000113061
20 *345:16 *3070:A 0
21 *345:16 *3080:A 0.000724344
22 *345:16 *365:14 8.19657e-05
23 *345:16 *371:16 0.000127962
24 *345:16 *384:26 0.00146767
25 *345:16 *419:136 0.00041514
26 *345:16 *419:144 0.000863959
27 *345:16 *474:18 0.000239417
28 *345:16 *590:176 0.000100754
29 *345:16 *594:83 0.000113061
30 *345:30 *2707:A1 4.15938e-05
31 *345:30 *3017:B 1.00887e-05
32 *345:30 *430:64 0
33 *345:30 *476:98 2.06178e-05
34 *345:30 *726:26 0.000418815
35 *345:61 *2557:B 6.6833e-05
36 *345:79 *2618:A1 0.000188586
37 *345:79 *2619:A 0.000271345
38 *345:79 *2725:B2 0
39 *345:79 *2727:A1 0.00015234
40 *345:79 *2727:B2 8.06427e-05
41 *345:79 *2814:B2 0.00030926
42 *345:79 *2842:A0 9.64609e-05
43 *345:79 *2896:A 0.00059744
44 *345:79 *3367:A 2.89114e-05
45 *345:79 *369:132 0.000163765
46 *345:79 *528:82 0.00012401
47 *345:79 *922:10 0.000239816
48 *2727:B1 *345:79 7.80714e-06
49 *2728:C *345:61 0
50 *2728:C *345:79 0
51 *2805:B1 *345:79 0
52 *2816:B *345:79 1.33343e-05
53 *2862:A *2863:A2_N 1.97695e-05
54 *2863:A1_N *2863:A2_N 0
55 *2863:B1 *2863:A2_N 0.000178847
56 *2923:A *345:79 7.36469e-05
57 *181:32 *345:30 4.65991e-05
58 *202:52 *345:16 0
59 *202:77 *3101:A 1.80261e-05
60 *209:18 *345:30 0.000404397
61 *218:42 *345:61 0.00228139
62 *285:22 *345:30 0
*RES
1 *2862:X *345:4 9.3 
2 *345:4 *345:16 21.0775 
3 *345:16 *345:30 28.9662 
4 *345:30 *3101:A 22.5583 
5 *345:30 *345:61 21.21 
6 *345:61 *345:79 44.2321 
7 *345:79 *2923:B 9.3 
8 *345:61 *2597:A 13.8 
9 *345:16 *3017:A 13.8 
10 *345:4 *2863:A2_N 12.925 
*END

*D_NET *346 0.00355861
*CONN
*I *2866:A I *D sky130_fd_sc_hd__and2_1
*I *2869:B1 I *D sky130_fd_sc_hd__a2bb2o_1
*I *2864:X O *D sky130_fd_sc_hd__a21bo_1
*CAP
1 *2866:A 0.000402699
2 *2869:B1 0.000885161
3 *2864:X 0.000148718
4 *346:10 0.00143658
5 *2866:A *2866:B 7.51286e-05
6 *2866:A *3143:RESET_B 0.000178503
7 *2869:B1 *2869:B2 2.11336e-05
8 *2869:B1 *3143:CLK 9.44309e-06
9 *2869:B1 *3143:RESET_B 5.49995e-05
10 *2853:A *346:10 7.67203e-05
11 *2868:B *346:10 7.5196e-05
12 *3143:D *2869:B1 9.87041e-05
13 *312:27 *346:10 9.56282e-05
14 *334:21 *346:10 0
*RES
1 *2864:X *346:10 21.7643 
2 *346:10 *2869:B1 20.0143 
3 *346:10 *2866:A 14.675 
*END

*D_NET *347 0.00102142
*CONN
*I *2866:B I *D sky130_fd_sc_hd__and2_1
*I *2865:X O *D sky130_fd_sc_hd__a21o_1
*CAP
1 *2866:B 0.00034503
2 *2865:X 0.00034503
3 *2866:B *3143:RESET_B 0.000122101
4 *2866:B *3316:A 5.49995e-05
5 *2865:A1 *2866:B 4.27842e-06
6 *2866:A *2866:B 7.51286e-05
7 *312:27 *2866:B 7.48554e-05
*RES
1 *2865:X *2866:B 34.3321 
*END

*D_NET *348 0.00147598
*CONN
*I *2867:A I *D sky130_fd_sc_hd__clkbuf_1
*I *2866:X O *D sky130_fd_sc_hd__and2_1
*CAP
1 *2867:A 0.000437759
2 *2866:X 0.000437759
3 *2867:A *2865:B1 0.000267137
4 *2867:A *3316:A 8.67634e-05
5 *2867:A *674:10 0.000104617
6 *2865:A2 *2867:A 0.000141941
*RES
1 *2866:X *2867:A 37.0821 
*END

*D_NET *349 0.00111896
*CONN
*I *2869:A2_N I *D sky130_fd_sc_hd__a2bb2o_1
*I *2868:X O *D sky130_fd_sc_hd__or2_1
*CAP
1 *2869:A2_N 0.000332155
2 *2868:X 0.000332155
3 *2869:A2_N *775:51 1.16543e-05
4 *2853:B *2869:A2_N 7.15909e-05
5 *323:54 *2869:A2_N 0
6 *338:10 *2869:A2_N 0.000347832
7 *338:29 *2869:A2_N 2.35753e-05
*RES
1 *2868:X *2869:A2_N 32.9571 
*END

*D_NET *350 0.0416026
*CONN
*I *2653:A2 I *D sky130_fd_sc_hd__a21oi_1
*I *2872:A I *D sky130_fd_sc_hd__buf_2
*I *2989:A I *D sky130_fd_sc_hd__buf_2
*I *3107:A1 I *D sky130_fd_sc_hd__mux2_1
*I *3112:A1 I *D sky130_fd_sc_hd__mux2_1
*I *2896:A I *D sky130_fd_sc_hd__buf_2
*I *2578:A1 I *D sky130_fd_sc_hd__mux2_1
*I *2598:A1 I *D sky130_fd_sc_hd__mux2_1
*I *3005:A I *D sky130_fd_sc_hd__clkbuf_4
*I *3123:A1 I *D sky130_fd_sc_hd__mux2_1
*I *2871:X O *D sky130_fd_sc_hd__clkbuf_4
*CAP
1 *2653:A2 0.000434313
2 *2872:A 9.6577e-05
3 *2989:A 0.000947398
4 *3107:A1 0
5 *3112:A1 0
6 *2896:A 0.00149123
7 *2578:A1 4.8652e-05
8 *2598:A1 0.000229684
9 *3005:A 2.52229e-05
10 *3123:A1 2.25053e-05
11 *2871:X 0
12 *350:137 0.00153988
13 *350:120 0.000578275
14 *350:118 0.00183477
15 *350:93 0.00200319
16 *350:85 0.00104459
17 *350:83 0.00208512
18 *350:62 0.0026414
19 *350:50 0.00273692
20 *350:42 0.0028253
21 *350:20 0.00278609
22 *350:4 0.00100148
23 *2578:A1 *927:10 5.03772e-05
24 *2598:A1 *2578:A0 7.89362e-05
25 *2598:A1 *2579:A 4.87841e-05
26 *2598:A1 *2598:A0 7.3525e-05
27 *2598:A1 *2598:S 4.13389e-05
28 *2598:A1 *2727:B2 0
29 *2598:A1 *693:36 0.000271439
30 *2598:A1 *809:12 6.14551e-05
31 *2653:A2 *630:12 0.000148196
32 *2872:A *351:16 9.31893e-05
33 *2896:A *2619:A 0.000214
34 *2896:A *2620:A1 0.000185408
35 *2896:A *2814:B2 0.000116665
36 *2896:A *2842:A0 0.000126204
37 *2896:A *3367:A 2.85321e-05
38 *2896:A *369:10 0.00031151
39 *2896:A *369:132 5.46383e-06
40 *2896:A *922:10 0.000149743
41 *2896:A *927:10 4.5447e-05
42 *2989:A *2550:B 2.37871e-05
43 *2989:A *2551:S 0
44 *2989:A *2553:A1 7.85137e-05
45 *2989:A *3067:A 0
46 *2989:A *3133:A0 9.75173e-05
47 *2989:A *3383:A 3.51643e-05
48 *2989:A *355:34 5.49544e-05
49 *2989:A *415:50 0
50 *2989:A *511:150 0
51 *2989:A *524:10 0
52 *2989:A *677:20 0
53 *3005:A *445:124 5.52238e-05
54 *3123:A1 *3123:A0 1.58163e-05
55 *3123:A1 *3126:A 5.33005e-05
56 *350:20 *2810:B2 0.000312475
57 *350:20 *359:96 9.90914e-05
58 *350:20 *592:24 0.000100831
59 *350:42 *2556:B 0.000117314
60 *350:42 *2636:A 0
61 *350:42 *2737:A1 0.000269385
62 *350:42 *2737:A2 0.000295148
63 *350:42 *2877:B 9.11157e-06
64 *350:42 *2941:B 0
65 *350:42 *2959:B 0
66 *350:42 *2960:S 0
67 *350:42 *3173:CLK 0.000135028
68 *350:42 *3445:A 0.000423866
69 *350:42 *351:16 0.000344225
70 *350:42 *355:38 0
71 *350:42 *359:70 7.14469e-05
72 *350:42 *527:118 6.74804e-05
73 *350:42 *590:108 1.94879e-05
74 *350:42 *606:81 0
75 *350:42 *890:12 2.28598e-05
76 *350:50 *355:34 0.000448036
77 *350:50 *419:57 0.000132574
78 *350:62 *355:34 4.28249e-05
79 *350:62 *590:14 4.88232e-05
80 *350:62 *715:30 0.000110341
81 *350:83 *3107:A0 0.000179745
82 *350:83 *3107:S 0.000187347
83 *350:83 *358:138 0.000964912
84 *350:83 *715:30 0.000141375
85 *350:85 *3107:A0 5.71472e-05
86 *350:85 *3112:A0 0.000610077
87 *350:93 *445:124 0.000828457
88 *350:93 *748:24 0.000338995
89 *350:118 *2577:B 0.000128154
90 *350:118 *2588:S 0.000122407
91 *350:118 *2590:A1 0.000145753
92 *350:118 *2615:S 0.000263763
93 *350:118 *2623:A1 6.73707e-06
94 *350:118 *2625:S 8.38007e-05
95 *350:118 *2721:A1 0
96 *350:118 *527:50 0.000141382
97 *350:118 *547:14 3.31747e-05
98 *350:118 *726:38 0.000391863
99 *350:120 *2578:S 0.000142966
100 *350:120 *2598:A0 5.97719e-05
101 *350:120 *2600:A0 3.92854e-05
102 *350:120 *2725:B2 0
103 *350:120 *2727:B2 0
104 *350:120 *927:10 0
105 *2590:A0 *350:118 2.47635e-05
106 *2595:A0 *350:42 7.74068e-05
107 *2628:A0 *350:42 0.000130607
108 *2725:B1 *350:120 0.000240484
109 *2727:B1 *350:118 0.000417417
110 *2727:B1 *350:120 0
111 *2729:B1 *350:118 7.67902e-05
112 *2749:C *2989:A 9.76123e-05
113 *2752:A2 *350:50 2.41972e-05
114 *2755:A2 *350:50 0.000310236
115 *2761:B *350:50 9.41642e-05
116 *2762:C *350:50 0.00028286
117 *2808:A3 *350:118 0.000102184
118 *2819:A3 *350:42 0
119 *2836:A *350:42 3.01126e-05
120 *2836:B *350:42 0.000304585
121 *2837:A *350:42 0
122 *2840:A *2896:A 5.49995e-05
123 *2871:A *350:20 0.000112801
124 *3135:D *2896:A 0.000146491
125 *3173:D *350:42 8.52807e-05
126 *3227:D *350:93 0
127 *3233:D *350:83 0.000139907
128 *3238:D *2989:A 0.000145614
129 *3295:A *350:93 0.000122494
130 *192:36 *350:85 9.01258e-06
131 *193:14 *350:62 0.000108516
132 *193:14 *350:83 0.000150625
133 *202:107 *350:118 0.000626894
134 *212:91 *350:118 0
135 *218:42 *350:118 0.000255722
136 *218:124 *350:42 0
137 *220:18 *350:118 0.000198025
138 *220:18 *350:120 1.21859e-05
139 *231:14 *350:62 0
140 *235:20 *350:93 0
141 *241:32 *2989:A 9.48074e-05
142 *254:28 *350:42 5.28442e-06
143 *281:24 *350:42 0.000178517
144 *281:24 *350:50 0
145 *285:22 *350:93 9.31209e-05
146 *300:20 *350:20 4.78056e-05
147 *307:18 *350:42 0
148 *315:22 *2653:A2 0.000519869
149 *315:22 *350:20 5.52302e-05
150 *316:36 *350:42 6.51048e-05
151 *325:118 *350:42 0.000148189
152 *328:71 *350:118 0.000640697
153 *328:133 *350:42 0
154 *345:79 *2896:A 0.00059744
*RES
1 *2871:X *350:4 9.3 
2 *350:4 *350:20 18.6429 
3 *350:20 *350:42 47.8214 
4 *350:42 *350:50 24.2679 
5 *350:50 *350:62 11.2037 
6 *350:62 *3123:A1 14.3357 
7 *350:62 *350:83 30.9643 
8 *350:83 *350:85 7.51786 
9 *350:85 *350:93 21.3036 
10 *350:93 *3005:A 9.83571 
11 *350:93 *350:118 42.9196 
12 *350:118 *350:120 8.16964 
13 *350:120 *2598:A1 20.1036 
14 *350:120 *350:137 4.5 
15 *350:137 *2578:A1 10.2464 
16 *350:137 *2896:A 42.5321 
17 *350:85 *3112:A1 9.3 
18 *350:83 *3107:A1 9.3 
19 *350:50 *2989:A 29.675 
20 *350:20 *2872:A 11.4964 
21 *350:4 *2653:A2 25.3 
*END

*D_NET *351 0.0256754
*CONN
*I *2984:A0 I *D sky130_fd_sc_hd__mux2_1
*I *2979:A0 I *D sky130_fd_sc_hd__mux2_1
*I *2886:A0 I *D sky130_fd_sc_hd__mux2_1
*I *2892:A0 I *D sky130_fd_sc_hd__mux2_1
*I *2942:A0 I *D sky130_fd_sc_hd__mux2_1
*I *2960:A0 I *D sky130_fd_sc_hd__mux2_1
*I *2954:A0 I *D sky130_fd_sc_hd__mux2_1
*I *2878:A0 I *D sky130_fd_sc_hd__mux2_1
*I *2966:A0 I *D sky130_fd_sc_hd__mux2_1
*I *2919:A0 I *D sky130_fd_sc_hd__mux2_1
*I *2872:X O *D sky130_fd_sc_hd__buf_2
*CAP
1 *2984:A0 0.000249826
2 *2979:A0 2.50801e-05
3 *2886:A0 0.00054594
4 *2892:A0 0.000170019
5 *2942:A0 0
6 *2960:A0 0.000106951
7 *2954:A0 0.000128582
8 *2878:A0 4.60868e-05
9 *2966:A0 0.000129324
10 *2919:A0 0.001894
11 *2872:X 0
12 *351:150 0.00177496
13 *351:114 0.00130442
14 *351:95 0.00127061
15 *351:24 0.00208045
16 *351:22 0.000172742
17 *351:20 0.000397548
18 *351:18 0.000520313
19 *351:16 0.00175353
20 *351:4 0.00235751
21 *2886:A0 *2886:A1 0.00014285
22 *2886:A0 *2887:A 0.000313601
23 *2886:A0 *385:10 0
24 *2886:A0 *606:27 0.000353366
25 *2919:A0 *2809:A1 0.000128154
26 *2919:A0 *3160:CLK 0.000207844
27 *2919:A0 *3174:CLK 0.000278306
28 *2919:A0 *605:60 2.14757e-05
29 *2919:A0 *605:73 0.000366106
30 *2919:A0 *889:14 9.83388e-05
31 *2919:A0 *913:10 0.000275513
32 *2919:A0 *920:8 0.000128154
33 *2954:A0 *2809:A1 5.33005e-05
34 *2954:A0 *2954:A1 2.67758e-05
35 *2954:A0 *2954:S 3.11088e-05
36 *2960:A0 *2960:A1 9.18507e-05
37 *2960:A0 *2960:S 5.49489e-05
38 *2966:A0 *2966:A1 2.84109e-05
39 *2966:A0 *2966:S 9.41642e-05
40 *2979:A0 *425:6 5.50052e-05
41 *2984:A0 *2984:A1 7.74135e-05
42 *351:16 *2962:A0 0.000212324
43 *351:16 *2963:A 7.6644e-05
44 *351:16 *356:14 0
45 *351:16 *890:12 9.91086e-05
46 *351:18 *2953:B 0.00011217
47 *351:18 *2956:S 4.27842e-06
48 *351:18 *2965:B 0.000155648
49 *351:18 *608:37 0.000221623
50 *351:18 *796:30 9.25014e-06
51 *351:20 *2809:B2 2.28343e-05
52 *351:20 *2954:S 0.000102943
53 *351:20 *2956:S 5.49657e-05
54 *351:20 *608:37 0.000170994
55 *351:22 *2809:A1 0.000145564
56 *351:22 *2809:B2 0.000124406
57 *351:22 *920:8 4.56437e-05
58 *351:24 *2809:A1 0.000223592
59 *351:24 *920:8 0.000216057
60 *351:95 *2636:A 1.98839e-05
61 *351:95 *2812:A1 0.000268403
62 *351:95 *2965:B 8.5048e-05
63 *351:95 *3424:A 1.04232e-05
64 *351:95 *511:10 0.000148903
65 *351:95 *511:18 0.00102967
66 *351:95 *608:37 6.14499e-05
67 *351:95 *796:30 6.73939e-05
68 *351:114 *2736:A2 0.000184745
69 *351:114 *2812:A1 8.88834e-05
70 *351:114 *2812:A2 0.000120521
71 *351:114 *2812:B2 6.19181e-05
72 *351:114 *511:18 0.000484102
73 *351:114 *715:58 0
74 *351:114 *759:34 0
75 *351:150 *2639:A 0
76 *351:150 *2810:B2 9.91086e-05
77 *351:150 *2818:B1 2.6949e-05
78 *351:150 *2980:A 3.98645e-05
79 *351:150 *2981:A1 3.92854e-05
80 *351:150 *2981:S 9.4726e-05
81 *351:150 *359:83 0
82 *351:150 *592:24 0
83 *2732:C1 *2878:A0 9.60939e-05
84 *2734:A2 *2886:A0 6.74911e-05
85 *2734:A2 *2892:A0 0.000200744
86 *2736:B1 *351:114 0.000195184
87 *2812:C1 *351:114 9.25014e-06
88 *2816:A *351:114 7.83659e-05
89 *2872:A *351:16 9.31893e-05
90 *3160:D *2919:A0 0.000170976
91 *3174:D *2919:A0 8.89117e-05
92 *3270:D *351:150 0
93 *3280:D *351:150 9.9784e-05
94 *3281:D *351:150 0.000316402
95 *202:14 *2886:A0 0.000333032
96 *211:47 *351:16 5.74562e-05
97 *300:20 *2954:A0 2.48266e-05
98 *300:20 *351:150 0
99 *322:31 *2886:A0 0.00014285
100 *325:32 *2892:A0 5.71472e-05
101 *325:49 *2886:A0 0.000142797
102 *325:49 *2892:A0 0.000389146
103 *328:133 *351:95 4.00679e-05
104 *328:149 *351:95 4.35131e-05
105 *350:42 *351:16 0.000344225
*RES
1 *2872:X *351:4 9.3 
2 *351:4 *351:16 25.75 
3 *351:16 *351:18 5.89286 
4 *351:18 *351:20 4.98214 
5 *351:20 *351:22 2.25 
6 *351:22 *351:24 2.85714 
7 *351:24 *2919:A0 44.6214 
8 *351:24 *2966:A0 15.9786 
9 *351:22 *2878:A0 14.7464 
10 *351:20 *2954:A0 16.425 
11 *351:18 *2960:A0 15.9786 
12 *351:16 *351:95 21.875 
13 *351:95 *2942:A0 9.3 
14 *351:95 *351:114 25.5714 
15 *351:114 *2892:A0 19.3179 
16 *351:114 *2886:A0 29.2464 
17 *351:4 *351:150 32.2857 
18 *351:150 *2979:A0 14.3357 
19 *351:150 *2984:A0 18.175 
*END

*D_NET *352 0.00690922
*CONN
*I *2952:C I *D sky130_fd_sc_hd__or3_4
*I *2876:A I *D sky130_fd_sc_hd__or2_1
*I *2928:A I *D sky130_fd_sc_hd__or3b_4
*I *2905:C I *D sky130_fd_sc_hd__or4b_4
*I *2873:X O *D sky130_fd_sc_hd__or2b_1
*CAP
1 *2952:C 3.28144e-05
2 *2876:A 2.65284e-05
3 *2928:A 0.000247965
4 *2905:C 0.000124942
5 *2873:X 0.000200856
6 *352:34 0.00113543
7 *352:20 0.00115284
8 *352:12 0.000597461
9 *2876:A *419:136 7.17133e-06
10 *2905:C *3015:S 0.00026023
11 *2905:C *370:86 0.000425384
12 *2905:C *447:12 6.22482e-05
13 *2928:A *403:28 1.44817e-05
14 *2928:A *419:144 0.000133176
15 *2928:A *432:46 0.000210329
16 *2928:A *678:12 6.31898e-05
17 *352:20 *2876:B 6.2379e-05
18 *352:20 *361:30 3.43988e-06
19 *352:20 *415:27 6.27272e-06
20 *352:34 *2708:A 0.000277216
21 *352:34 *3058:A 2.18985e-05
22 *352:34 *3058:B 4.97967e-05
23 *352:34 *370:86 0.000181114
24 *352:34 *384:14 0.000230365
25 *352:34 *419:136 5.92739e-05
26 *352:34 *447:12 0.000180488
27 *352:34 *873:14 9.41642e-05
28 *2708:B *352:34 0.000180207
29 *2862:A *352:12 0.000100999
30 *2862:A *352:20 0.000188447
31 *2875:A *2876:A 5.78102e-05
32 *2875:A *352:20 7.6612e-06
33 *2875:A *352:34 1.08997e-05
34 *2890:B *352:20 0
35 *2905:A *2905:C 2.38501e-05
36 *2964:D *352:12 0.000121254
37 *3468:A *352:34 0.000159133
38 *317:38 *2952:C 9.60939e-05
39 *319:56 *352:12 0
40 *336:12 *352:20 6.99874e-05
41 *340:27 *2952:C 1.56e-05
42 *340:29 *2952:C 1.58163e-05
*RES
1 *2873:X *352:12 17.425 
2 *352:12 *352:20 11.0714 
3 *352:20 *352:34 16.0536 
4 *352:34 *2905:C 13.5321 
5 *352:34 *2928:A 23.5143 
6 *352:20 *2876:A 10.0321 
7 *352:12 *2952:C 14.7464 
*END

*D_NET *353 0.00157969
*CONN
*I *2875:B I *D sky130_fd_sc_hd__or2_1
*I *2874:Y O *D sky130_fd_sc_hd__nand2_1
*CAP
1 *2875:B 0.000261584
2 *2874:Y 0.000261584
3 *2875:B *2890:C 2.84109e-05
4 *2875:B *3047:A 1.01241e-05
5 *2875:B *677:18 0.000262467
6 *317:113 *2875:B 0.000149554
7 *336:23 *2875:B 0.000272508
8 *340:41 *2875:B 0.000320125
9 *340:43 *2875:B 1.33343e-05
*RES
1 *2874:Y *2875:B 35.4571 
*END

*D_NET *354 0.0009253
*CONN
*I *2884:B I *D sky130_fd_sc_hd__or2_2
*I *2876:B I *D sky130_fd_sc_hd__or2_1
*I *2890:C I *D sky130_fd_sc_hd__or3_2
*I *2875:X O *D sky130_fd_sc_hd__or2_1
*CAP
1 *2884:B 3.51223e-05
2 *2876:B 9.36214e-05
3 *2890:C 0.000118101
4 *2875:X 0
5 *354:6 0.000236317
6 *354:4 5.97169e-05
7 *2875:A *2876:B 0.000208109
8 *2875:B *2890:C 2.84109e-05
9 *336:23 *2884:B 2.36898e-05
10 *336:23 *2890:C 4.1518e-05
11 *336:23 *354:6 1.83136e-05
12 *352:20 *2876:B 6.2379e-05
*RES
1 *2875:X *354:4 9.3 
2 *354:4 *354:6 0.535714 
3 *354:6 *2890:C 11.4964 
4 *354:6 *2876:B 20.9786 
5 *354:4 *2884:B 10.2643 
*END

*D_NET *355 0.0139781
*CONN
*I *3065:A I *D sky130_fd_sc_hd__or2_1
*I *2978:A I *D sky130_fd_sc_hd__or2_1
*I *2562:A I *D sky130_fd_sc_hd__or2_1
*I *2877:B I *D sky130_fd_sc_hd__or2_1
*I *2876:X O *D sky130_fd_sc_hd__or2_1
*CAP
1 *3065:A 0.000359093
2 *2978:A 0.00112471
3 *2562:A 0
4 *2877:B 0.000538586
5 *2876:X 0.000334192
6 *355:42 0.000601317
7 *355:38 0.00125663
8 *355:34 0.00118378
9 *355:10 0.00180788
10 *2877:B *2790:A1 0.000217698
11 *2877:B *571:18 3.5848e-05
12 *2877:B *827:10 1.98839e-05
13 *2978:A *2978:B 5.4959e-05
14 *2978:A *3269:CLK 0.000555256
15 *3065:A *2550:B 9.58689e-05
16 *3065:A *3133:A0 1.94066e-05
17 *3065:A *415:50 0.000123128
18 *355:10 *3059:A 0
19 *355:10 *3299:A 4.65158e-06
20 *355:10 *415:27 0.000444493
21 *355:10 *419:136 4.84159e-05
22 *355:10 *677:20 0
23 *355:10 *715:20 1.9774e-05
24 *355:34 *2550:B 0.000269379
25 *355:34 *2749:B 9.1235e-05
26 *355:34 *3133:A0 0.000114553
27 *355:34 *411:10 1.00887e-05
28 *355:34 *411:14 0.00189337
29 *355:34 *415:27 5.33614e-05
30 *355:34 *677:20 0.000276869
31 *355:38 *606:81 2.19502e-05
32 *355:38 *606:102 9.77732e-05
33 *355:42 *2556:B 4.6025e-06
34 *355:42 *527:118 1.46648e-05
35 *355:42 *606:81 0.000120764
36 *2595:A0 *2978:A 2.42759e-05
37 *2628:A0 *2877:B 3.12359e-05
38 *2761:B *355:34 0.000136676
39 *2762:C *355:34 0.000441274
40 *2786:C *355:34 0.000125724
41 *2836:B *2877:B 2.61337e-05
42 *2989:A *355:34 5.49544e-05
43 *3269:D *2978:A 2.78261e-05
44 *174:35 *2877:B 9.74665e-05
45 *281:24 *355:38 7.47202e-05
46 *281:24 *355:42 7.54868e-05
47 *316:36 *2877:B 0.000131553
48 *316:46 *2877:B 0.000310328
49 *322:10 *2877:B 9.60293e-05
50 *323:26 *2877:B 1.02503e-05
51 *350:42 *2877:B 9.11157e-06
52 *350:42 *355:38 0
53 *350:50 *355:34 0.000448036
54 *350:62 *355:34 4.28249e-05
*RES
1 *2876:X *355:10 20.6393 
2 *355:10 *355:34 46.2679 
3 *355:34 *355:38 6.14286 
4 *355:38 *355:42 6.14286 
5 *355:42 *2877:B 28.9429 
6 *355:42 *2562:A 9.3 
7 *355:38 *2978:A 27.0857 
8 *355:10 *3065:A 18.7643 
*END

*D_NET *356 0.00587176
*CONN
*I *2878:S I *D sky130_fd_sc_hd__mux2_1
*I *2882:S I *D sky130_fd_sc_hd__mux2_1
*I *2877:X O *D sky130_fd_sc_hd__or2_1
*CAP
1 *2878:S 2.75979e-05
2 *2882:S 0.000174226
3 *2877:X 0.00125776
4 *356:14 0.00145958
5 *2878:S *2878:A1 9.71197e-05
6 *2878:S *3352:A 1.39726e-05
7 *2882:S *2968:A0 0.000188586
8 *2882:S *359:119 0
9 *2882:S *416:12 9.01334e-05
10 *356:14 *2633:S 0.000189448
11 *356:14 *2635:S 0.000311751
12 *356:14 *2763:A1 0
13 *356:14 *2954:S 1.53675e-05
14 *356:14 *2955:A 3.83655e-05
15 *356:14 *2965:B 0.000694361
16 *356:14 *3445:A 0.000117369
17 *356:14 *359:70 0.000135028
18 *356:14 *359:119 0
19 *356:14 *415:52 6.82922e-05
20 *356:14 *416:12 7.34455e-06
21 *356:14 *890:12 3.2534e-05
22 *2732:C1 *2878:S 2.89114e-05
23 *2732:C1 *356:14 0.000309612
24 *211:47 *356:14 0
25 *222:26 *356:14 0.000148182
26 *300:20 *356:14 0.000121831
27 *316:22 *356:14 3.57844e-05
28 *316:36 *356:14 0.000308592
29 *351:16 *356:14 0
*RES
1 *2877:X *356:14 44.4786 
2 *356:14 *2882:S 17.8179 
3 *356:14 *2878:S 14.7464 
*END

*D_NET *357 0.00145877
*CONN
*I *2879:A I *D sky130_fd_sc_hd__clkbuf_1
*I *2878:X O *D sky130_fd_sc_hd__mux2_1
*CAP
1 *2879:A 0.000397192
2 *2878:X 0.000397192
3 *2879:A *2809:A1 6.47912e-05
4 *2879:A *2966:A1 7.85137e-05
5 *2879:A *2967:A 0
6 *2879:A *3357:A 2.97756e-05
7 *2879:A *888:8 6.61173e-05
8 *2879:A *889:14 8.38962e-05
9 *2879:A *920:8 0.000267814
10 *3146:D *2879:A 7.34832e-05
*RES
1 *2878:X *2879:A 37.4036 
*END

*D_NET *358 0.0346376
*CONN
*I *2881:A I *D sky130_fd_sc_hd__buf_2
*I *2902:A I *D sky130_fd_sc_hd__clkbuf_4
*I *2600:A1 I *D sky130_fd_sc_hd__mux2_1
*I *3114:A1 I *D sky130_fd_sc_hd__mux2_1
*I *3109:A1 I *D sky130_fd_sc_hd__mux2_1
*I *3125:A1 I *D sky130_fd_sc_hd__mux2_1
*I *2986:A I *D sky130_fd_sc_hd__clkbuf_4
*I *3009:A I *D sky130_fd_sc_hd__clkbuf_4
*I *3098:A I *D sky130_fd_sc_hd__buf_2
*I *2580:A1 I *D sky130_fd_sc_hd__mux2_1
*I *2880:X O *D sky130_fd_sc_hd__clkbuf_4
*CAP
1 *2881:A 0.00044756
2 *2902:A 0
3 *2600:A1 0
4 *3114:A1 0
5 *3109:A1 8.93818e-05
6 *3125:A1 0
7 *2986:A 0
8 *3009:A 0
9 *3098:A 0
10 *2580:A1 0
11 *2880:X 0
12 *358:138 0.00126919
13 *358:114 0.00236986
14 *358:96 0.00180149
15 *358:79 0.000933371
16 *358:64 0.000264856
17 *358:57 0.00125009
18 *358:36 0.00215117
19 *358:30 0.00228347
20 *358:22 0.00361294
21 *358:6 0.00240328
22 *358:4 0.000498599
23 *2881:A *2959:B 5.16489e-05
24 *2881:A *359:8 0.000140933
25 *2881:A *605:8 1.78447e-05
26 *3109:A1 *832:10 0.000183477
27 *358:22 *2797:B2 0.000138984
28 *358:22 *2805:B2 0
29 *358:22 *2894:S 0.000267428
30 *358:22 *3150:CLK 0.000226267
31 *358:22 *3435:A 5.52302e-05
32 *358:22 *374:8 7.02611e-05
33 *358:22 *917:8 0.000233999
34 *358:22 *924:8 0.000266479
35 *358:30 *2600:A0 3.47797e-05
36 *358:30 *2600:S 3.3283e-05
37 *358:30 *528:82 1.97291e-05
38 *358:36 *2560:S 0.000153047
39 *358:36 *2573:A0 0
40 *358:36 *2573:A1 7.83659e-05
41 *358:36 *2573:S 3.69772e-05
42 *358:36 *2575:A1 0
43 *358:36 *2599:A 0.00018372
44 *358:36 *2600:A0 1.55885e-05
45 *358:36 *2600:S 1.24368e-05
46 *358:36 *2601:A 9.47028e-05
47 *358:36 *2724:B2 0
48 *358:36 *2803:B2 8.08376e-05
49 *358:36 *2806:B2 0
50 *358:36 *3334:A 0
51 *358:36 *529:8 0.000147474
52 *358:36 *591:10 0.000200131
53 *358:36 *811:10 1.39841e-05
54 *358:36 *817:10 0
55 *358:36 *926:8 7.26935e-05
56 *358:57 *2622:A 5.56869e-05
57 *358:57 *2622:B 6.53272e-05
58 *358:57 *2801:A1 0.00025794
59 *358:57 *2801:B2 0.000222024
60 *358:57 *511:100 0.000344932
61 *358:57 *544:22 4.58835e-05
62 *358:57 *591:10 4.62539e-05
63 *358:57 *598:29 0.00010732
64 *358:57 *598:44 0.000104643
65 *358:57 *598:55 0.000192592
66 *358:64 *442:16 3.18676e-05
67 *358:79 *3413:A 5.33005e-05
68 *358:79 *442:16 4.87854e-05
69 *358:79 *445:8 0.000197984
70 *358:79 *726:38 0
71 *358:96 *3114:A0 5.33005e-05
72 *358:96 *3413:A 0.000279455
73 *358:96 *399:73 0.00015134
74 *358:96 *476:66 1.98839e-05
75 *358:96 *748:24 0.000376921
76 *358:96 *748:39 0.000101091
77 *358:96 *828:16 3.99614e-06
78 *358:114 *3109:A0 6.67763e-05
79 *358:114 *3110:A 4.94435e-05
80 *358:114 *3112:S 3.22095e-05
81 *358:114 *399:34 0
82 *358:114 *476:56 2.71152e-05
83 *358:114 *748:39 9.24072e-05
84 *358:138 *2786:A 7.19623e-05
85 *358:138 *3107:S 0.000203732
86 *358:138 *3110:A 0.000198574
87 *358:138 *3122:A 5.33005e-05
88 *358:138 *3122:B 9.41642e-05
89 *358:138 *3125:S 0.000137561
90 *2618:A0 *358:22 0
91 *2713:B *358:114 0.000136951
92 *2713:D *358:114 7.93525e-05
93 *2724:B1 *358:36 5.01213e-05
94 *2727:A2 *358:30 0.000176594
95 *2727:B1 *358:30 4.88515e-05
96 *2730:D1 *358:114 0
97 *2730:D1 *358:138 0
98 *2770:C1 *358:114 6.74686e-05
99 *2801:A2 *358:57 0
100 *2801:B1 *358:57 0.000125679
101 *2838:B *358:22 5.04589e-05
102 *2839:A1 *358:22 6.61386e-05
103 *2839:S *358:22 4.38522e-05
104 *2840:A *358:22 0
105 *3150:D *358:22 1.15172e-05
106 *3226:D *358:114 9.35012e-05
107 *3232:D *358:138 0.00061102
108 *187:64 *358:138 0.000218734
109 *187:112 *358:30 0.00092075
110 *192:32 *358:138 0.000232131
111 *192:36 *358:138 0.000494779
112 *197:134 *358:36 0.00013053
113 *197:134 *358:57 7.15687e-05
114 *202:107 *358:57 0
115 *202:107 *358:79 0.000221821
116 *202:115 *358:57 0
117 *208:58 *358:22 2.64262e-06
118 *215:108 *358:57 2.19778e-05
119 *222:26 *358:114 1.94879e-05
120 *232:14 *2881:A 0.00114522
121 *267:44 *358:114 0.000303244
122 *285:22 *358:96 0.000168067
123 *307:18 *2881:A 1.58163e-05
124 *307:18 *358:6 6.28241e-05
125 *307:18 *358:22 0.00029611
126 *316:89 *358:22 0
127 *321:75 *358:36 0.00015234
128 *325:16 *2881:A 0.000950196
129 *325:28 *2881:A 4.27935e-05
130 *325:28 *358:6 0.000169359
131 *325:28 *358:22 0.000362259
132 *326:6 *358:22 2.72967e-05
133 *328:30 *358:22 8.7863e-05
134 *350:83 *358:138 0.000964912
*RES
1 *2880:X *358:4 9.3 
2 *358:4 *358:6 1.76786 
3 *358:6 *358:22 44.5893 
4 *358:22 *358:30 19.5893 
5 *358:30 *358:36 28.2857 
6 *358:36 *2580:A1 13.8 
7 *358:36 *358:57 38.7321 
8 *358:57 *3098:A 9.3 
9 *358:57 *358:64 2.17857 
10 *358:64 *3009:A 9.3 
11 *358:64 *358:79 13.3393 
12 *358:79 *2986:A 9.3 
13 *358:79 *358:96 25.3214 
14 *358:96 *358:114 28.9643 
15 *358:114 *358:138 46.375 
16 *358:138 *3125:A1 9.3 
17 *358:114 *3109:A1 15.5679 
18 *358:96 *3114:A1 9.3 
19 *358:30 *2600:A1 9.3 
20 *358:6 *2902:A 9.3 
21 *358:4 *2881:A 34.8893 
*END

*D_NET *359 0.0232881
*CONN
*I *2956:A0 I *D sky130_fd_sc_hd__mux2_1
*I *2882:A0 I *D sky130_fd_sc_hd__mux2_1
*I *2968:A0 I *D sky130_fd_sc_hd__mux2_1
*I *2962:A0 I *D sky130_fd_sc_hd__mux2_1
*I *2639:A I *D sky130_fd_sc_hd__xnor2_1
*I *2981:A0 I *D sky130_fd_sc_hd__mux2_1
*I *2944:A0 I *D sky130_fd_sc_hd__mux2_1
*I *2888:A0 I *D sky130_fd_sc_hd__mux2_1
*I *2894:A0 I *D sky130_fd_sc_hd__mux2_1
*I *2921:A0 I *D sky130_fd_sc_hd__mux2_1
*I *2881:X O *D sky130_fd_sc_hd__buf_2
*CAP
1 *2956:A0 7.03678e-05
2 *2882:A0 0
3 *2968:A0 0.000222104
4 *2962:A0 0.000260463
5 *2639:A 0.00023478
6 *2981:A0 3.82418e-05
7 *2944:A0 0.000294942
8 *2888:A0 0
9 *2894:A0 4.25676e-05
10 *2921:A0 0.000601114
11 *2881:X 0
12 *359:119 0.000709887
13 *359:111 0.000778246
14 *359:96 0.000845256
15 *359:83 0.00146947
16 *359:70 0.00214141
17 *359:18 0.00130986
18 *359:12 0.00219508
19 *359:8 0.00207236
20 *359:4 0.0014817
21 *2639:A *2810:B2 0
22 *2639:A *592:102 0
23 *2894:A0 *2894:A1 5.33005e-05
24 *2921:A0 *2735:B2 7.46072e-05
25 *2921:A0 *2813:A1 5.27018e-05
26 *2921:A0 *2842:A0 0
27 *2921:A0 *369:10 0.000399916
28 *2921:A0 *900:12 0
29 *2921:A0 *906:10 0
30 *2944:A0 *590:86 3.15517e-05
31 *2956:A0 *2956:A1 9.67754e-05
32 *2962:A0 *2810:A1 6.96817e-05
33 *2962:A0 *2810:A2 3.28686e-05
34 *2962:A0 *2810:B1 5.7661e-06
35 *2962:A0 *2962:A1 0.00012002
36 *2962:A0 *2963:A 5.72899e-05
37 *2962:A0 *3333:A 9.80173e-05
38 *2962:A0 *796:30 4.29388e-05
39 *2968:A0 *2882:A1 5.52238e-05
40 *2968:A0 *2966:S 1.33343e-05
41 *2968:A0 *2968:A1 0.000375248
42 *2968:A0 *416:12 8.76257e-05
43 *359:12 *2888:A1 0.000308844
44 *359:12 *3381:A 2.87555e-06
45 *359:12 *606:27 5.77065e-05
46 *359:12 *606:42 5.74499e-06
47 *359:12 *759:28 0.000268403
48 *359:12 *919:6 9.85396e-06
49 *359:18 *2888:A1 5.52302e-05
50 *359:18 *3151:CLK 0
51 *359:18 *369:10 0.000432368
52 *359:18 *369:19 0.000683804
53 *359:70 *2981:A1 3.88139e-05
54 *359:70 *2982:A 0.000123331
55 *359:83 *2981:A1 1.72894e-05
56 *359:83 *3374:A 0
57 *359:96 *2810:A1 8.43535e-06
58 *359:96 *2810:B1 5.33005e-05
59 *359:96 *2810:B2 0.000115678
60 *359:111 *2731:A2 0.000412348
61 *359:111 *2737:A2 0.000218012
62 *359:111 *2957:A 9.15842e-06
63 *359:111 *592:28 2.70349e-05
64 *359:111 *619:62 5.59013e-05
65 *359:111 *737:46 2.24646e-05
66 *359:119 *2731:A2 3.54498e-05
67 *359:119 *2882:A1 8.00806e-05
68 *359:119 *2955:A 0
69 *359:119 *2957:A 0.000124012
70 *359:119 *592:28 2.39407e-05
71 *359:119 *592:30 4.30793e-05
72 *359:119 *592:32 4.94185e-05
73 *2640:A0 *359:83 0
74 *2735:A2 *359:18 0
75 *2759:C *359:12 4.02347e-05
76 *2760:B1 *359:8 9.90431e-05
77 *2760:B1 *359:12 3.22554e-05
78 *2760:C1 *359:12 3.18676e-05
79 *2819:A1 *2944:A0 0.000269898
80 *2838:A *359:18 0
81 *2838:B *2894:A0 9.41642e-05
82 *2877:A *359:70 0.000122488
83 *2881:A *359:8 0.000140933
84 *2882:S *2968:A0 0.000188586
85 *2882:S *359:119 0
86 *3148:D *359:12 0.0004807
87 *3163:D *359:18 0.000100823
88 *3171:D *359:119 0.000173021
89 *3173:D *359:111 4.43142e-05
90 *174:43 *2944:A0 9.25014e-06
91 *174:43 *359:12 8.18783e-05
92 *174:61 *359:12 1.21258e-05
93 *183:75 *359:18 0
94 *187:96 *2944:A0 4.12365e-05
95 *197:28 *359:18 0.000122227
96 *208:58 *2921:A0 4.19624e-06
97 *211:47 *359:111 1.27784e-05
98 *211:47 *359:119 1.42249e-05
99 *232:14 *2944:A0 2.4075e-05
100 *299:22 *359:18 1.98839e-05
101 *315:39 *2639:A 4.46186e-06
102 *315:39 *359:83 9.01334e-05
103 *316:22 *359:83 0.000310031
104 *322:12 *359:70 0.000170161
105 *322:16 *359:70 0.000178425
106 *323:10 *359:83 2.51343e-06
107 *328:149 *359:70 0.000136958
108 *350:20 *359:96 9.90914e-05
109 *350:42 *359:70 7.14469e-05
110 *351:16 *2962:A0 0.000212324
111 *351:150 *2639:A 0
112 *351:150 *359:83 0
113 *356:14 *359:70 0.000135028
114 *356:14 *359:119 0
*RES
1 *2881:X *359:4 9.3 
2 *359:4 *359:8 4.55357 
3 *359:8 *359:12 20.0536 
4 *359:12 *359:18 19.8393 
5 *359:18 *2921:A0 25.3893 
6 *359:18 *2894:A0 14.7464 
7 *359:12 *2888:A0 9.3 
8 *359:8 *2944:A0 22.8357 
9 *359:4 *359:70 28.0893 
10 *359:70 *2981:A0 10.0321 
11 *359:70 *359:83 22.0714 
12 *359:83 *2639:A 16.6571 
13 *359:83 *359:96 10.7857 
14 *359:96 *2962:A0 16.4429 
15 *359:96 *359:111 10.6964 
16 *359:111 *359:119 14.3929 
17 *359:119 *2968:A0 15.6214 
18 *359:119 *2882:A0 9.3 
19 *359:111 *2956:A0 14.7464 
*END

*D_NET *360 0.00105327
*CONN
*I *2883:A I *D sky130_fd_sc_hd__clkbuf_1
*I *2882:X O *D sky130_fd_sc_hd__mux2_1
*CAP
1 *2883:A 0.00024906
2 *2882:X 0.00024906
3 *2883:A *3175:CLK 0.000150618
4 *2883:A *592:32 0.000125731
5 *2883:A *921:10 0.000113897
6 *3147:D *2883:A 0.000128154
7 *3175:D *2883:A 3.67452e-05
*RES
1 *2882:X *2883:A 33.3321 
*END

*D_NET *361 0.038348
*CONN
*I *3070:A I *D sky130_fd_sc_hd__or2_1
*I *2983:A I *D sky130_fd_sc_hd__or2_1
*I *2885:B I *D sky130_fd_sc_hd__or2_1
*I *2567:A I *D sky130_fd_sc_hd__or2_1
*I *2884:X O *D sky130_fd_sc_hd__or2_2
*CAP
1 *3070:A 0.00341453
2 *2983:A 0.000435334
3 *2885:B 8.19691e-05
4 *2567:A 0.00274872
5 *2884:X 4.98866e-05
6 *361:54 0.00489772
7 *361:36 0.00281095
8 *361:30 0.00120353
9 *361:10 0.00435935
10 *2567:A *2580:S 0.000154762
11 *2567:A *528:18 9.25014e-06
12 *2567:A *590:24 0.000547537
13 *2567:A *590:52 0.00214676
14 *2567:A *737:34 4.10253e-05
15 *2885:B *2899:B 1.97695e-05
16 *2983:A *2834:B 8.91204e-05
17 *2983:A *2983:B 9.90431e-05
18 *2983:A *3277:RESET_B 0.000358165
19 *2983:A *619:54 0.000223102
20 *2983:A *652:23 9.60875e-05
21 *3070:A *3066:A0 0.00143559
22 *3070:A *3080:A 4.89449e-05
23 *3070:A *365:14 0.000594846
24 *3070:A *590:208 0.00234754
25 *3070:A *590:222 0.00189687
26 *3070:A *602:10 0
27 *3070:A *607:22 0.000133813
28 *361:30 *2551:S 5.33005e-05
29 *361:30 *3065:B 1.85025e-05
30 *361:30 *3066:A0 0.000410309
31 *361:30 *3133:A0 5.63882e-05
32 *361:30 *3383:A 0.000262504
33 *361:30 *3465:A 0.0001717
34 *361:30 *407:14 5.46474e-05
35 *361:30 *415:27 0
36 *361:30 *415:50 0.000597634
37 *361:30 *474:6 2.59355e-05
38 *361:30 *511:150 0.000298879
39 *361:30 *607:22 0.000234121
40 *361:30 *607:46 0.000354911
41 *361:30 *775:57 0.000180202
42 *361:30 *775:61 0.000391978
43 *361:36 *2834:B 5.83328e-05
44 *361:36 *607:46 0.000375565
45 *361:36 *775:61 1.42117e-05
46 *361:54 *370:16 0.000165016
47 *361:54 *370:33 0.000215847
48 *361:54 *370:54 0.000378169
49 *361:54 *528:18 6.73939e-05
50 *361:54 *532:18 0
51 *361:54 *715:47 5.51885e-05
52 *361:54 *737:34 4.48597e-05
53 *2752:C1 *361:36 0
54 *2762:B *361:54 6.16477e-05
55 *2783:A *2983:A 7.65719e-05
56 *2784:B *361:54 0.000413532
57 *2788:B *361:36 0
58 *2791:B *361:30 1.59347e-05
59 *2791:B *361:36 0.000106468
60 *2862:A *3070:A 5.76822e-05
61 *2862:A *361:10 3.63587e-05
62 *2862:A *361:30 1.41029e-05
63 *3060:A *3070:A 0.00117297
64 *3210:D *361:30 7.74068e-05
65 *174:61 *2567:A 2.68802e-05
66 *174:61 *361:54 0.000136969
67 *202:115 *2567:A 0.000189173
68 *211:37 *361:30 4.71964e-05
69 *211:85 *2567:A 0
70 *215:68 *361:30 0.000106826
71 *215:108 *2567:A 0.000499565
72 *218:42 *3070:A 9.23226e-05
73 *220:18 *2567:A 1.43288e-05
74 *231:14 *361:54 0
75 *241:32 *361:36 0
76 *241:32 *361:54 0.000184919
77 *281:24 *361:36 0
78 *321:63 *3070:A 2.41653e-05
79 *322:10 *361:54 0
80 *322:18 *2885:B 4.72917e-05
81 *322:31 *2885:B 1.82029e-05
82 *336:12 *361:30 0.000174455
83 *336:23 *361:10 1.97695e-05
84 *345:16 *3070:A 0
85 *352:20 *361:30 3.43988e-06
*RES
1 *2884:X *361:10 14.7643 
2 *361:10 *361:30 45.8839 
3 *361:30 *361:36 11.5804 
4 *361:36 *361:54 31.0654 
5 *361:54 *2567:A 31.535 
6 *361:54 *2885:B 15.175 
7 *361:36 *2983:A 20.2643 
8 *361:10 *3070:A 32.9406 
*END

*D_NET *362 0.00245252
*CONN
*I *2886:S I *D sky130_fd_sc_hd__mux2_1
*I *2888:S I *D sky130_fd_sc_hd__mux2_1
*I *2885:X O *D sky130_fd_sc_hd__or2_1
*CAP
1 *2886:S 2.37855e-05
2 *2888:S 0.000510367
3 *2885:X 0.000362491
4 *362:6 0.000896644
5 *2888:S *369:19 0.000102184
6 *2888:S *528:18 0.000153776
7 *362:6 *2886:A1 0.000269428
8 *183:75 *2888:S 0
9 *322:31 *2888:S 5.30637e-06
10 *322:31 *362:6 0.000128535
*RES
1 *2885:X *362:6 15.5857 
2 *362:6 *2888:S 26.6571 
3 *362:6 *2886:S 9.72857 
*END

*D_NET *363 0.00129032
*CONN
*I *2887:A I *D sky130_fd_sc_hd__clkbuf_1
*I *2886:X O *D sky130_fd_sc_hd__mux2_1
*CAP
1 *2887:A 0.000161694
2 *2886:X 0.000161694
3 *2887:A *2811:B2 7.48091e-05
4 *2887:A *893:35 0.000225609
5 *2887:A *918:6 2.89016e-05
6 *2819:A2 *2887:A 1.21258e-05
7 *2886:A0 *2887:A 0.000313601
8 *202:14 *2887:A 0.000311887
*RES
1 *2886:X *2887:A 33.85 
*END

*D_NET *364 0.000435224
*CONN
*I *2889:A I *D sky130_fd_sc_hd__clkbuf_1
*I *2888:X O *D sky130_fd_sc_hd__mux2_1
*CAP
1 *2889:A 0.000111779
2 *2888:X 0.000111779
3 *2889:A *391:43 0
4 *2889:A *606:42 0.000147332
5 *3149:D *2889:A 4.15914e-05
6 *299:22 *2889:A 2.27416e-05
*RES
1 *2888:X *2889:A 30.0821 
*END

*D_NET *365 0.0251756
*CONN
*I *2990:A I *D sky130_fd_sc_hd__or2_1
*I *3075:A I *D sky130_fd_sc_hd__or2_1
*I *2891:B I *D sky130_fd_sc_hd__or2_1
*I *2572:A I *D sky130_fd_sc_hd__or2_1
*I *2890:X O *D sky130_fd_sc_hd__or3_2
*CAP
1 *2990:A 0
2 *3075:A 0.000483728
3 *2891:B 0.000211967
4 *2572:A 0.00200304
5 *2890:X 0.00130428
6 *365:64 0.00185159
7 *365:22 0.00399611
8 *365:14 0.00445325
9 *2572:A *2626:A 5.49489e-05
10 *2572:A *2798:A1 5.42243e-05
11 *2572:A *3423:A 0.000171888
12 *2572:A *527:40 0.000437114
13 *2572:A *527:50 1.89507e-06
14 *2572:A *600:18 7.45147e-05
15 *2572:A *600:26 9.46929e-05
16 *2891:B *2899:B 0.000350136
17 *2891:B *366:10 4.87953e-05
18 *3075:A *3075:B 5.17614e-05
19 *3075:A *433:10 9.41642e-05
20 *365:14 *3080:A 0.000312303
21 *365:14 *371:16 0.00135551
22 *365:14 *384:26 0.000230801
23 *365:14 *677:20 1.15281e-05
24 *365:22 *2596:A 0.000126422
25 *365:22 *2703:A 0.000281128
26 *365:22 *2912:B 0.000553877
27 *365:22 *2913:A0 3.75959e-05
28 *365:22 *3091:A0 8.00806e-05
29 *365:22 *3099:A0 0.000702221
30 *365:22 *3191:CLK 1.03196e-05
31 *365:22 *391:37 0
32 *365:22 *391:43 0
33 *365:22 *500:131 8.55772e-05
34 *365:22 *603:82 6.32065e-05
35 *365:22 *603:91 0.000334729
36 *365:22 *606:42 0.00056243
37 *365:64 *2775:A1 0.00022266
38 *365:64 *2976:A0 0.000183438
39 *365:64 *3191:CLK 0.000136485
40 *365:64 *391:37 0
41 *365:64 *424:22 2.87555e-06
42 *365:64 *439:10 0.000193708
43 *2775:B1 *365:64 2.44318e-05
44 *2807:B1 *2572:A 5.68722e-05
45 *2808:A1 *2572:A 6.01582e-05
46 *2891:A *2891:B 5.33005e-05
47 *3070:A *365:14 0.000594846
48 *3157:D *2572:A 1.64343e-05
49 *3176:D *365:64 0.000112959
50 *3267:D *2572:A 7.83587e-05
51 *177:10 *365:22 0.000291146
52 *177:24 *365:22 6.02288e-05
53 *177:100 *365:22 1.84018e-05
54 *193:56 *365:22 7.80714e-06
55 *207:12 *365:64 0.000732908
56 *208:10 *365:64 0
57 *208:18 *365:22 0.000139692
58 *208:118 *3075:A 3.97677e-05
59 *208:118 *365:64 0.000238836
60 *215:108 *2572:A 0.000262733
61 *235:14 *3075:A 0.000656813
62 *291:28 *2891:B 2.28499e-05
63 *291:28 *365:22 0.00035855
64 *340:41 *365:14 4.15526e-05
65 *345:16 *365:14 8.19657e-05
*RES
1 *2890:X *365:14 25.211 
2 *365:14 *365:22 46.8304 
3 *365:22 *2572:A 47.05 
4 *365:22 *2891:B 13.9429 
5 *365:14 *365:64 27.6875 
6 *365:64 *3075:A 19.6929 
7 *365:64 *2990:A 9.3 
*END

*D_NET *366 0.00637438
*CONN
*I *2894:S I *D sky130_fd_sc_hd__mux2_1
*I *2892:S I *D sky130_fd_sc_hd__mux2_1
*I *2891:X O *D sky130_fd_sc_hd__or2_1
*CAP
1 *2894:S 0.00017021
2 *2892:S 0.000231115
3 *2891:X 0.000540008
4 *366:10 0.000941333
5 *366:10 *2935:B 5.38886e-05
6 *366:10 *374:90 0.000731697
7 *2816:B *2892:S 0.000312222
8 *2838:B *2894:S 0.000392019
9 *2891:B *366:10 4.87953e-05
10 *181:75 *2892:S 0.000214616
11 *181:75 *366:10 0.00054345
12 *187:112 *2892:S 9.61455e-05
13 *208:20 *366:10 0.00126558
14 *208:26 *2892:S 0.000193675
15 *208:26 *366:10 0.000173097
16 *208:58 *2892:S 0.000101424
17 *325:32 *2892:S 9.76689e-05
18 *358:22 *2894:S 0.000267428
*RES
1 *2891:X *366:10 33.3893 
2 *366:10 *2892:S 21.3 
3 *366:10 *2894:S 18.8536 
*END

*D_NET *367 0.00111028
*CONN
*I *2893:A I *D sky130_fd_sc_hd__clkbuf_1
*I *2892:X O *D sky130_fd_sc_hd__mux2_1
*CAP
1 *2893:A 0.000206606
2 *2892:X 0.000206606
3 *2893:A *3392:A 2.89114e-05
4 *2893:A *385:10 0.000335208
5 *2736:B1 *2893:A 0.0001399
6 *2738:A *2893:A 2.14757e-05
7 *325:49 *2893:A 0.000171568
*RES
1 *2892:X *2893:A 33.7429 
*END

*D_NET *368 0.000736864
*CONN
*I *2895:A I *D sky130_fd_sc_hd__clkbuf_1
*I *2894:X O *D sky130_fd_sc_hd__mux2_1
*CAP
1 *2895:A 0.000226454
2 *2894:X 0.000226454
3 *2895:A *2735:B2 0
4 *2895:A *396:12 0.000111005
5 *2814:B1 *2895:A 0.000102196
6 *3151:D *2895:A 7.07541e-05
*RES
1 *2894:X *2895:A 31.975 
*END

*D_NET *369 0.0296724
*CONN
*I *2948:A1 I *D sky130_fd_sc_hd__mux2_1
*I *2900:A1 I *D sky130_fd_sc_hd__mux2_1
*I *2924:A1 I *D sky130_fd_sc_hd__mux2_1
*I *2936:A1 I *D sky130_fd_sc_hd__mux2_1
*I *3001:A1 I *D sky130_fd_sc_hd__mux2_1
*I *2974:A1 I *D sky130_fd_sc_hd__mux2_1
*I *2996:A1 I *D sky130_fd_sc_hd__mux2_1
*I *2907:A1 I *D sky130_fd_sc_hd__mux2_1
*I *2913:A1 I *D sky130_fd_sc_hd__mux2_1
*I *2930:A1 I *D sky130_fd_sc_hd__mux2_1
*I *2896:X O *D sky130_fd_sc_hd__buf_2
*CAP
1 *2948:A1 0
2 *2900:A1 0.000470669
3 *2924:A1 0.000275223
4 *2936:A1 0
5 *3001:A1 0.000515284
6 *2974:A1 0.000225109
7 *2996:A1 0.0018284
8 *2907:A1 8.20302e-05
9 *2913:A1 0
10 *2930:A1 0
11 *2896:X 0
12 *369:132 0.00138198
13 *369:104 0.000722433
14 *369:74 0.00223831
15 *369:30 0.00191043
16 *369:28 0.00184543
17 *369:19 0.000992418
18 *369:10 0.00126454
19 *369:4 0.00197816
20 *2900:A1 *2815:B2 0.000316462
21 *2900:A1 *2900:A0 5.71472e-05
22 *2900:A1 *2900:S 9.90431e-05
23 *2900:A1 *2948:S 9.25014e-06
24 *2900:A1 *374:18 6.06959e-05
25 *2900:A1 *896:12 0
26 *2907:A1 *2907:A0 0.000180496
27 *2907:A1 *2907:S 0.000181803
28 *2907:A1 *3391:A 4.22349e-05
29 *2924:A1 *2924:S 1.92905e-05
30 *2924:A1 *2936:S 2.27416e-05
31 *2974:A1 *2973:B 4.34298e-05
32 *2974:A1 *2974:S 0.000310236
33 *2996:A1 *2784:A 5.49995e-05
34 *2996:A1 *2784:C 6.21062e-05
35 *2996:A1 *2907:S 1.21258e-05
36 *2996:A1 *2996:A0 5.49544e-05
37 *2996:A1 *2996:S 9.6184e-05
38 *2996:A1 *2997:A 0.000390648
39 *2996:A1 *3391:A 3.01348e-05
40 *2996:A1 *3408:A 0.000191583
41 *2996:A1 *436:14 0.000153453
42 *3001:A1 *2770:A1 9.54121e-05
43 *3001:A1 *2976:A0 1.9774e-05
44 *3001:A1 *3001:A0 5.52238e-05
45 *3001:A1 *3359:A 8.33079e-05
46 *3001:A1 *3360:A 4.3041e-05
47 *3001:A1 *374:141 0.000522222
48 *369:10 *2602:A 3.34366e-05
49 *369:10 *2735:B2 0.000627905
50 *369:10 *2814:B2 2.05612e-05
51 *369:19 *2602:A 0.000199698
52 *369:19 *2913:S 3.36641e-05
53 *369:19 *391:43 0.000558959
54 *369:28 *2913:S 0.000187197
55 *369:28 *3437:A 3.4983e-05
56 *369:28 *374:105 0
57 *369:28 *376:84 8.91309e-05
58 *369:28 *377:10 0.000123185
59 *369:28 *381:8 0.000113255
60 *369:28 *391:43 5.35334e-05
61 *369:74 *2770:A1 0.000560244
62 *369:74 *2909:S 0.000166269
63 *369:74 *2910:A 9.44637e-05
64 *369:74 *3384:A 9.96242e-05
65 *369:74 *374:141 0.000182793
66 *369:74 *376:84 0.000254193
67 *369:74 *377:10 3.17148e-05
68 *369:74 *391:43 0.000152112
69 *369:74 *603:82 6.56808e-05
70 *369:104 *2919:S 0.000252623
71 *369:104 *2921:A1 3.83655e-05
72 *369:104 *2936:A0 5.19842e-06
73 *369:104 *2936:S 5.65806e-05
74 *369:104 *396:12 0.000113892
75 *369:104 *905:12 0.00025263
76 *369:104 *906:10 0
77 *369:132 *2814:B2 7.25873e-06
78 *369:132 *3168:CLK 0.000266595
79 *369:132 *3395:A 0.000265445
80 *369:132 *605:18 0.000436265
81 *369:132 *897:6 3.50746e-05
82 *2704:B1 *369:74 0.000119783
83 *2730:D1 *369:74 0
84 *2733:A2 *369:104 0.000237344
85 *2740:A1 *2900:A1 0
86 *2770:A2 *369:74 6.38644e-05
87 *2800:B1 *369:74 0.000591424
88 *2814:B1 *369:10 0
89 *2814:C1 *369:104 7.58841e-05
90 *2816:B *369:132 3.01245e-06
91 *2888:S *369:19 0.000102184
92 *2896:A *369:10 0.00031151
93 *2896:A *369:132 5.46383e-06
94 *2921:A0 *369:10 0.000399916
95 *2923:A *369:132 0.000141935
96 *3168:D *369:132 1.64343e-05
97 *3185:D *2996:A1 8.45695e-05
98 *3255:D *2996:A1 0.000272928
99 *3295:A *369:74 2.39223e-05
100 *176:74 *369:74 0.000935324
101 *181:75 *369:104 0.000113331
102 *183:75 *369:19 0
103 *183:75 *369:28 0
104 *190:18 *3001:A1 0
105 *190:18 *369:74 0
106 *197:28 *369:10 0
107 *197:28 *369:19 0.000121652
108 *231:26 *369:74 0.000170935
109 *258:28 *369:74 9.50724e-05
110 *321:34 *3001:A1 1.90936e-05
111 *321:63 *369:74 0.000135968
112 *345:79 *369:132 0.000163765
113 *359:18 *369:10 0.000432368
114 *359:18 *369:19 0.000683804
*RES
1 *2896:X *369:4 9.3 
2 *369:4 *369:10 19.0714 
3 *369:10 *2930:A1 13.8 
4 *369:10 *369:19 17.125 
5 *369:19 *2913:A1 13.8 
6 *369:19 *369:28 7.10714 
7 *369:28 *369:30 4.5 
8 *369:30 *2907:A1 11.8893 
9 *369:30 *2996:A1 34.675 
10 *369:28 *369:74 40.7465 
11 *369:74 *2974:A1 18.05 
12 *369:74 *3001:A1 23.4964 
13 *369:4 *369:104 20.1964 
14 *369:104 *2936:A1 9.3 
15 *369:104 *2924:A1 12.7107 
16 *369:4 *369:132 17.3036 
17 *369:132 *2900:A1 29.3893 
18 *369:132 *2948:A1 9.3 
*END

*D_NET *370 0.0179268
*CONN
*I *2556:A I *D sky130_fd_sc_hd__or2_2
*I *2898:C I *D sky130_fd_sc_hd__or4b_4
*I *2971:A I *D sky130_fd_sc_hd__or2_1
*I *2905:B I *D sky130_fd_sc_hd__or4b_4
*I *2911:B I *D sky130_fd_sc_hd__or4b_2
*I *3095:A I *D sky130_fd_sc_hd__or3_1
*I *3012:A I *D sky130_fd_sc_hd__or3_1
*I *3058:A I *D sky130_fd_sc_hd__or2_1
*I *2592:A I *D sky130_fd_sc_hd__or3_1
*I *2918:B I *D sky130_fd_sc_hd__or3_2
*I *2897:X O *D sky130_fd_sc_hd__buf_2
*CAP
1 *2556:A 0
2 *2898:C 0.000264288
3 *2971:A 0
4 *2905:B 0
5 *2911:B 6.01448e-05
6 *3095:A 8.69636e-05
7 *3012:A 0
8 *3058:A 0.000214767
9 *2592:A 0
10 *2918:B 0.000217935
11 *2897:X 7.27956e-05
12 *370:119 0.000425985
13 *370:88 0.00032984
14 *370:86 0.000670114
15 *370:82 0.000756793
16 *370:64 0.000792809
17 *370:54 0.00198574
18 *370:33 0.00153882
19 *370:16 0.000832586
20 *370:8 0.000448607
21 *2898:C *2972:A 0.000141523
22 *2911:B *3095:B 1.02504e-05
23 *2911:B *376:14 1.49057e-05
24 *2911:B *380:10 2.93957e-05
25 *2911:B *384:26 9.87983e-06
26 *3058:A *2708:A 1.05731e-05
27 *3058:A *3058:B 9.67754e-05
28 *3058:A *447:12 0
29 *3095:A *474:49 5.17791e-05
30 *370:8 *2556:B 0.000119237
31 *370:8 *528:135 2.18985e-05
32 *370:16 *2899:B 0.00022266
33 *370:16 *528:18 0.00061838
34 *370:16 *528:135 9.66977e-05
35 *370:16 *737:34 0.000166724
36 *370:33 *2592:C 2.11419e-05
37 *370:54 *2549:A 0.000125243
38 *370:54 *2999:A 0
39 *370:54 *3014:A 9.54798e-06
40 *370:54 *3122:A 2.09826e-05
41 *370:54 *3185:CLK 7.5102e-05
42 *370:54 *432:29 0
43 *370:54 *515:10 0.000125731
44 *370:54 *594:22 0.000221393
45 *370:54 *594:26 0.000290872
46 *370:54 *715:30 1.41231e-05
47 *370:64 *3012:C 1.01912e-05
48 *370:64 *3014:A 4.82865e-05
49 *370:64 *3058:B 7.7501e-05
50 *370:64 *411:10 6.07037e-07
51 *370:64 *474:12 1.90936e-05
52 *370:64 *715:20 0.000522664
53 *370:82 *3014:A 6.71762e-05
54 *370:82 *419:144 3.5703e-05
55 *370:119 *403:28 0.000170822
56 *370:119 *419:144 4.22514e-05
57 *2709:A3 *370:54 0.000145579
58 *2751:C *370:54 0.000136977
59 *2761:D *370:33 0
60 *2784:B *370:54 1.17921e-05
61 *2788:A *370:54 0.000501199
62 *2898:B *2898:C 5.52302e-05
63 *2905:A *3095:A 0
64 *2905:A *370:86 9.86486e-06
65 *2905:A *370:88 1.58163e-05
66 *2905:C *370:86 0.000425384
67 *3184:D *370:33 0
68 *3184:D *370:54 0
69 *3185:D *370:54 4.52914e-05
70 *3232:D *370:54 9.10431e-06
71 *3468:A *3058:A 3.08664e-05
72 *174:61 *2918:B 0.00022197
73 *174:61 *370:33 8.55837e-05
74 *174:69 *2918:B 0.000224575
75 *176:54 *370:54 7.62712e-05
76 *187:58 *2898:C 6.34271e-05
77 *187:58 *370:54 0.000171931
78 *187:58 *370:82 0.000180387
79 *187:58 *370:119 0.000278489
80 *187:64 *370:54 0
81 *193:14 *370:54 0.000631589
82 *194:8 *2898:C 7.14469e-05
83 *212:14 *370:64 0
84 *212:42 *370:54 6.53874e-05
85 *215:86 *370:8 0.000182598
86 *215:86 *370:16 0.000285995
87 *291:28 *370:16 1.98839e-05
88 *316:46 *2918:B 0.000271066
89 *316:46 *370:33 7.2266e-05
90 *316:60 *2918:B 3.24049e-05
91 *317:54 *2898:C 5.33005e-05
92 *317:54 *370:119 5.33005e-05
93 *317:72 *3095:A 2.12647e-05
94 *317:72 *370:88 3.73408e-05
95 *340:53 *2898:C 2.28499e-05
96 *340:61 *2898:C 0.000246998
97 *352:34 *3058:A 2.18985e-05
98 *352:34 *370:86 0.000181114
99 *361:54 *370:16 0.000165016
100 *361:54 *370:33 0.000215847
101 *361:54 *370:54 0.000378169
*RES
1 *2897:X *370:8 11.8 
2 *370:8 *370:16 21.6429 
3 *370:16 *2918:B 15.6036 
4 *370:16 *370:33 9.55357 
5 *370:33 *2592:A 13.8 
6 *370:33 *370:54 34.2857 
7 *370:54 *370:64 21.4286 
8 *370:64 *3058:A 12.6393 
9 *370:64 *3012:A 9.3 
10 *370:54 *370:82 2.55357 
11 *370:82 *370:86 10.7857 
12 *370:86 *370:88 2.17857 
13 *370:88 *3095:A 10.9786 
14 *370:88 *2911:B 19.3357 
15 *370:86 *2905:B 9.3 
16 *370:82 *370:119 8.80357 
17 *370:119 *2971:A 9.3 
18 *370:119 *2898:C 23.8357 
19 *370:8 *2556:A 9.3 
*END

*D_NET *371 0.0317181
*CONN
*I *2995:A I *D sky130_fd_sc_hd__nor2_1
*I *2899:B I *D sky130_fd_sc_hd__nor2_1
*I *2577:A I *D sky130_fd_sc_hd__nor2_1
*I *3080:A I *D sky130_fd_sc_hd__nor2_1
*I *2898:X O *D sky130_fd_sc_hd__or4b_4
*CAP
1 *2995:A 0
2 *2899:B 0.000561938
3 *2577:A 0.000151472
4 *3080:A 0.00154673
5 *2898:X 0.000628813
6 *371:79 0.00237213
7 *371:61 0.00308262
8 *371:57 0.00320479
9 *371:16 0.00508031
10 *2577:A *2577:B 9.60875e-05
11 *2577:A *2614:A 9.90367e-05
12 *2577:A *2615:S 3.63775e-05
13 *2577:A *538:22 0.000148903
14 *3080:A *2774:A1 4.26759e-05
15 *3080:A *430:64 0.000177183
16 *3080:A *445:70 0.00032338
17 *3080:A *474:49 0.000141032
18 *3080:A *474:69 8.6229e-06
19 *3080:A *590:222 9.16325e-06
20 *371:16 *2971:B 0
21 *371:16 *384:26 0.00107846
22 *371:16 *403:49 6.30931e-05
23 *371:57 *737:24 0
24 *371:61 *374:90 0.000378087
25 *371:61 *606:42 7.92596e-06
26 *371:79 *2609:A 6.57914e-05
27 *371:79 *2746:A1 0.000307543
28 *371:79 *2888:A1 9.80405e-05
29 *371:79 *2932:S 0.000227539
30 *371:79 *2935:B 0.000171368
31 *371:79 *3261:CLK 5.52238e-05
32 *371:79 *374:90 0.000724825
33 *371:79 *511:30 0.000897427
34 *371:79 *606:42 0.000181091
35 *371:79 *893:12 8.35655e-05
36 *371:79 *902:8 3.37729e-05
37 *371:79 *914:8 6.57326e-05
38 *2727:B1 *2577:A 0.000150618
39 *2811:A2 *371:79 0.000288019
40 *2885:B *2899:B 1.97695e-05
41 *2891:B *2899:B 0.000350136
42 *3060:A *3080:A 0.00121405
43 *3070:A *3080:A 4.89449e-05
44 *3149:D *371:79 0
45 *3163:D *371:79 0.000231396
46 *3192:D *3080:A 1.64343e-05
47 *3193:D *3080:A 0.000744446
48 *3254:D *371:61 0.000147632
49 *3260:D *371:79 2.77108e-05
50 *3261:D *371:79 1.76204e-05
51 *174:61 *2899:B 0.000148039
52 *183:85 *371:79 9.03968e-05
53 *194:8 *371:16 5.69509e-05
54 *197:18 *371:57 4.37758e-05
55 *197:28 *371:57 0.000183814
56 *208:18 *371:57 0.000284246
57 *208:18 *371:61 8.98142e-05
58 *209:18 *3080:A 4.48011e-05
59 *218:108 *371:16 0.000228314
60 *231:26 *371:57 1.09611e-05
61 *291:28 *2899:B 0.00125683
62 *291:28 *371:57 0.000145205
63 *291:28 *371:61 0.000699205
64 *299:22 *371:79 2.56527e-05
65 *317:54 *371:16 5.52238e-05
66 *321:63 *3080:A 2.9599e-05
67 *322:16 *2899:B 3.41033e-05
68 *322:18 *2899:B 0.000140856
69 *345:16 *3080:A 0.000724344
70 *345:16 *371:16 0.000127962
71 *365:14 *3080:A 0.000312303
72 *365:14 *371:16 0.00135551
73 *370:16 *2899:B 0.00022266
*RES
1 *2898:X *371:16 23.4282 
2 *371:16 *3080:A 41.7831 
3 *371:16 *371:57 18.7701 
4 *371:57 *371:61 10.0714 
5 *371:61 *371:79 46.8036 
6 *371:79 *2577:A 22.425 
7 *371:61 *2899:B 38.5857 
8 *371:57 *2995:A 13.8 
*END

*D_NET *372 0.0061439
*CONN
*I *2900:S I *D sky130_fd_sc_hd__mux2_1
*I *2903:S I *D sky130_fd_sc_hd__mux2_1
*I *2899:Y O *D sky130_fd_sc_hd__nor2_1
*CAP
1 *2900:S 0.000154299
2 *2903:S 2.25583e-05
3 *2899:Y 0.00117923
4 *372:14 0.00135608
5 *2900:S *2900:A0 2.44318e-05
6 *2900:S *2901:A 4.38128e-05
7 *2903:S *2901:A 5.71472e-05
8 *372:14 *2736:A2 0.00017309
9 *372:14 *2736:B2 0
10 *372:14 *2737:B2 0.000213719
11 *372:14 *2815:A1 4.88284e-05
12 *372:14 *2815:B2 0.000193333
13 *372:14 *2926:A1 4.1331e-06
14 *372:14 *2947:B 0
15 *372:14 *2949:A 7.74135e-05
16 *372:14 *2950:S 3.07351e-06
17 *372:14 *374:18 0.000784959
18 *372:14 *374:40 0.000130343
19 *372:14 *374:76 0.000656488
20 *372:14 *403:53 0.000106316
21 *372:14 *759:22 0.000148712
22 *372:14 *759:34 0
23 *2761:D *372:14 7.83659e-05
24 *2900:A1 *2900:S 9.90431e-05
25 *187:96 *372:14 0
26 *231:116 *372:14 0.000527807
27 *291:28 *372:14 0
28 *328:20 *372:14 6.07232e-05
*RES
1 *2899:Y *372:14 49.7464 
2 *372:14 *2903:S 9.83571 
3 *372:14 *2900:S 12.3 
*END

*D_NET *373 0.000935465
*CONN
*I *2901:A I *D sky130_fd_sc_hd__clkbuf_1
*I *2900:X O *D sky130_fd_sc_hd__mux2_1
*CAP
1 *2901:A 0.000265309
2 *2900:X 0.000265309
3 *2901:A *2903:A0 0.000181796
4 *2900:S *2901:A 4.38128e-05
5 *2903:S *2901:A 5.71472e-05
6 *3152:D *2901:A 0.000122091
*RES
1 *2900:X *2901:A 24.3857 
*END

*D_NET *374 0.0323481
*CONN
*I *2932:A1 I *D sky130_fd_sc_hd__mux2_1
*I *2976:A1 I *D sky130_fd_sc_hd__mux2_1
*I *3003:A1 I *D sky130_fd_sc_hd__mux2_1
*I *2998:A1 I *D sky130_fd_sc_hd__mux2_1
*I *2909:A1 I *D sky130_fd_sc_hd__mux2_1
*I *2915:A1 I *D sky130_fd_sc_hd__mux2_1
*I *2903:A1 I *D sky130_fd_sc_hd__mux2_1
*I *2926:A1 I *D sky130_fd_sc_hd__mux2_1
*I *2938:A1 I *D sky130_fd_sc_hd__mux2_1
*I *2950:A1 I *D sky130_fd_sc_hd__mux2_1
*I *2902:X O *D sky130_fd_sc_hd__clkbuf_4
*CAP
1 *2932:A1 0
2 *2976:A1 0
3 *3003:A1 0.000308611
4 *2998:A1 0.000746849
5 *2909:A1 0
6 *2915:A1 0.000185377
7 *2903:A1 0
8 *2926:A1 0.000661154
9 *2938:A1 0.00110733
10 *2950:A1 0
11 *2902:X 4.1975e-05
12 *374:141 0.00177164
13 *374:113 0.000897777
14 *374:105 0.00186817
15 *374:90 0.00132379
16 *374:76 0.00203666
17 *374:40 0.00081854
18 *374:20 0.00115751
19 *374:18 0.00066
20 *374:8 0.00164687
21 *2915:A1 *2915:S 0.000271234
22 *2926:A1 *2815:B2 0
23 *2926:A1 *2903:A0 0.000100152
24 *2926:A1 *2904:A 0
25 *2926:A1 *2926:A0 5.71472e-05
26 *2926:A1 *2926:S 9.28838e-05
27 *2926:A1 *3146:CLK 0
28 *2926:A1 *605:37 8.08376e-05
29 *2938:A1 *2815:A1 1.19813e-05
30 *2938:A1 *2936:S 0.000221978
31 *2938:A1 *2938:A0 3.22353e-05
32 *2938:A1 *2938:S 0.000612282
33 *2938:A1 *2950:A0 1.47872e-05
34 *2938:A1 *3348:A 2.24804e-05
35 *2998:A1 *2757:A1 0.000312215
36 *2998:A1 *2909:A0 0.000183304
37 *2998:A1 *2998:A0 5.33005e-05
38 *2998:A1 *2999:A 0.000139202
39 *3003:A1 *2775:A1 0
40 *3003:A1 *3022:A 0.000479885
41 *3003:A1 *604:10 4.05607e-05
42 *3003:A1 *604:40 0
43 *374:18 *2815:A1 0.000181107
44 *374:18 *2815:B2 0.000215838
45 *374:18 *2950:A0 4.25684e-05
46 *374:20 *2815:A1 1.24368e-05
47 *374:20 *2950:A0 0.000140243
48 *374:40 *605:29 5.63791e-05
49 *374:40 *605:31 6.30023e-05
50 *374:76 *2811:A1 0.000190141
51 *374:76 *2932:A0 0.000183726
52 *374:76 *606:8 0.000156728
53 *374:76 *606:10 5.52238e-05
54 *374:76 *606:27 0.000122753
55 *374:76 *902:8 0.000130079
56 *374:90 *2915:S 0.000213037
57 *374:90 *2932:A0 5.33005e-05
58 *374:90 *2935:B 3.48139e-05
59 *374:90 *902:8 2.28499e-05
60 *374:105 *3220:CLK 5.58941e-05
61 *374:105 *376:84 0.00019624
62 *374:113 *2909:A0 5.52238e-05
63 *374:113 *3220:CLK 6.37237e-05
64 *374:141 *2974:S 7.36162e-05
65 *374:141 *2976:A0 0
66 *374:141 *2976:S 0.000657111
67 *374:141 *3002:A 4.03318e-05
68 *374:141 *3100:A 0.000100328
69 *374:141 *3220:CLK 0.000306179
70 *374:141 *3221:CLK 0.000724714
71 *374:141 *376:80 0.000194962
72 *374:141 *376:84 0.000575281
73 *374:141 *391:37 0
74 *374:141 *395:26 0.000108849
75 *374:141 *603:82 6.00981e-05
76 *2733:A2 *2938:A1 0.000114762
77 *2738:C *374:18 0.000170654
78 *2738:C *374:76 0.000170654
79 *2740:A1 *374:18 0
80 *2757:A2 *2998:A1 4.59075e-05
81 *2761:C *2998:A1 1.21258e-05
82 *2900:A1 *374:18 6.06959e-05
83 *3001:A1 *374:141 0.000522222
84 *3152:D *2926:A1 0.000193125
85 *3152:D *374:40 2.31791e-05
86 *3167:D *374:76 1.64343e-05
87 *3222:D *374:141 0.00014228
88 *3254:D *374:90 1.32293e-05
89 *174:83 *2915:A1 4.73286e-05
90 *174:83 *374:90 0.000121115
91 *177:24 *2998:A1 0.000985008
92 *183:75 *374:105 0.000572598
93 *183:75 *374:141 0.000498232
94 *187:96 *374:18 2.47186e-05
95 *187:96 *374:76 0.000170511
96 *190:18 *3003:A1 0.000381724
97 *197:108 *3003:A1 0.000355849
98 *208:18 *374:90 0.000329401
99 *208:20 *374:90 5.04467e-05
100 *212:42 *2998:A1 0.000473829
101 *212:142 *2915:A1 5.04841e-06
102 *226:22 *374:18 0
103 *307:18 *374:8 0.000137983
104 *358:22 *374:8 7.02611e-05
105 *366:10 *374:90 0.000731697
106 *369:28 *374:105 0
107 *369:74 *374:141 0.000182793
108 *371:61 *374:90 0.000378087
109 *371:79 *374:90 0.000724825
110 *372:14 *2926:A1 4.1331e-06
111 *372:14 *374:18 0.000784959
112 *372:14 *374:40 0.000130343
113 *372:14 *374:76 0.000656488
*RES
1 *2902:X *374:8 15.1571 
2 *374:8 *374:18 17.375 
3 *374:18 *374:20 1.35714 
4 *374:20 *2950:A1 9.3 
5 *374:20 *2938:A1 28.6571 
6 *374:18 *374:40 9.17857 
7 *374:40 *2926:A1 27.8357 
8 *374:40 *2903:A1 13.8 
9 *374:8 *374:76 26.2679 
10 *374:76 *374:90 31.9821 
11 *374:90 *2915:A1 13.1393 
12 *374:90 *374:105 12.3393 
13 *374:105 *374:113 6.82143 
14 *374:113 *2909:A1 9.3 
15 *374:113 *2998:A1 27.0857 
16 *374:105 *374:141 44.5536 
17 *374:141 *3003:A1 27.925 
18 *374:141 *2976:A1 9.3 
19 *374:76 *2932:A1 9.3 
*END

*D_NET *375 0.000864369
*CONN
*I *2904:A I *D sky130_fd_sc_hd__clkbuf_1
*I *2903:X O *D sky130_fd_sc_hd__mux2_1
*CAP
1 *2904:A 0.000314802
2 *2903:X 0.000314802
3 *2904:A *2812:B2 0
4 *2904:A *2926:A0 0
5 *2904:A *605:31 5.97719e-05
6 *2904:A *605:37 0.000121606
7 *2904:A *904:12 0
8 *2926:A1 *2904:A 0
9 *3153:D *2904:A 5.33882e-05
*RES
1 *2903:X *2904:A 34.225 
*END

*D_NET *376 0.0192855
*CONN
*I *2906:B I *D sky130_fd_sc_hd__nor2_1
*I *2582:A I *D sky130_fd_sc_hd__or2_1
*I *3000:A I *D sky130_fd_sc_hd__nor2_1
*I *3085:A I *D sky130_fd_sc_hd__nor2_1
*I *2905:X O *D sky130_fd_sc_hd__or4b_4
*CAP
1 *2906:B 0
2 *2582:A 0.00134144
3 *3000:A 1.78329e-05
4 *3085:A 0
5 *2905:X 0
6 *376:84 0.00191273
7 *376:80 0.00168742
8 *376:44 0.00133674
9 *376:14 0.00198098
10 *376:6 0.00174253
11 *2582:A *2802:A2 9.98137e-05
12 *2582:A *2908:A 5.45307e-05
13 *2582:A *3267:CLK 9.98137e-05
14 *2582:A *547:14 5.33005e-05
15 *3000:A *3000:B 5.04841e-06
16 *376:14 *3015:A0 5.26224e-05
17 *376:14 *3016:A 5.52302e-05
18 *376:14 *380:10 0
19 *376:14 *384:26 4.15526e-05
20 *376:14 *419:158 0.00051586
21 *376:14 *439:10 0.000100261
22 *376:44 *2793:A1 0.00015234
23 *376:44 *2990:B 0.000600942
24 *376:44 *3000:B 1.92755e-05
25 *376:44 *3020:A0 0.000226507
26 *376:44 *3021:A 0.000351573
27 *376:44 *3070:B 0.000129595
28 *376:44 *419:158 4.27322e-05
29 *376:44 *424:22 5.33005e-05
30 *376:44 *439:10 4.43256e-05
31 *376:44 *474:53 2.89016e-05
32 *376:44 *483:18 0
33 *376:44 *886:10 5.20669e-05
34 *376:80 *384:26 5.58875e-06
35 *376:80 *384:43 0.000151975
36 *376:80 *391:37 0.00040771
37 *376:80 *391:43 0.000180664
38 *376:80 *603:82 0.000281658
39 *376:80 *726:20 0.000119461
40 *376:84 *3092:A 0.000125731
41 *376:84 *3220:CLK 0.000350644
42 *376:84 *391:43 0.000231454
43 *2703:C *376:80 3.04599e-05
44 *2722:A2 *2582:A 0.000275205
45 *2745:A2 *2582:A 0.000230959
46 *2745:B1 *2582:A 3.11088e-05
47 *2772:A2 *376:80 2.06112e-05
48 *2772:B1 *376:80 8.54483e-05
49 *2906:A *2582:A 1.80261e-05
50 *2911:B *376:14 1.49057e-05
51 *3154:D *2582:A 2.77725e-05
52 *3176:D *376:44 0.00014067
53 *3177:D *376:44 0.000228913
54 *3222:D *376:80 0.000144902
55 *183:56 *376:80 1.65169e-05
56 *193:60 *376:80 5.28889e-05
57 *202:8 *376:14 0.000141834
58 *202:8 *376:80 0.000375878
59 *202:14 *376:80 0.000146117
60 *202:52 *376:80 0.000142412
61 *207:98 *2582:A 0.000398053
62 *218:24 *376:44 0.000543312
63 *221:16 *2582:A 5.33005e-05
64 *222:26 *376:80 0.000116455
65 *321:22 *376:14 6.58989e-05
66 *340:88 *376:14 1.98839e-05
67 *369:28 *376:84 8.91309e-05
68 *369:74 *376:84 0.000254193
69 *374:105 *376:84 0.00019624
70 *374:141 *376:80 0.000194962
71 *374:141 *376:84 0.000575281
*RES
1 *2905:X *376:6 13.8 
2 *376:6 *376:14 17.0179 
3 *376:14 *376:44 41.7857 
4 *376:44 *3085:A 9.3 
5 *376:14 *3000:A 9.72857 
6 *376:6 *376:80 34.4053 
7 *376:80 *376:84 21.7768 
8 *376:84 *2582:A 43.9786 
9 *376:84 *2906:B 9.3 
*END

*D_NET *377 0.0015673
*CONN
*I *2909:S I *D sky130_fd_sc_hd__mux2_1
*I *2907:S I *D sky130_fd_sc_hd__mux2_1
*I *2906:Y O *D sky130_fd_sc_hd__nor2_1
*CAP
1 *2909:S 4.76724e-05
2 *2907:S 5.68211e-05
3 *2906:Y 0.00013807
4 *377:10 0.000242563
5 *2907:S *3391:A 0.000222666
6 *2909:S *391:43 0.000175519
7 *377:10 *2912:B 7.25873e-06
8 *377:10 *391:43 0.000148079
9 *2906:A *377:10 1.35553e-05
10 *2907:A1 *2907:S 0.000181803
11 *2996:A1 *2907:S 1.21258e-05
12 *369:28 *377:10 0.000123185
13 *369:74 *2909:S 0.000166269
14 *369:74 *377:10 3.17148e-05
*RES
1 *2906:Y *377:10 16.6929 
2 *377:10 *2907:S 15.9786 
3 *377:10 *2909:S 16.05 
*END

*D_NET *378 0.000543218
*CONN
*I *2908:A I *D sky130_fd_sc_hd__clkbuf_1
*I *2907:X O *D sky130_fd_sc_hd__mux2_1
*CAP
1 *2908:A 0.00023312
2 *2907:X 0.00023312
3 *2908:A *3391:A 2.24469e-05
4 *2582:A *2908:A 5.45307e-05
*RES
1 *2907:X *2908:A 31.2607 
*END

*D_NET *379 0.00125016
*CONN
*I *2910:A I *D sky130_fd_sc_hd__clkbuf_1
*I *2909:X O *D sky130_fd_sc_hd__mux2_1
*CAP
1 *2910:A 0.000277084
2 *2909:X 0.000277084
3 *2910:A *3220:CLK 0.000136951
4 *2744:B *2910:A 0.000188118
5 *3155:D *2910:A 0.00025383
6 *176:74 *2910:A 2.2628e-05
7 *369:74 *2910:A 9.44637e-05
*RES
1 *2909:X *2910:A 33.3321 
*END

*D_NET *380 0.0133094
*CONN
*I *3090:A I *D sky130_fd_sc_hd__nor2_1
*I *2912:B I *D sky130_fd_sc_hd__nor2_1
*I *3006:A I *D sky130_fd_sc_hd__nor2_1
*I *2587:A I *D sky130_fd_sc_hd__or2_1
*I *2911:X O *D sky130_fd_sc_hd__or4b_2
*CAP
1 *3090:A 0
2 *2912:B 0.000368229
3 *3006:A 1.99482e-05
4 *2587:A 0.00068437
5 *2911:X 0.000510088
6 *380:38 0.0016411
7 *380:22 0.00199277
8 *380:10 0.00119784
9 *2587:A *2582:B 9.71197e-05
10 *2587:A *3188:CLK 0.000478626
11 *2587:A *527:89 0.000140933
12 *2587:A *600:109 8.17274e-05
13 *2587:A *748:24 0
14 *2912:B *2909:A0 7.83659e-05
15 *2912:B *391:43 0.00016256
16 *380:10 *3090:B 0.000172802
17 *380:10 *3095:B 4.50149e-05
18 *380:10 *3096:S 0.000374637
19 *380:10 *3097:A 6.69066e-05
20 *380:10 *3400:A 0.000303839
21 *380:10 *384:43 0
22 *380:10 *474:33 4.97705e-05
23 *380:10 *498:10 0.000148514
24 *380:22 *2757:A1 0.000195547
25 *380:22 *3090:B 4.6025e-06
26 *380:22 *3097:A 3.47641e-06
27 *380:22 *3325:A 0.000489655
28 *380:22 *384:43 9.56446e-06
29 *380:22 *495:8 0.000313414
30 *380:38 *2796:A1 5.42547e-05
31 *380:38 *3006:B 0.000461094
32 *380:38 *3397:A 6.57032e-05
33 *2744:B *2587:A 5.52302e-05
34 *2744:C *2587:A 4.43142e-05
35 *2796:A2 *2587:A 7.6644e-05
36 *2796:A2 *3006:A 8.08022e-05
37 *2796:B1 *380:38 3.12738e-05
38 *2799:B1 *380:38 0
39 *2799:C1 *2587:A 2.7814e-05
40 *2906:A *2912:B 8.04661e-05
41 *2911:A *380:10 2.39779e-05
42 *2911:B *380:10 2.93957e-05
43 *2934:A *380:10 9.25014e-06
44 *2934:B *380:10 2.84494e-05
45 *3155:D *380:38 1.9774e-05
46 *183:56 *380:10 1.77462e-05
47 *197:28 *2912:B 0.000124005
48 *207:90 *2587:A 0.000335215
49 *207:90 *3006:A 7.22594e-05
50 *208:18 *380:22 0.000600739
51 *212:65 *380:22 0.000102812
52 *212:65 *380:38 0.000106046
53 *212:91 *2587:A 7.83587e-05
54 *221:16 *2587:A 0.000117881
55 *231:26 *380:38 9.83388e-05
56 *235:20 *2587:A 0.000153054
57 *317:72 *380:10 0.000111921
58 *321:28 *380:10 5.52238e-05
59 *322:61 *2912:B 5.48394e-05
60 *365:22 *2912:B 0.000553877
61 *376:14 *380:10 0
62 *377:10 *2912:B 7.25873e-06
*RES
1 *2911:X *380:10 27.5143 
2 *380:10 *380:22 22.375 
3 *380:22 *380:38 27.25 
4 *380:38 *2587:A 39.55 
5 *380:38 *3006:A 14.8357 
6 *380:22 *2912:B 28.0321 
7 *380:10 *3090:A 13.8 
*END

*D_NET *381 0.00199218
*CONN
*I *2915:S I *D sky130_fd_sc_hd__mux2_1
*I *2913:S I *D sky130_fd_sc_hd__mux2_1
*I *2912:Y O *D sky130_fd_sc_hd__nor2_1
*CAP
1 *2915:S 9.35153e-05
2 *2913:S 8.99129e-05
3 *2912:Y 4.68832e-05
4 *381:8 0.000230311
5 *2913:S *391:43 0.000211313
6 *381:8 *391:43 0.000121877
7 *2915:A1 *2915:S 0.000271234
8 *174:83 *2915:S 0.000379978
9 *369:19 *2913:S 3.36641e-05
10 *369:28 *2913:S 0.000187197
11 *369:28 *381:8 0.000113255
12 *374:90 *2915:S 0.000213037
*RES
1 *2912:Y *381:8 15.4429 
2 *381:8 *2913:S 16.6571 
3 *381:8 *2915:S 18.4429 
*END

*D_NET *382 0.00326055
*CONN
*I *2914:A I *D sky130_fd_sc_hd__clkbuf_1
*I *2913:X O *D sky130_fd_sc_hd__mux2_1
*CAP
1 *2914:A 0.00105349
2 *2913:X 0.00105349
3 *2914:A *2798:A1 3.54697e-06
4 *2914:A *395:53 0
5 *2914:A *527:26 0.000369067
6 *2914:A *600:66 3.75903e-05
7 *2914:A *600:81 6.13772e-05
8 *2798:B1 *2914:A 2.39852e-05
9 *2799:C1 *2914:A 9.20464e-06
10 *3156:D *2914:A 2.34847e-05
11 *174:104 *2914:A 6.14002e-05
12 *174:112 *2914:A 5.20492e-05
13 *316:60 *2914:A 0.000511868
*RES
1 *2913:X *2914:A 47.5257 
*END

*D_NET *383 0.00211074
*CONN
*I *2916:A I *D sky130_fd_sc_hd__clkbuf_1
*I *2915:X O *D sky130_fd_sc_hd__mux2_1
*CAP
1 *2916:A 0.000535503
2 *2915:X 0.000535503
3 *2916:A *2747:A1 3.2062e-05
4 *2916:A *2798:A1 4.01978e-05
5 *2916:A *395:57 0.000185153
6 *2916:A *600:66 9.55323e-06
7 *2747:B1 *2916:A 0.000117515
8 *2798:A2 *2916:A 0.000211135
9 *2798:A3 *2916:A 0.000115446
10 *2798:B1 *2916:A 0.000321736
11 *212:142 *2916:A 6.93704e-06
*RES
1 *2915:X *2916:A 37.7607 
*END

*D_NET *384 0.0128832
*CONN
*I *3012:B I *D sky130_fd_sc_hd__or3_1
*I *2592:B I *D sky130_fd_sc_hd__or3_1
*I *2918:C I *D sky130_fd_sc_hd__or3_2
*I *3095:B I *D sky130_fd_sc_hd__or3_1
*I *2917:X O *D sky130_fd_sc_hd__or4b_2
*CAP
1 *3012:B 0
2 *2592:B 0.000588159
3 *2918:C 0.00013378
4 *3095:B 0.000104447
5 *2917:X 0.000248803
6 *384:43 0.00218605
7 *384:26 0.00207114
8 *384:14 0.000751389
9 *2592:B *2593:S 0.000393245
10 *2592:B *550:6 5.33005e-05
11 *3095:B *474:33 3.83498e-05
12 *384:14 *3047:A 0.000171966
13 *384:14 *411:10 3.25078e-05
14 *384:14 *677:20 0.000167269
15 *384:43 *2757:A1 4.06782e-05
16 *384:43 *3006:B 0.000247085
17 *384:43 *3090:B 0.000296481
18 *384:43 *3093:A0 0.000147125
19 *384:43 *3093:S 3.57844e-05
20 *384:43 *3096:A1 0.000257222
21 *384:43 *3325:A 3.68348e-05
22 *384:43 *419:61 9.79134e-05
23 *384:43 *474:33 5.43931e-05
24 *384:43 *495:8 0.000260754
25 *384:43 *726:20 0.000121041
26 *2593:A0 *2918:C 4.96722e-05
27 *2757:B1 *2918:C 3.22031e-05
28 *2757:B1 *384:43 0.000163697
29 *2772:B1 *384:43 9.74367e-05
30 *2784:B *2592:B 2.05612e-05
31 *2911:B *3095:B 1.02504e-05
32 *2911:B *384:26 9.87983e-06
33 *3468:A *384:14 0.000169982
34 *3468:A *384:26 2.06112e-05
35 *174:83 *2592:B 0.000181107
36 *176:64 *384:43 0.00016875
37 *177:24 *384:43 0
38 *202:14 *384:43 1.76177e-05
39 *208:18 *384:43 0
40 *322:61 *2918:C 0.000112655
41 *322:61 *384:43 3.20387e-05
42 *340:41 *384:14 0
43 *345:16 *384:26 0.00146767
44 *352:34 *384:14 0.000230365
45 *365:14 *384:26 0.000230801
46 *371:16 *384:26 0.00107846
47 *376:14 *384:26 4.15526e-05
48 *376:80 *384:26 5.58875e-06
49 *376:80 *384:43 0.000151975
50 *380:10 *3095:B 4.50149e-05
51 *380:10 *384:43 0
52 *380:22 *384:43 9.56446e-06
*RES
1 *2917:X *384:14 24.675 
2 *384:14 *384:26 14.7541 
3 *384:26 *3095:B 15.7375 
4 *384:26 *384:43 34.3304 
5 *384:43 *2918:C 16.9607 
6 *384:43 *2592:B 21.3179 
7 *384:14 *3012:B 9.3 
*END

*D_NET *385 0.00688985
*CONN
*I *2919:S I *D sky130_fd_sc_hd__mux2_1
*I *2921:S I *D sky130_fd_sc_hd__mux2_1
*I *2918:X O *D sky130_fd_sc_hd__or3_2
*CAP
1 *2919:S 0.000211986
2 *2921:S 0.000104353
3 *2918:X 0.00163231
4 *385:16 0.000412279
5 *385:10 0.00172825
6 *2919:S *2919:A1 5.80706e-06
7 *2919:S *901:16 0
8 *2919:S *905:12 3.57844e-05
9 *2921:S *2733:A1 1.54142e-05
10 *2921:S *2921:A1 1.21258e-05
11 *2921:S *901:16 0.000142856
12 *385:10 *2734:A1 0.000122359
13 *385:10 *2936:S 6.02864e-05
14 *385:10 *3328:A 6.1684e-05
15 *385:10 *3392:A 6.74911e-05
16 *385:10 *606:27 0.000113714
17 *385:16 *2733:A1 0.000322639
18 *385:16 *905:12 0.000227539
19 *2886:A0 *385:10 0
20 *2893:A *385:10 0.000335208
21 *2918:A *385:10 2.59355e-05
22 *2923:A *385:10 7.47788e-05
23 *3150:D *385:10 0.000152333
24 *181:75 *385:10 0
25 *202:14 *385:10 0
26 *208:20 *385:10 0.000357432
27 *208:26 *385:10 2.90547e-05
28 *316:60 *385:10 2.2131e-05
29 *322:31 *385:10 0.000122934
30 *322:42 *385:10 0.000164766
31 *325:49 *385:10 7.57851e-05
32 *369:104 *2919:S 0.000252623
*RES
1 *2918:X *385:10 48.3714 
2 *385:10 *385:16 7.92857 
3 *385:16 *2921:S 11.4786 
4 *385:16 *2919:S 23.2821 
*END

*D_NET *386 0.000338895
*CONN
*I *2920:A I *D sky130_fd_sc_hd__clkbuf_1
*I *2919:X O *D sky130_fd_sc_hd__mux2_1
*CAP
1 *2920:A 0.000121624
2 *2919:X 0.000121624
3 *2920:A *2937:A 7.83587e-05
4 *2920:A *901:16 1.72894e-05
*RES
1 *2919:X *2920:A 29.7786 
*END

*D_NET *387 0.00128718
*CONN
*I *2922:A I *D sky130_fd_sc_hd__clkbuf_1
*I *2921:X O *D sky130_fd_sc_hd__mux2_1
*CAP
1 *2922:A 0.000615291
2 *2921:X 0.000615291
3 *2922:A *3158:CLK 5.65955e-05
4 *3165:D *2922:A 0
*RES
1 *2921:X *2922:A 37.8321 
*END

*D_NET *388 0.00297706
*CONN
*I *2924:S I *D sky130_fd_sc_hd__mux2_1
*I *2926:S I *D sky130_fd_sc_hd__mux2_1
*I *2923:Y O *D sky130_fd_sc_hd__nor2_1
*CAP
1 *2924:S 7.13843e-05
2 *2926:S 0.000527019
3 *2923:Y 0.000370915
4 *388:8 0.000969319
5 *2924:S *2924:A0 5.52238e-05
6 *2926:S *2733:B2 0.000121169
7 *2926:S *2812:B2 0
8 *2926:S *2926:A0 2.44318e-05
9 *2926:S *3327:A 9.74027e-05
10 *2926:S *904:12 0
11 *388:8 *2733:B1 0.000114412
12 *388:8 *2733:B2 6.07626e-05
13 *388:8 *2734:A1 0
14 *388:8 *2812:B2 0
15 *388:8 *2924:A0 8.00806e-05
16 *388:8 *715:58 3.0089e-05
17 *2733:A2 *388:8 0.000145564
18 *2734:A2 *388:8 7.89362e-05
19 *2734:B1 *388:8 0.000118175
20 *2924:A1 *2924:S 1.92905e-05
21 *2926:A1 *2926:S 9.28838e-05
22 *3160:D *2926:S 0
*RES
1 *2923:Y *388:8 22.7286 
2 *388:8 *2926:S 24.1393 
3 *388:8 *2924:S 15.1571 
*END

*D_NET *389 0.000247414
*CONN
*I *2925:A I *D sky130_fd_sc_hd__clkbuf_1
*I *2924:X O *D sky130_fd_sc_hd__mux2_1
*CAP
1 *2925:A 0.000120824
2 *2924:X 0.000120824
3 *2925:A *2924:A0 5.7661e-06
*RES
1 *2924:X *2925:A 20.6893 
*END

*D_NET *390 0.00105205
*CONN
*I *2927:A I *D sky130_fd_sc_hd__clkbuf_1
*I *2926:X O *D sky130_fd_sc_hd__mux2_1
*CAP
1 *2927:A 0.000448806
2 *2926:X 0.000448806
3 *2927:A *2919:A1 4.79842e-05
4 *2927:A *3327:A 0.000106455
*RES
1 *2926:X *2927:A 33.8857 
*END

*D_NET *391 0.0217799
*CONN
*I *3106:A I *D sky130_fd_sc_hd__nor2_1
*I *2929:B I *D sky130_fd_sc_hd__nor2_1
*I *2602:A I *D sky130_fd_sc_hd__or2_1
*I *3022:A I *D sky130_fd_sc_hd__nor2_1
*I *2928:X O *D sky130_fd_sc_hd__or3b_4
*CAP
1 *3106:A 0.000115705
2 *2929:B 9.788e-06
3 *2602:A 0.000492023
4 *3022:A 0.00116372
5 *2928:X 0.000521268
6 *391:43 0.00218412
7 *391:37 0.00289744
8 *391:16 0.00278442
9 *2602:A *2602:B 5.45307e-05
10 *2602:A *2930:A0 9.60939e-05
11 *2602:A *2930:S 6.76272e-05
12 *2602:A *2931:A 0.000106511
13 *2602:A *511:18 0.000115838
14 *2929:B *2933:A 5.49544e-05
15 *3022:A *2717:B2 0.000139913
16 *3022:A *2993:S 0.000245349
17 *3022:A *3004:A 3.63775e-05
18 *3022:A *3022:B 0
19 *3022:A *3032:A 0.000341642
20 *3022:A *3425:A 0.000169359
21 *3022:A *421:32 0
22 *3022:A *424:22 0.000650823
23 *3022:A *433:10 5.7616e-05
24 *3022:A *445:89 0.000263107
25 *3106:A *476:31 0.000219711
26 *391:16 *3004:A 1.92905e-05
27 *391:16 *3015:A0 0.000181796
28 *391:16 *432:46 6.46107e-05
29 *391:16 *432:73 0.000488401
30 *391:16 *678:12 0.000543995
31 *391:37 *2772:A1 1.97975e-05
32 *391:37 *3027:A 0.00026169
33 *391:37 *3100:A 2.76457e-05
34 *391:37 *395:26 0.000191367
35 *391:37 *439:10 4.14371e-05
36 *391:43 *2909:A0 3.92854e-05
37 *391:43 *2913:A0 3.75959e-05
38 *391:43 *2930:S 2.84494e-05
39 *391:43 *2932:S 7.4826e-05
40 *391:43 *2935:B 0
41 *391:43 *3092:A 0.000125731
42 *391:43 *606:42 0
43 *2689:A_N *391:16 3.18676e-05
44 *2689:B_N *391:16 0.000106011
45 *2689:D *391:16 0.000112965
46 *2703:B *391:37 0.00020137
47 *2703:C *391:37 0.000149464
48 *2772:A2 *391:37 3.78119e-05
49 *2772:A3 *391:37 5.59239e-05
50 *2838:A *2602:A 8.57023e-05
51 *2889:A *391:43 0
52 *2909:S *391:43 0.000175519
53 *2912:B *391:43 0.00016256
54 *2913:S *391:43 0.000211313
55 *3003:A1 *3022:A 0.000479885
56 *3149:D *391:43 0.000141849
57 *3220:D *391:43 0.000469146
58 *171:37 *391:16 8.00346e-05
59 *180:10 *391:16 0.000107974
60 *181:32 *3022:A 7.91917e-05
61 *181:75 *2929:B 5.65955e-05
62 *192:32 *391:37 8.6229e-06
63 *192:32 *391:43 0.000144531
64 *193:56 *391:43 4.56587e-05
65 *197:28 *2602:A 0
66 *197:108 *3022:A 0.000333849
67 *207:12 *391:37 0.000154475
68 *215:20 *3022:A 5.33005e-05
69 *215:20 *391:16 0.000901346
70 *215:20 *391:37 3.17148e-05
71 *299:22 *391:43 0
72 *321:75 *2602:A 0.000339828
73 *365:22 *391:37 0
74 *365:22 *391:43 0
75 *365:64 *391:37 0
76 *369:10 *2602:A 3.34366e-05
77 *369:19 *2602:A 0.000199698
78 *369:19 *391:43 0.000558959
79 *369:28 *391:43 5.35334e-05
80 *369:74 *391:43 0.000152112
81 *374:141 *391:37 0
82 *376:80 *391:37 0.00040771
83 *376:80 *391:43 0.000180664
84 *376:84 *391:43 0.000231454
85 *377:10 *391:43 0.000148079
86 *381:8 *391:43 0.000121877
*RES
1 *2928:X *391:16 37.5857 
2 *391:16 *3022:A 47.05 
3 *391:16 *391:37 28.3036 
4 *391:37 *391:43 40.0536 
5 *391:43 *2602:A 26.6393 
6 *391:43 *2929:B 14.3357 
7 *391:37 *3106:A 15.9786 
*END

*D_NET *392 0.0018503
*CONN
*I *2932:S I *D sky130_fd_sc_hd__mux2_1
*I *2930:S I *D sky130_fd_sc_hd__mux2_1
*I *2929:Y O *D sky130_fd_sc_hd__nor2_1
*CAP
1 *2932:S 0.000221646
2 *2930:S 0.000126794
3 *2929:Y 0
4 *392:6 0.000348439
5 *2930:S *2930:A0 5.62995e-05
6 *2930:S *2933:A 4.1331e-06
7 *2930:S *2935:B 0
8 *2930:S *511:18 5.33334e-05
9 *2932:S *2933:A 2.79092e-05
10 *2932:S *2935:B 0
11 *2932:S *902:8 0.000352053
12 *2602:A *2930:S 6.76272e-05
13 *2811:A2 *2932:S 8.40933e-05
14 *197:28 *2930:S 0.000160484
15 *325:57 *2930:S 1.66761e-05
16 *371:79 *2932:S 0.000227539
17 *391:43 *2930:S 2.84494e-05
18 *391:43 *2932:S 7.4826e-05
*RES
1 *2929:Y *392:6 13.8 
2 *392:6 *2930:S 17.9071 
3 *392:6 *2932:S 19.5679 
*END

*D_NET *393 0.000275245
*CONN
*I *2931:A I *D sky130_fd_sc_hd__clkbuf_1
*I *2930:X O *D sky130_fd_sc_hd__mux2_1
*CAP
1 *2931:A 8.43672e-05
2 *2930:X 8.43672e-05
3 *2602:A *2931:A 0.000106511
*RES
1 *2930:X *2931:A 20.2786 
*END

*D_NET *394 0.000823829
*CONN
*I *2933:A I *D sky130_fd_sc_hd__clkbuf_1
*I *2932:X O *D sky130_fd_sc_hd__mux2_1
*CAP
1 *2933:A 0.000251272
2 *2932:X 0.000251272
3 *2933:A *2935:B 8.00806e-05
4 *2929:A *2933:A 5.52238e-05
5 *2929:B *2933:A 5.49544e-05
6 *2930:S *2933:A 4.1331e-06
7 *2932:S *2933:A 2.79092e-05
8 *181:75 *2933:A 9.89851e-05
*RES
1 *2932:X *2933:A 32.4929 
*END

*D_NET *395 0.0216366
*CONN
*I *3027:A I *D sky130_fd_sc_hd__nor2_1
*I *2935:B I *D sky130_fd_sc_hd__nor2_1
*I *2607:A I *D sky130_fd_sc_hd__or2_1
*I *3111:A I *D sky130_fd_sc_hd__nor2_1
*I *2934:X O *D sky130_fd_sc_hd__or3b_2
*CAP
1 *3027:A 0.000814523
2 *2935:B 0.00080754
3 *2607:A 8.87885e-05
4 *3111:A 0.000139231
5 *2934:X 0.000461332
6 *395:57 0.00115904
7 *395:53 0.00161354
8 *395:26 0.00291533
9 *395:8 0.00270113
10 *2607:A *2607:B 5.33005e-05
11 *2607:A *600:37 3.97677e-05
12 *2607:A *915:10 5.33005e-05
13 *2935:B *2607:B 9.60939e-05
14 *2935:B *3149:CLK 0.00021592
15 *2935:B *600:37 0.000255109
16 *2935:B *893:35 0.000168394
17 *3027:A *2707:A1 4.45694e-05
18 *3027:A *2976:S 5.08854e-05
19 *3027:A *3004:A 8.98801e-05
20 *3027:A *3037:A 0
21 *3027:A *421:20 0.000403761
22 *3027:A *887:10 0.000146053
23 *3111:A *3108:A 0.000144215
24 *3111:A *3386:A 0.000170385
25 *3111:A *399:34 0.000142561
26 *3111:A *500:131 0.000267377
27 *3111:A *831:6 0.000136958
28 *3111:A *832:10 1.24368e-05
29 *395:8 *2990:B 5.52302e-05
30 *395:8 *419:158 0.000475831
31 *395:26 *2707:A1 0.000414227
32 *395:26 *2974:S 2.16719e-05
33 *395:26 *3386:A 5.33005e-05
34 *395:26 *474:49 0.000545391
35 *395:26 *832:10 0.000168334
36 *395:53 *3007:A1 4.99163e-05
37 *395:53 *3091:A1 4.66096e-05
38 *395:53 *3112:A0 0.000148926
39 *395:53 *3386:A 5.32956e-05
40 *395:53 *500:131 0.00011294
41 *395:53 *600:18 2.79421e-05
42 *395:53 *600:26 1.92789e-05
43 *395:53 *600:81 0
44 *395:57 *2798:A1 9.15842e-06
45 *395:57 *3330:A 4.8936e-05
46 *395:57 *528:62 8.17508e-05
47 *395:57 *528:66 3.17148e-05
48 *395:57 *590:24 2.09826e-05
49 *395:57 *590:35 0.000211441
50 *395:57 *590:52 1.10632e-05
51 *395:57 *600:66 4.16786e-05
52 *2693:B *3027:A 0.000153054
53 *2713:D *395:26 0.000347177
54 *2748:B1 *395:53 3.33084e-05
55 *2768:C *395:53 5.51502e-05
56 *2798:A2 *395:53 0
57 *2798:B1 *395:53 0.000137903
58 *2798:B1 *395:57 1.6424e-05
59 *2819:A2 *2935:B 1.58163e-05
60 *2914:A *395:53 0
61 *2916:A *395:57 0.000185153
62 *2930:S *2935:B 0
63 *2932:S *2935:B 0
64 *2933:A *2935:B 8.00806e-05
65 *2934:A *395:8 5.33433e-05
66 *3149:D *2935:B 0.000102619
67 *3157:D *395:57 9.96264e-05
68 *174:104 *395:53 4.43393e-05
69 *179:41 *3027:A 0.000148851
70 *181:32 *395:26 0
71 *181:34 *395:53 0.00018706
72 *181:50 *395:53 0.000694451
73 *181:50 *395:57 0.000238762
74 *185:14 *3027:A 4.57538e-05
75 *192:57 *395:26 0.000162743
76 *192:57 *395:53 2.23987e-05
77 *197:8 *3027:A 0.000143173
78 *197:18 *3027:A 0.000321213
79 *207:12 *3027:A 0
80 *207:86 *395:26 0.0004118
81 *207:86 *395:53 0
82 *209:18 *395:26 0.000142045
83 *215:20 *3027:A 0.000192262
84 *221:16 *395:53 0.000698777
85 *299:22 *2935:B 8.15095e-05
86 *316:60 *395:53 0.000134037
87 *316:70 *395:53 2.02794e-05
88 *325:57 *2935:B 4.46186e-06
89 *366:10 *2935:B 5.38886e-05
90 *371:79 *2935:B 0.000171368
91 *374:90 *2935:B 3.48139e-05
92 *374:141 *395:26 0.000108849
93 *391:37 *3027:A 0.00026169
94 *391:37 *395:26 0.000191367
95 *391:43 *2935:B 0
*RES
1 *2934:X *395:8 20.0857 
2 *395:8 *395:26 41.9464 
3 *395:26 *3111:A 23.2464 
4 *395:26 *395:53 43.6964 
5 *395:53 *395:57 12.8214 
6 *395:57 *2607:A 11.0857 
7 *395:57 *2935:B 36.6929 
8 *395:8 *3027:A 35.6571 
*END

*D_NET *396 0.00568948
*CONN
*I *2936:S I *D sky130_fd_sc_hd__mux2_1
*I *2938:S I *D sky130_fd_sc_hd__mux2_1
*I *2935:Y O *D sky130_fd_sc_hd__nor2_1
*CAP
1 *2936:S 0.000286294
2 *2938:S 0.000110002
3 *2935:Y 0.000678696
4 *396:12 0.00107499
5 *2936:S *2733:B2 0
6 *2936:S *2936:A0 0.000107277
7 *2936:S *3348:A 0.00021044
8 *2936:S *905:12 9.56968e-05
9 *2938:S *2813:A1 5.49995e-05
10 *2938:S *2938:A0 2.24718e-05
11 *2938:S *3348:A 0.000185408
12 *2938:S *900:12 0.000313215
13 *2733:A2 *2936:S 2.50593e-05
14 *2814:B1 *396:12 0.000265787
15 *2814:C1 *396:12 0.000328226
16 *2838:B *396:12 0.000408189
17 *2895:A *396:12 0.000111005
18 *2924:A1 *2936:S 2.27416e-05
19 *2938:A1 *2936:S 0.000221978
20 *2938:A1 *2938:S 0.000612282
21 *181:75 *396:12 0.000112562
22 *197:28 *396:12 8.56716e-05
23 *325:57 *396:12 0.000125731
24 *369:104 *2936:S 5.65806e-05
25 *369:104 *396:12 0.000113892
26 *385:10 *2936:S 6.02864e-05
*RES
1 *2935:Y *396:12 35.05 
2 *396:12 *2938:S 15.175 
3 *396:12 *2936:S 25.9964 
*END

*D_NET *397 0.00206253
*CONN
*I *2937:A I *D sky130_fd_sc_hd__clkbuf_1
*I *2936:X O *D sky130_fd_sc_hd__mux2_1
*CAP
1 *2937:A 0.000860592
2 *2936:X 0.000860592
3 *2937:A *901:16 5.30637e-06
4 *2937:A *906:10 1.88619e-05
5 *2920:A *2937:A 7.83587e-05
6 *3158:D *2937:A 0.000103267
7 *3164:D *2937:A 0.000135551
*RES
1 *2936:X *2937:A 40.4214 
*END

*D_NET *398 0.00134523
*CONN
*I *2939:A I *D sky130_fd_sc_hd__clkbuf_1
*I *2938:X O *D sky130_fd_sc_hd__mux2_1
*CAP
1 *2939:A 0.000500467
2 *2938:X 0.000500467
3 *2939:A *3264:CLK 1.58163e-05
4 *2939:A *599:65 0.000142417
5 *2939:A *599:75 0.000186067
*RES
1 *2938:X *2939:A 35.9214 
*END

*D_NET *399 0.0347156
*CONN
*I *2941:B I *D sky130_fd_sc_hd__or2_1
*I *3032:A I *D sky130_fd_sc_hd__or2_1
*I *2612:A I *D sky130_fd_sc_hd__or2_1
*I *3117:A I *D sky130_fd_sc_hd__or2_1
*I *2940:X O *D sky130_fd_sc_hd__or4b_4
*CAP
1 *2941:B 0.00616216
2 *3032:A 0.000613185
3 *2612:A 0
4 *3117:A 0.000451225
5 *2940:X 8.07801e-05
6 *399:73 0.0013718
7 *399:34 0.00298273
8 *399:16 0.00425589
9 *399:12 0.00872594
10 *2941:B *3066:A0 0
11 *2941:B *403:53 0
12 *2941:B *411:14 0.000267026
13 *2941:B *590:18 0
14 *2941:B *590:157 0
15 *2941:B *590:208 0
16 *2941:B *606:81 8.55307e-05
17 *3032:A *2994:A 0.000170532
18 *3032:A *421:26 0.000137983
19 *3032:A *421:32 0.000184936
20 *3032:A *433:10 2.37761e-05
21 *3032:A *881:10 0.000175519
22 *3117:A *3117:B 0.000387076
23 *3117:A *829:14 0.000150357
24 *3117:A *830:8 9.06525e-05
25 *399:16 *3066:A0 0
26 *399:34 *2774:A1 1.6806e-05
27 *399:34 *3108:A 8.48709e-05
28 *399:34 *3112:A0 0.000271352
29 *399:34 *3112:S 1.08175e-05
30 *399:34 *3114:A0 6.35224e-05
31 *399:34 *3449:A 0.000120299
32 *399:34 *421:32 0.000105523
33 *399:34 *603:39 0.00046993
34 *399:34 *748:39 0
35 *399:34 *830:8 0.000183324
36 *399:73 *2802:A2 0
37 *399:73 *3189:CLK 0
38 *399:73 *599:10 2.8266e-06
39 *399:73 *748:24 0.000695895
40 *2712:A2 *399:34 4.41588e-05
41 *2712:B1 *399:34 0
42 *2774:A3 *399:34 1.32293e-05
43 *2774:B1 *399:34 0.000121897
44 *2805:A2 *399:73 0.000168878
45 *2805:B1 *399:73 0.00072579
46 *2808:A2 *399:73 0
47 *2819:A1 *2941:B 5.65955e-05
48 *2940:A *399:12 4.543e-05
49 *3022:A *3032:A 0.000341642
50 *3111:A *399:34 0.000142561
51 *3188:D *399:73 0.000125724
52 *3189:D *399:73 0.000152333
53 *3227:D *399:34 0.000220088
54 *3229:D *3117:A 8.72041e-05
55 *176:44 *2941:B 0.00014854
56 *177:116 *399:34 1.35553e-05
57 *181:16 *399:16 0.000269667
58 *181:32 *399:34 0.000180747
59 *197:18 *399:16 0.000140532
60 *197:108 *3032:A 0.00019384
61 *202:67 *399:34 0.000178503
62 *207:98 *399:73 7.80059e-05
63 *208:106 *399:16 0.000407376
64 *208:118 *3032:A 5.01876e-06
65 *208:118 *399:34 3.15533e-05
66 *218:12 *399:12 6.27272e-06
67 *218:12 *399:16 5.63146e-05
68 *218:24 *399:16 0.000452623
69 *218:24 *399:34 0.000113119
70 *235:20 *399:34 0.000841312
71 *267:44 *399:34 6.94126e-05
72 *285:22 *399:73 0.00042979
73 *299:22 *399:73 0.000286137
74 *319:88 *2941:B 1.91871e-05
75 *325:8 *2941:B 5.49544e-05
76 *350:42 *2941:B 0
77 *358:96 *399:73 0.00015134
78 *358:114 *399:34 0
*RES
1 *2940:X *399:12 18.4332 
2 *399:12 *399:16 9.43853 
3 *399:16 *399:34 43.7232 
4 *399:34 *3117:A 19.5679 
5 *399:34 *399:73 44 
6 *399:73 *2612:A 9.3 
7 *399:16 *3032:A 29.7732 
8 *399:12 *2941:B 35.9522 
*END

*D_NET *400 0.00217602
*CONN
*I *2942:S I *D sky130_fd_sc_hd__mux2_1
*I *2944:S I *D sky130_fd_sc_hd__mux2_1
*I *2941:X O *D sky130_fd_sc_hd__or2_1
*CAP
1 *2942:S 0.000191241
2 *2944:S 4.04283e-05
3 *2941:X 0.00010331
4 *400:6 0.000334978
5 *2942:S *2812:A1 9.36336e-05
6 *2942:S *3447:A 7.54156e-05
7 *2944:S *2944:A1 2.59355e-05
8 *400:6 *2944:A1 2.89114e-05
9 *400:6 *3447:A 0.000175892
10 *2819:A1 *400:6 8.05212e-05
11 *2819:A2 *2944:S 6.37237e-05
12 *2819:A2 *400:6 0.000376634
13 *187:96 *2942:S 0.0005295
14 *231:116 *2942:S 5.58941e-05
*RES
1 *2941:X *400:6 13.1214 
2 *400:6 *2944:S 10.2643 
3 *400:6 *2942:S 25.1036 
*END

*D_NET *401 0.00127751
*CONN
*I *2943:A I *D sky130_fd_sc_hd__clkbuf_1
*I *2942:X O *D sky130_fd_sc_hd__mux2_1
*CAP
1 *2943:A 0.000428669
2 *2942:X 0.000428669
3 *2943:A *2945:A 3.99614e-06
4 *2943:A *759:34 2.56601e-05
5 *3166:D *2943:A 0.000126931
6 *3167:D *2943:A 0.000185221
7 *231:116 *2943:A 7.83587e-05
*RES
1 *2942:X *2943:A 34.3143 
*END

*D_NET *402 0.00129825
*CONN
*I *2945:A I *D sky130_fd_sc_hd__clkbuf_1
*I *2944:X O *D sky130_fd_sc_hd__mux2_1
*CAP
1 *2945:A 0.000225972
2 *2944:X 0.000225972
3 *2945:A *3166:CLK 9.41642e-05
4 *2945:A *737:46 0.000265441
5 *2945:A *759:34 8.79776e-05
6 *2943:A *2945:A 3.99614e-06
7 *3166:D *2945:A 0.000123263
8 *3167:D *2945:A 0.000121573
9 *231:116 *2945:A 0.000149896
*RES
1 *2944:X *2945:A 34.7964 
*END

*D_NET *403 0.0297224
*CONN
*I *3122:A I *D sky130_fd_sc_hd__nor2_1
*I *2947:B I *D sky130_fd_sc_hd__nor2_1
*I *2617:A I *D sky130_fd_sc_hd__or2_1
*I *3037:A I *D sky130_fd_sc_hd__nor2_1
*I *2946:X O *D sky130_fd_sc_hd__or3_4
*CAP
1 *3122:A 9.03425e-05
2 *2947:B 0.000182843
3 *2617:A 0.00266391
4 *3037:A 0.00032571
5 *2946:X 0
6 *403:53 0.00640871
7 *403:49 0.00506608
8 *403:28 0.00215465
9 *403:4 0.00324272
10 *2617:A *3265:CLK 0
11 *2947:B *3150:CLK 0.00015789
12 *3037:A *2767:A1 0
13 *3037:A *3037:B 0.000148196
14 *3122:A *594:26 1.94879e-05
15 *403:28 *419:144 0.000149419
16 *403:28 *678:12 7.6299e-05
17 *403:28 *800:19 4.46186e-06
18 *403:28 *873:14 8.38264e-05
19 *403:49 *2708:C 9.60337e-06
20 *403:49 *419:144 0.000258463
21 *403:49 *474:18 0.000260488
22 *403:49 *590:157 0.000266967
23 *403:49 *590:208 3.56789e-05
24 *403:49 *737:24 2.73698e-05
25 *403:49 *873:14 0.000115446
26 *403:53 *590:18 0.000140136
27 *403:53 *737:34 0.000111788
28 *2693:C *3037:A 5.88158e-05
29 *2693:C *403:28 3.4323e-06
30 *2705:B *403:28 1.58163e-05
31 *2705:D *403:28 1.97756e-05
32 *2708:B *403:49 0.000127441
33 *2928:A *403:28 1.44817e-05
34 *2941:B *403:53 0
35 *3027:A *3037:A 0
36 *3468:A *403:28 9.66977e-05
37 *171:23 *403:28 0.000219711
38 *171:29 *403:28 0.000192628
39 *178:41 *403:28 4.8843e-05
40 *178:43 *403:28 7.65689e-05
41 *179:31 *403:28 2.87555e-06
42 *179:41 *3037:A 5.41797e-06
43 *179:41 *403:28 0.000164287
44 *180:61 *3037:A 1.46624e-05
45 *180:61 *403:28 0
46 *180:138 *403:28 8.7453e-05
47 *183:22 *3037:A 0
48 *185:14 *3037:A 0.000128146
49 *187:58 *403:28 0.000692958
50 *187:58 *403:49 0.000109425
51 *194:8 *403:49 1.19191e-05
52 *194:26 *403:49 1.88588e-05
53 *207:12 *403:28 0.000125731
54 *208:10 *403:28 9.3111e-05
55 *218:108 *403:49 1.84018e-05
56 *222:26 *403:49 0.000474774
57 *222:26 *403:53 0.00213062
58 *328:20 *2617:A 0.00213321
59 *328:20 *2947:B 8.76309e-05
60 *336:25 *403:28 0.000133705
61 *358:138 *3122:A 5.33005e-05
62 *370:54 *3122:A 2.09826e-05
63 *370:119 *403:28 0.000170822
64 *371:16 *403:49 6.30931e-05
65 *372:14 *2947:B 0
66 *372:14 *403:53 0.000106316
*RES
1 *2946:X *403:4 9.3 
2 *403:4 *403:28 46.0804 
3 *403:28 *3037:A 20.7554 
4 *403:4 *403:49 17.5731 
5 *403:49 *403:53 11.1274 
6 *403:53 *2617:A 23.2694 
7 *403:53 *2947:B 19.999 
8 *403:49 *3122:A 21.5155 
*END

*D_NET *404 0.00227861
*CONN
*I *2948:S I *D sky130_fd_sc_hd__mux2_1
*I *2950:S I *D sky130_fd_sc_hd__mux2_1
*I *2947:Y O *D sky130_fd_sc_hd__nor2_1
*CAP
1 *2948:S 0.000384247
2 *2950:S 0.000316528
3 *2947:Y 0
4 *404:4 0.000700775
5 *2948:S *2737:A2 4.10304e-05
6 *2950:S *2737:B2 7.24409e-05
7 *2950:S *2815:A1 0.000147921
8 *2950:S *2949:A 2.29112e-05
9 *2950:S *3150:CLK 3.57844e-05
10 *2950:S *605:29 8.91505e-05
11 *2740:A1 *2948:S 1.59689e-05
12 *2900:A1 *2948:S 9.25014e-06
13 *187:98 *2948:S 9.16074e-05
14 *187:100 *2948:S 7.02611e-05
15 *226:22 *2948:S 3.69697e-05
16 *226:22 *2950:S 0.000240691
17 *372:14 *2950:S 3.07351e-06
*RES
1 *2947:Y *404:4 9.3 
2 *404:4 *2950:S 24.8 
3 *404:4 *2948:S 23.7643 
*END

*D_NET *405 0.00117122
*CONN
*I *2949:A I *D sky130_fd_sc_hd__clkbuf_1
*I *2948:X O *D sky130_fd_sc_hd__mux2_1
*CAP
1 *2949:A 0.000322347
2 *2948:X 0.000322347
3 *2949:A *693:32 5.64704e-06
4 *2815:A2 *2949:A 9.44309e-06
5 *2815:B1 *2949:A 2.11336e-05
6 *2816:C *2949:A 0.000226266
7 *2950:S *2949:A 2.29112e-05
8 *226:22 *2949:A 0.000163711
9 *372:14 *2949:A 7.74135e-05
*RES
1 *2948:X *2949:A 34.2607 
*END

*D_NET *406 0.000337615
*CONN
*I *2951:A I *D sky130_fd_sc_hd__clkbuf_1
*I *2950:X O *D sky130_fd_sc_hd__mux2_1
*CAP
1 *2951:A 0.0001025
2 *2950:X 0.0001025
3 *2951:A *2733:B1 1.97695e-05
4 *2951:A *2733:B2 1.7859e-05
5 *2951:A *2812:B2 7.95153e-05
6 *2951:A *605:29 0
7 *3169:D *2951:A 1.5471e-05
*RES
1 *2950:X *2951:A 30.0286 
*END

*D_NET *407 0.0391057
*CONN
*I *3042:A I *D sky130_fd_sc_hd__or2_1
*I *2953:B I *D sky130_fd_sc_hd__or2_1
*I *3127:A I *D sky130_fd_sc_hd__or2_1
*I *2622:A I *D sky130_fd_sc_hd__or2_1
*I *2952:X O *D sky130_fd_sc_hd__or3_4
*CAP
1 *3042:A 0
2 *2953:B 0.0043901
3 *3127:A 0
4 *2622:A 0.00163048
5 *2952:X 0.000259884
6 *407:93 0.00132545
7 *407:20 0.00573571
8 *407:14 0.00905395
9 *407:8 0.00214396
10 *2622:A *2589:A 0.000153047
11 *2622:A *2591:A 5.26091e-05
12 *2622:A *2624:A 0.000141843
13 *2622:A *2773:A 5.03677e-05
14 *2622:A *2805:A1 7.09896e-05
15 *2622:A *3120:S 0
16 *2622:A *3128:A0 6.14969e-05
17 *2622:A *430:64 0.000229848
18 *2622:A *500:31 0
19 *2622:A *511:100 0.000416349
20 *2622:A *598:44 0.000219548
21 *2622:A *598:55 0.000369993
22 *2953:B *2780:A 0.0001052
23 *2953:B *2960:S 2.05695e-05
24 *2953:B *2965:B 0.000144285
25 *2953:B *511:150 0.00264488
26 *2953:B *607:46 0.000113806
27 *2953:B *608:37 0.000155521
28 *2953:B *775:61 0.000128212
29 *407:14 *3066:A0 5.14998e-05
30 *407:14 *3387:A 2.11419e-05
31 *407:14 *415:50 0.000231747
32 *407:14 *480:14 7.95153e-05
33 *407:14 *594:83 0.000519366
34 *407:14 *607:22 0.000334916
35 *407:14 *607:46 0.000621888
36 *407:20 *2773:A 9.59532e-06
37 *407:20 *430:64 1.19468e-05
38 *407:20 *748:14 0.000990822
39 *407:93 *2694:B 0.00031724
40 *407:93 *2694:C 0.000300727
41 *407:93 *2694:D_N 5.52238e-05
42 *407:93 *2723:A_N 0.000100823
43 *407:93 *3052:A 3.43995e-05
44 *407:93 *3052:B 0.000154027
45 *407:93 *3276:CLK 0.00052122
46 *407:93 *3276:D 0.000315165
47 *407:93 *421:16 1.04232e-05
48 *407:93 *421:95 5.62995e-05
49 *407:93 *471:10 5.26625e-05
50 *407:93 *594:83 5.59013e-05
51 *407:93 *607:12 1.18064e-05
52 *407:93 *607:22 0.000633764
53 *407:93 *798:69 1.5929e-05
54 *407:93 *799:20 0.000285856
55 *407:93 *800:75 7.34785e-05
56 *407:93 *801:93 1.41029e-05
57 *2965:A *2953:B 1.32056e-05
58 *3101:A *407:20 0
59 *3210:D *407:14 7.74068e-05
60 *3228:D *2622:A 0.00012501
61 *197:134 *2622:A 0
62 *222:26 *407:20 0.00253983
63 *267:44 *407:20 0.000180058
64 *317:38 *407:8 0.000249017
65 *317:48 *407:8 9.91383e-05
66 *325:118 *2953:B 9.99853e-05
67 *351:18 *2953:B 0.00011217
68 *358:57 *2622:A 5.56869e-05
69 *361:30 *407:14 5.46474e-05
*RES
1 *2952:X *407:8 17.2107 
2 *407:8 *407:14 17.9503 
3 *407:14 *407:20 13.2826 
4 *407:20 *2622:A 46.5879 
5 *407:20 *3127:A 13.8 
6 *407:14 *2953:B 36.9737 
7 *407:8 *407:93 44.9464 
8 *407:93 *3042:A 9.3 
*END

*D_NET *408 0.00169602
*CONN
*I *2956:S I *D sky130_fd_sc_hd__mux2_1
*I *2954:S I *D sky130_fd_sc_hd__mux2_1
*I *2953:X O *D sky130_fd_sc_hd__or2_1
*CAP
1 *2956:S 0.000264382
2 *2954:S 0.000157005
3 *2953:X 0.000101131
4 *408:8 0.000522518
5 *2954:S *2965:B 3.14003e-05
6 *2954:S *416:12 4.79864e-05
7 *2956:S *2963:A 3.5407e-05
8 *2956:S *2965:B 0.000124749
9 *408:8 *2965:B 9.67754e-05
10 *2954:A0 *2954:S 3.11088e-05
11 *2965:A *408:8 2.24718e-05
12 *300:20 *2954:S 5.49995e-05
13 *300:20 *2956:S 2.85321e-05
14 *351:18 *2956:S 4.27842e-06
15 *351:20 *2954:S 0.000102943
16 *351:20 *2956:S 5.49657e-05
17 *356:14 *2954:S 1.53675e-05
*RES
1 *2953:X *408:8 15.1571 
2 *408:8 *2954:S 17.6214 
3 *408:8 *2956:S 18.8714 
*END

*D_NET *409 0.000697538
*CONN
*I *2955:A I *D sky130_fd_sc_hd__clkbuf_1
*I *2954:X O *D sky130_fd_sc_hd__mux2_1
*CAP
1 *2955:A 0.000212101
2 *2954:X 0.000212101
3 *2955:A *2878:A1 0.000173921
4 *2955:A *3352:A 6.10501e-05
5 *356:14 *2955:A 3.83655e-05
6 *359:119 *2955:A 0
*RES
1 *2954:X *2955:A 32.3679 
*END

*D_NET *410 0.000628426
*CONN
*I *2957:A I *D sky130_fd_sc_hd__clkbuf_1
*I *2956:X O *D sky130_fd_sc_hd__mux2_1
*CAP
1 *2957:A 0.000105582
2 *2956:X 0.000105582
3 *2957:A *2731:A1 5.33005e-05
4 *2957:A *2731:B2 5.49995e-05
5 *2957:A *2956:A1 5.33005e-05
6 *2957:A *592:28 0.00012249
7 *359:111 *2957:A 9.15842e-06
8 *359:119 *2957:A 0.000124012
*RES
1 *2956:X *2957:A 30.3143 
*END

*D_NET *411 0.01744
*CONN
*I *3047:A I *D sky130_fd_sc_hd__or2_1
*I *3132:A I *D sky130_fd_sc_hd__or2_1
*I *2627:A I *D sky130_fd_sc_hd__or2_1
*I *2959:B I *D sky130_fd_sc_hd__or2_1
*I *2958:X O *D sky130_fd_sc_hd__or3_2
*CAP
1 *3047:A 0.00112477
2 *3132:A 3.55371e-05
3 *2627:A 0.00039412
4 *2959:B 0.000831889
5 *2958:X 3.96417e-05
6 *411:14 0.00229347
7 *411:10 0.00154539
8 *411:8 0.0016068
9 *2627:A *2632:B 8.38433e-05
10 *2627:A *528:135 0.000435116
11 *2959:B *606:8 9.41642e-05
12 *3047:A *3052:A 0.000460835
13 *3047:A *3052:B 0.000217141
14 *3047:A *421:12 0
15 *3047:A *421:16 3.8274e-05
16 *3047:A *421:18 5.33334e-05
17 *3047:A *421:95 0.000142856
18 *3047:A *677:18 0.000361696
19 *3047:A *772:67 1.18451e-05
20 *3047:A *772:82 0.000145154
21 *3047:A *773:59 2.97114e-05
22 *3047:A *799:45 0
23 *3047:A *801:14 0
24 *3132:A *2550:B 6.65694e-05
25 *3132:A *432:14 0.000141935
26 *3132:A *476:125 0.000100165
27 *411:10 *3012:C 2.06178e-05
28 *411:10 *3058:B 3.74791e-05
29 *411:10 *474:12 9.78004e-05
30 *411:10 *677:20 0.000156726
31 *411:14 *2751:A 0
32 *411:14 *2782:A 1.31516e-05
33 *411:14 *532:18 0.000199976
34 *411:14 *619:39 0
35 *2762:C *411:14 1.06841e-05
36 *2782:B *411:14 9.91086e-05
37 *2790:A3 *411:14 2.11419e-05
38 *2875:B *3047:A 1.01241e-05
39 *2881:A *2959:B 5.16489e-05
40 *2940:B *3047:A 8.77919e-05
41 *2941:B *411:14 0.000267026
42 *3468:A *411:10 0.000111021
43 *176:44 *411:14 0.00104232
44 *185:27 *3047:A 9.90367e-05
45 *212:14 *3047:A 0
46 *212:20 *411:14 0
47 *218:12 *3047:A 0
48 *218:112 *411:14 0.000121573
49 *218:124 *2959:B 0.00142153
50 *218:124 *411:14 0.000738677
51 *218:126 *2959:B 6.80384e-05
52 *232:14 *2959:B 0
53 *232:14 *411:14 0.000108878
54 *319:88 *3047:A 2.30314e-05
55 *325:16 *2959:B 0.000135774
56 *325:101 *2959:B 7.91011e-05
57 *340:41 *3047:A 0
58 *340:41 *411:8 5.49544e-05
59 *350:42 *2959:B 0
60 *355:34 *411:10 1.00887e-05
61 *355:34 *411:14 0.00189337
62 *370:64 *411:10 6.07037e-07
63 *384:14 *3047:A 0.000171966
64 *384:14 *411:10 3.25078e-05
*RES
1 *2958:X *411:8 14.3357 
2 *411:8 *411:10 8.92857 
3 *411:10 *411:14 33.1429 
4 *411:14 *2959:B 43.7821 
5 *411:14 *2627:A 19.2821 
6 *411:10 *3132:A 15.5857 
7 *411:8 *3047:A 40.7643 
*END

*D_NET *412 0.00145789
*CONN
*I *2962:S I *D sky130_fd_sc_hd__mux2_1
*I *2960:S I *D sky130_fd_sc_hd__mux2_1
*I *2959:X O *D sky130_fd_sc_hd__or2_1
*CAP
1 *2962:S 0
2 *2960:S 0.000275273
3 *2959:X 6.59221e-05
4 *412:6 0.000341196
5 *2960:S *608:37 0.000130133
6 *412:6 *2880:A 9.87617e-05
7 *412:6 *796:30 0.000226867
8 *2953:B *2960:S 2.05695e-05
9 *2960:A0 *2960:S 5.49489e-05
10 *307:18 *412:6 0.000167387
11 *325:118 *2960:S 0
12 *328:133 *2960:S 7.68318e-05
13 *350:42 *2960:S 0
*RES
1 *2959:X *412:6 12.3 
2 *412:6 *2960:S 23.8179 
3 *412:6 *2962:S 9.3 
*END

*D_NET *413 0.000299206
*CONN
*I *2961:A I *D sky130_fd_sc_hd__clkbuf_1
*I *2960:X O *D sky130_fd_sc_hd__mux2_1
*CAP
1 *2961:A 0.000149603
2 *2960:X 0.000149603
*RES
1 *2960:X *2961:A 21.1 
*END

*D_NET *414 0.00234548
*CONN
*I *2963:A I *D sky130_fd_sc_hd__clkbuf_1
*I *2962:X O *D sky130_fd_sc_hd__mux2_1
*CAP
1 *2963:A 0.000514668
2 *2962:X 0.000514668
3 *2963:A *2731:A2 0.000139344
4 *2963:A *2810:A1 9.41642e-05
5 *2963:A *2956:A1 0.000262841
6 *2963:A *2962:A1 5.52302e-05
7 *2963:A *3445:A 6.53781e-05
8 *2963:A *592:76 0.000141941
9 *2956:S *2963:A 3.5407e-05
10 *2962:A0 *2963:A 5.72899e-05
11 *211:47 *2963:A 0.000312736
12 *300:20 *2963:A 7.51726e-05
13 *351:16 *2963:A 7.6644e-05
*RES
1 *2962:X *2963:A 38.9214 
*END

*D_NET *415 0.0176251
*CONN
*I *2632:A I *D sky130_fd_sc_hd__or2_1
*I *2965:B I *D sky130_fd_sc_hd__or2_1
*I *2550:A I *D sky130_fd_sc_hd__or2_1
*I *3052:A I *D sky130_fd_sc_hd__or2_1
*I *2964:X O *D sky130_fd_sc_hd__or4_2
*CAP
1 *2632:A 0.000304961
2 *2965:B 0.000603709
3 *2550:A 0
4 *3052:A 0.000783537
5 *2964:X 0
6 *415:52 0.00125697
7 *415:50 0.001879
8 *415:27 0.00235215
9 *415:4 0.00160499
10 *2632:A *2632:B 0.000101355
11 *2632:A *3271:CLK 5.36586e-05
12 *3052:A *772:67 0.000196458
13 *415:27 *2964:C 5.94507e-05
14 *415:27 *419:136 1.94879e-05
15 *415:27 *594:12 0.000101813
16 *415:27 *677:20 0
17 *415:50 *2630:S 0.000328329
18 *415:50 *2750:A1 0.000174237
19 *415:50 *2750:A2 3.67356e-05
20 *415:50 *2780:A 0.000209338
21 *415:50 *2834:A 1.69115e-05
22 *415:50 *3133:A0 0.000127588
23 *415:50 *3210:CLK 9.58632e-05
24 *415:50 *3387:A 4.90426e-05
25 *415:50 *607:46 0.000130583
26 *415:50 *619:54 3.69697e-05
27 *415:50 *652:23 5.26091e-05
28 *415:50 *775:61 0
29 *415:50 *827:10 0.000202449
30 *415:52 *2629:A 1.12623e-05
31 *415:52 *2632:B 5.28594e-05
32 *2783:A *415:50 9.32406e-05
33 *2783:B *415:50 0.000291648
34 *2783:C *415:50 4.38511e-05
35 *2783:D *415:50 0.000148911
36 *2791:A *415:50 3.4323e-06
37 *2809:B1 *2965:B 2.24804e-05
38 *2875:A *415:27 0
39 *2890:A *415:27 0.000165011
40 *2890:B *415:27 0.000286553
41 *2953:B *2965:B 0.000144285
42 *2954:S *2965:B 3.14003e-05
43 *2956:S *2965:B 0.000124749
44 *2965:A *2965:B 9.67754e-05
45 *2989:A *415:50 0
46 *3047:A *3052:A 0.000460835
47 *3065:A *415:50 0.000123128
48 *3210:D *415:50 6.05161e-06
49 *3268:D *415:50 1.50059e-05
50 *3268:D *415:52 5.80642e-06
51 *211:37 *415:50 0
52 *215:72 *415:50 0
53 *316:36 *415:52 0.000579913
54 *318:84 *415:27 0.000206002
55 *319:56 *415:27 9.1144e-05
56 *319:88 *415:27 3.29754e-05
57 *321:22 *3052:A 0.00022511
58 *328:149 *2965:B 0.000506779
59 *328:149 *415:50 7.33784e-05
60 *328:149 *415:52 0.000501456
61 *340:41 *415:27 3.48025e-05
62 *351:18 *2965:B 0.000155648
63 *351:95 *2965:B 8.5048e-05
64 *352:20 *415:27 6.27272e-06
65 *355:10 *415:27 0.000444493
66 *355:34 *415:27 5.33614e-05
67 *356:14 *2965:B 0.000694361
68 *356:14 *415:52 6.82922e-05
69 *361:30 *415:27 0
70 *361:30 *415:50 0.000597634
71 *407:14 *415:50 0.000231747
72 *407:93 *3052:A 3.43995e-05
73 *408:8 *2965:B 9.67754e-05
*RES
1 *2964:X *415:4 9.3 
2 *415:4 *3052:A 34.5679 
3 *415:4 *415:27 26.1964 
4 *415:27 *2550:A 9.3 
5 *415:27 *415:50 41.9554 
6 *415:50 *415:52 9.88393 
7 *415:52 *2965:B 32.5857 
8 *415:52 *2632:A 17.8357 
*END

*D_NET *416 0.00161492
*CONN
*I *2968:S I *D sky130_fd_sc_hd__mux2_1
*I *2966:S I *D sky130_fd_sc_hd__mux2_1
*I *2965:X O *D sky130_fd_sc_hd__or2_1
*CAP
1 *2968:S 0
2 *2966:S 0.000111009
3 *2965:X 0.00031391
4 *416:12 0.000424919
5 *416:12 *2809:A1 0.00011561
6 *2732:C1 *416:12 0.000308883
7 *2882:S *416:12 9.01334e-05
8 *2954:S *416:12 4.79864e-05
9 *2966:A0 *2966:S 9.41642e-05
10 *2968:A0 *2966:S 1.33343e-05
11 *2968:A0 *416:12 8.76257e-05
12 *356:14 *416:12 7.34455e-06
*RES
1 *2965:X *416:12 25.7464 
2 *416:12 *2966:S 11.0679 
3 *416:12 *2968:S 9.3 
*END

*D_NET *417 0.000694832
*CONN
*I *2967:A I *D sky130_fd_sc_hd__clkbuf_1
*I *2966:X O *D sky130_fd_sc_hd__mux2_1
*CAP
1 *2967:A 0.000347416
2 *2966:X 0.000347416
3 *2967:A *889:14 0
4 *2879:A *2967:A 0
*RES
1 *2966:X *2967:A 33.0464 
*END

*D_NET *418 0.000905645
*CONN
*I *2969:A I *D sky130_fd_sc_hd__clkbuf_1
*I *2968:X O *D sky130_fd_sc_hd__mux2_1
*CAP
1 *2969:A 0.000318351
2 *2968:X 0.000318351
3 *2969:A *2809:A1 0
4 *2969:A *2968:A1 4.15914e-05
5 *2969:A *3147:CLK 9.90367e-05
6 *3147:D *2969:A 0.000128315
*RES
1 *2968:X *2969:A 33.3143 
*END

*D_NET *419 0.0312979
*CONN
*I *3012:C I *D sky130_fd_sc_hd__or3_1
*I *2971:B I *D sky130_fd_sc_hd__or2_1
*I *3000:B I *D sky130_fd_sc_hd__nor2_1
*I *2990:B I *D sky130_fd_sc_hd__or2_1
*I *2983:B I *D sky130_fd_sc_hd__or2_1
*I *3006:B I *D sky130_fd_sc_hd__nor2_1
*I *2995:B I *D sky130_fd_sc_hd__nor2_1
*I *2978:B I *D sky130_fd_sc_hd__or2_1
*I *2970:Y O *D sky130_fd_sc_hd__nand3b_4
*CAP
1 *3012:C 8.97321e-06
2 *2971:B 6.0624e-05
3 *3000:B 2.15787e-05
4 *2990:B 0.000994769
5 *2983:B 1.64323e-05
6 *3006:B 0.0012085
7 *2995:B 8.2602e-05
8 *2978:B 0.000301119
9 *2970:Y 1.67945e-05
10 *419:158 0.00182249
11 *419:144 0.00142243
12 *419:136 0.00184717
13 *419:61 0.00138145
14 *419:57 0.00224272
15 *419:16 0.00259766
16 *419:14 0.00113696
17 *419:8 0.00227569
18 *2978:B *2630:A1 7.79481e-05
19 *2983:B *3277:RESET_B 9.90431e-05
20 *2990:B *2975:A 5.35475e-05
21 *2990:B *424:22 0.000118133
22 *2990:B *603:25 9.26683e-05
23 *2990:B *603:31 2.87506e-05
24 *2995:B *436:14 3.18676e-05
25 *3006:B *2757:A1 0.00031248
26 *3006:B *3010:S 1.33343e-05
27 *419:8 *3057:B 9.84729e-05
28 *419:8 *775:57 9.84729e-05
29 *419:14 *2699:B 0
30 *419:14 *2781:A 0.000114651
31 *419:14 *2785:A 0.000173797
32 *419:14 *2869:B2 2.53112e-06
33 *419:14 *2987:A1 0.000181378
34 *419:14 *3066:A1 0.000127595
35 *419:14 *3068:A0 0.000178819
36 *419:14 *3376:A 4.16114e-05
37 *419:14 *3380:A 0.000246064
38 *419:14 *774:92 5.80217e-05
39 *419:14 *774:124 5.36422e-05
40 *419:16 *2984:S 0
41 *419:57 *2595:A1 0.000100165
42 *419:57 *2596:A 0.000394956
43 *419:57 *2754:A 0.00022152
44 *419:57 *2996:A0 0.000226046
45 *419:57 *3184:CLK 5.49489e-05
46 *419:57 *3408:A 0.000135719
47 *419:57 *606:102 0.000475705
48 *419:61 *3255:CLK 0.000144719
49 *419:136 *2869:B2 6.46925e-05
50 *419:136 *3300:A 0.000112056
51 *419:136 *590:161 6.68593e-05
52 *419:136 *590:176 4.13127e-05
53 *419:136 *663:40 0
54 *419:144 *432:46 1.56372e-05
55 *419:144 *474:18 0.000277266
56 *419:144 *590:161 1.46799e-05
57 *2595:A0 *419:57 0.000187595
58 *2682:A *2978:B 5.80706e-06
59 *2682:A *419:14 2.49484e-05
60 *2682:A *419:16 0.000111571
61 *2748:A1 *3006:B 0.000126764
62 *2755:A2 *419:57 0.000194546
63 *2755:B1 *2978:B 6.1237e-05
64 *2755:B1 *419:57 0.000135028
65 *2761:B *419:57 2.38651e-06
66 *2775:B1 *2990:B 1.24368e-05
67 *2799:B1 *3006:B 0.000195542
68 *2875:A *419:136 0.000571439
69 *2876:A *419:136 7.17133e-06
70 *2928:A *419:144 0.000133176
71 *2934:A *419:158 0.000140933
72 *2978:A *2978:B 5.4959e-05
73 *2983:A *2983:B 9.90431e-05
74 *3000:A *3000:B 5.04841e-06
75 *3155:D *3006:B 5.49489e-05
76 *3177:D *2990:B 0.000206878
77 *3255:D *2995:B 6.46382e-05
78 *173:12 *419:14 0
79 *174:14 *419:57 0.000244653
80 *181:32 *2990:B 3.8072e-05
81 *191:10 *419:14 4.22239e-05
82 *193:20 *3006:B 0.000159788
83 *193:26 *3006:B 0.000265056
84 *208:18 *3006:B 5.97931e-05
85 *208:18 *419:61 1.69115e-05
86 *208:118 *2990:B 0.000127714
87 *211:10 *419:14 0.000124501
88 *211:10 *419:136 6.80367e-05
89 *211:41 *419:14 0
90 *215:68 *419:136 0.000124174
91 *241:32 *419:57 0.000337755
92 *317:54 *2971:B 2.59355e-05
93 *317:54 *419:158 4.43256e-05
94 *317:66 *2971:B 3.08382e-06
95 *317:66 *419:158 0.000137983
96 *321:22 *419:158 7.64153e-05
97 *322:61 *419:57 2.51343e-06
98 *340:61 *419:158 2.39999e-05
99 *340:88 *419:158 0.000420372
100 *345:16 *419:136 0.00041514
101 *345:16 *419:144 0.000863959
102 *350:50 *419:57 0.000132574
103 *352:34 *419:136 5.92739e-05
104 *355:10 *419:136 4.84159e-05
105 *370:64 *3012:C 1.01912e-05
106 *370:82 *419:144 3.5703e-05
107 *370:119 *419:144 4.22514e-05
108 *371:16 *2971:B 0
109 *376:14 *419:158 0.00051586
110 *376:44 *2990:B 0.000600942
111 *376:44 *3000:B 1.92755e-05
112 *376:44 *419:158 4.27322e-05
113 *380:38 *3006:B 0.000461094
114 *384:43 *3006:B 0.000247085
115 *384:43 *419:61 9.79134e-05
116 *395:8 *2990:B 5.52302e-05
117 *395:8 *419:158 0.000475831
118 *403:28 *419:144 0.000149419
119 *403:49 *419:144 0.000258463
120 *411:10 *3012:C 2.06178e-05
121 *415:27 *419:136 1.94879e-05
*RES
1 *2970:Y *419:8 14.7464 
2 *419:8 *419:14 22.3393 
3 *419:14 *419:16 2.85714 
4 *419:16 *2978:B 20.1393 
5 *419:16 *419:57 48.8393 
6 *419:57 *419:61 7.05357 
7 *419:61 *2995:B 15.7286 
8 *419:61 *3006:B 38.0857 
9 *419:14 *2983:B 14.7464 
10 *419:8 *419:136 40.1502 
11 *419:136 *419:144 13.8531 
12 *419:144 *419:158 25.1071 
13 *419:158 *2990:B 35.675 
14 *419:158 *3000:B 9.88036 
15 *419:144 *2971:B 10.2643 
16 *419:136 *3012:C 17.4868 
*END

*D_NET *420 0.000648416
*CONN
*I *2972:A I *D sky130_fd_sc_hd__buf_2
*I *2971:X O *D sky130_fd_sc_hd__or2_1
*CAP
1 *2972:A 0.00016882
2 *2971:X 0.00016882
3 *2898:C *2972:A 0.000141523
4 *194:8 *2972:A 4.56326e-05
5 *212:14 *2972:A 1.25579e-05
6 *218:108 *2972:A 0.000111063
*RES
1 *2971:X *2972:A 30.9036 
*END

*D_NET *421 0.0157997
*CONN
*I *3052:B I *D sky130_fd_sc_hd__or2_1
*I *3042:B I *D sky130_fd_sc_hd__or2_1
*I *3047:B I *D sky130_fd_sc_hd__or2_1
*I *3037:B I *D sky130_fd_sc_hd__nor2_1
*I *3027:B I *D sky130_fd_sc_hd__nor2_1
*I *3032:B I *D sky130_fd_sc_hd__or2_1
*I *3022:B I *D sky130_fd_sc_hd__nor2_1
*I *2973:B I *D sky130_fd_sc_hd__nor2_1
*I *3017:B I *D sky130_fd_sc_hd__nor2_1
*I *2972:X O *D sky130_fd_sc_hd__buf_2
*CAP
1 *3052:B 4.96174e-05
2 *3042:B 0
3 *3047:B 0
4 *3037:B 0.000102732
5 *3027:B 2.22847e-05
6 *3032:B 0
7 *3022:B 0.000151171
8 *2973:B 0.000305309
9 *3017:B 0.000201895
10 *2972:X 0.000563904
11 *421:95 7.95713e-05
12 *421:32 0.00120686
13 *421:26 0.000983986
14 *421:22 0.000538096
15 *421:20 0.000773984
16 *421:18 0.00125487
17 *421:16 0.000857679
18 *421:12 0.000646157
19 *2973:B *2707:A1 0.000784606
20 *2973:B *2974:S 0.000186765
21 *2973:B *2975:A 2.28499e-05
22 *2973:B *603:31 0.000227532
23 *2973:B *603:39 1.39841e-05
24 *3017:B *2707:A1 0
25 *3022:B *3033:A1 2.27416e-05
26 *3022:B *430:95 1.18064e-05
27 *3022:B *459:10 0.000128154
28 *421:12 *798:21 2.16719e-05
29 *421:12 *799:45 3.84478e-05
30 *421:12 *801:14 8.9163e-05
31 *421:16 *465:12 5.52302e-05
32 *421:18 *465:12 5.52238e-05
33 *421:18 *468:12 0.000276211
34 *421:20 *456:10 5.65955e-05
35 *421:22 *456:10 5.65955e-05
36 *421:32 *2775:B2 2.65075e-05
37 *421:32 *2975:A 3.36409e-05
38 *421:32 *2993:A0 0.000270243
39 *421:32 *2994:A 0.000320031
40 *421:32 *424:22 0.000114306
41 *421:32 *430:95 0.000400405
42 *421:32 *603:31 0
43 *421:32 *881:10 9.24395e-05
44 *2710:A_N *421:18 0.00010096
45 *2710:C *421:18 2.58706e-05
46 *2710:D *421:18 0.00010096
47 *2767:C1 *3037:B 5.52302e-05
48 *2974:A1 *2973:B 4.34298e-05
49 *3022:A *3022:B 0
50 *3022:A *421:32 0
51 *3027:A *421:20 0.000403761
52 *3032:A *421:26 0.000137983
53 *3032:A *421:32 0.000184936
54 *3037:A *3037:B 0.000148196
55 *3047:A *3052:B 0.000217141
56 *3047:A *421:12 0
57 *3047:A *421:16 3.8274e-05
58 *3047:A *421:18 5.33334e-05
59 *3047:A *421:95 0.000142856
60 *3472:A *421:18 5.52238e-05
61 *172:14 *421:12 0
62 *181:32 *3017:B 0.000110173
63 *181:32 *421:32 0.000651279
64 *182:31 *3037:B 5.52302e-05
65 *183:22 *3037:B 0
66 *185:14 *421:18 0.000201337
67 *185:14 *421:20 2.22999e-05
68 *185:27 *421:12 2.84494e-05
69 *185:27 *421:18 0.000198627
70 *212:14 *421:12 0.000831015
71 *218:12 *421:12 0.000481171
72 *321:22 *421:12 9.80173e-05
73 *345:16 *3017:B 3.4355e-05
74 *345:30 *3017:B 1.00887e-05
75 *399:34 *421:32 0.000105523
76 *407:93 *3052:B 0.000154027
77 *407:93 *421:16 1.04232e-05
78 *407:93 *421:95 5.62995e-05
*RES
1 *2972:X *421:12 33.3357 
2 *421:12 *421:16 1.375 
3 *421:16 *421:18 16.5536 
4 *421:18 *421:20 6.69643 
5 *421:20 *421:22 5.875 
6 *421:22 *421:26 6.67857 
7 *421:26 *421:32 20.5179 
8 *421:32 *3017:B 17.1929 
9 *421:32 *2973:B 22.9607 
10 *421:26 *3022:B 17.1036 
11 *421:22 *3032:B 9.3 
12 *421:20 *3027:B 9.72857 
13 *421:18 *3037:B 20.7821 
14 *421:16 *3047:B 9.3 
15 *421:12 *421:95 1.35714 
16 *421:95 *3042:B 9.3 
17 *421:95 *3052:B 11.8893 
*END

*D_NET *422 0.00338509
*CONN
*I *2976:S I *D sky130_fd_sc_hd__mux2_1
*I *2974:S I *D sky130_fd_sc_hd__mux2_1
*I *2973:Y O *D sky130_fd_sc_hd__nor2_1
*CAP
1 *2976:S 0.000289184
2 *2974:S 0.000142171
3 *2973:Y 0.000141274
4 *422:8 0.000572629
5 *2974:S *2707:A1 6.83393e-05
6 *2976:S *2707:A1 0.000121411
7 *2976:S *887:10 0.000135912
8 *422:8 *2707:A1 0.000175892
9 *2973:B *2974:S 0.000186765
10 *2974:A1 *2974:S 0.000310236
11 *3027:A *2976:S 5.08854e-05
12 *197:18 *2976:S 0.000301041
13 *321:28 *2974:S 0.000136951
14 *374:141 *2974:S 7.36162e-05
15 *374:141 *2976:S 0.000657111
16 *395:26 *2974:S 2.16719e-05
*RES
1 *2973:Y *422:8 15.5679 
2 *422:8 *2974:S 18.6571 
3 *422:8 *2976:S 22.7286 
*END

*D_NET *423 0.00112363
*CONN
*I *2975:A I *D sky130_fd_sc_hd__clkbuf_1
*I *2974:X O *D sky130_fd_sc_hd__mux2_1
*CAP
1 *2975:A 0.000341397
2 *2974:X 0.000341397
3 *2975:A *2707:A1 0.00030899
4 *2975:A *424:22 3.47641e-06
5 *2975:A *603:31 1.83318e-05
6 *2973:B *2975:A 2.28499e-05
7 *2990:B *2975:A 5.35475e-05
8 *421:32 *2975:A 3.36409e-05
*RES
1 *2974:X *2975:A 32.6536 
*END

*D_NET *424 0.0033575
*CONN
*I *2977:A I *D sky130_fd_sc_hd__clkbuf_1
*I *2976:X O *D sky130_fd_sc_hd__mux2_1
*CAP
1 *2977:A 0
2 *2976:X 0.000920154
3 *424:22 0.000920154
4 *424:22 *2775:A1 4.68841e-05
5 *424:22 *2775:B2 0
6 *424:22 *3176:CLK 2.59355e-05
7 *424:22 *603:21 0.000142044
8 *424:22 *603:25 5.37664e-05
9 *2775:B1 *424:22 1.56e-05
10 *2777:A2 *424:22 9.25014e-06
11 *2975:A *424:22 3.47641e-06
12 *2990:B *424:22 0.000118133
13 *3022:A *424:22 0.000650823
14 *3186:D *424:22 8.27814e-05
15 *181:32 *424:22 9.25014e-06
16 *207:39 *424:22 0.000163503
17 *207:86 *424:22 2.52671e-05
18 *365:64 *424:22 2.87555e-06
19 *376:44 *424:22 5.33005e-05
20 *421:32 *424:22 0.000114306
*RES
1 *2976:X *424:22 43.2286 
2 *424:22 *2977:A 9.3 
*END

*D_NET *425 0.00178131
*CONN
*I *2979:S I *D sky130_fd_sc_hd__mux2_1
*I *2981:S I *D sky130_fd_sc_hd__mux2_1
*I *2978:X O *D sky130_fd_sc_hd__or2_1
*CAP
1 *2979:S 0
2 *2981:S 0.000288469
3 *2978:X 0.000247406
4 *425:6 0.000535875
5 *425:6 *2979:A1 3.46801e-05
6 *2979:A0 *425:6 5.50052e-05
7 *323:10 *2981:S 0.000113056
8 *323:54 *2981:S 0.000412098
9 *351:150 *2981:S 9.4726e-05
*RES
1 *2978:X *425:6 13.5321 
2 *425:6 *2981:S 26.0143 
3 *425:6 *2979:S 9.3 
*END

*D_NET *426 0.000218458
*CONN
*I *2980:A I *D sky130_fd_sc_hd__clkbuf_1
*I *2979:X O *D sky130_fd_sc_hd__mux2_1
*CAP
1 *2980:A 7.04987e-05
2 *2979:X 7.04987e-05
3 *2980:A *2630:A1 3.75959e-05
4 *351:150 *2980:A 3.98645e-05
*RES
1 *2979:X *2980:A 29.2429 
*END

*D_NET *427 0.000940335
*CONN
*I *2982:A I *D sky130_fd_sc_hd__clkbuf_1
*I *2981:X O *D sky130_fd_sc_hd__mux2_1
*CAP
1 *2982:A 0.000345023
2 *2981:X 0.000345023
3 *2982:A *2981:A1 0
4 *2982:A *619:62 0.000126958
5 *359:70 *2982:A 0.000123331
*RES
1 *2981:X *2982:A 33.0643 
*END

*D_NET *428 0.00196578
*CONN
*I *2987:S I *D sky130_fd_sc_hd__mux2_1
*I *2984:S I *D sky130_fd_sc_hd__mux2_1
*I *2983:X O *D sky130_fd_sc_hd__or2_1
*CAP
1 *2987:S 0.000298712
2 *2984:S 0.000185186
3 *2983:X 0
4 *428:6 0.000483898
5 *2984:S *2754:A 3.18676e-05
6 *2984:S *802:12 1.02504e-05
7 *2987:S *2699:A_N 0.000129868
8 *2987:S *2699:B 0.000198705
9 *2987:S *2987:A0 5.62995e-05
10 *2987:S *774:92 0.000218777
11 *2987:S *802:12 0.00010326
12 *173:12 *2984:S 4.46186e-06
13 *173:12 *2987:S 4.21584e-05
14 *323:54 *2984:S 8.86448e-05
15 *323:54 *2987:S 0.000113691
16 *419:16 *2984:S 0
*RES
1 *2983:X *428:6 13.8 
2 *428:6 *2984:S 17.4964 
3 *428:6 *2987:S 22.3714 
*END

*D_NET *429 0.000769991
*CONN
*I *2985:A I *D sky130_fd_sc_hd__clkbuf_1
*I *2984:X O *D sky130_fd_sc_hd__mux2_1
*CAP
1 *2985:A 0.000212386
2 *2984:X 0.000212386
3 *2985:A *2755:A1 0.000266284
4 *323:54 *2985:A 7.89362e-05
*RES
1 *2984:X *2985:A 32.3679 
*END

*D_NET *430 0.0419416
*CONN
*I *3073:A0 I *D sky130_fd_sc_hd__mux2_1
*I *3078:A0 I *D sky130_fd_sc_hd__mux2_1
*I *3050:A0 I *D sky130_fd_sc_hd__mux2_1
*I *3045:A0 I *D sky130_fd_sc_hd__mux2_1
*I *3055:A0 I *D sky130_fd_sc_hd__mux2_1
*I *3015:A0 I *D sky130_fd_sc_hd__mux2_1
*I *3035:A0 I *D sky130_fd_sc_hd__mux2_1
*I *2993:A0 I *D sky130_fd_sc_hd__mux2_1
*I *2987:A0 I *D sky130_fd_sc_hd__mux2_1
*I *3068:A0 I *D sky130_fd_sc_hd__mux2_1
*I *2986:X O *D sky130_fd_sc_hd__clkbuf_4
*CAP
1 *3073:A0 0.000333921
2 *3078:A0 0.000183948
3 *3050:A0 0.000190594
4 *3045:A0 0
5 *3055:A0 0.000429946
6 *3015:A0 0.000828681
7 *3035:A0 0
8 *2993:A0 0.000149777
9 *2987:A0 0.000145524
10 *3068:A0 0.000312489
11 *2986:X 4.70928e-05
12 *430:184 0.000592823
13 *430:155 0.000913675
14 *430:141 0.000793997
15 *430:116 0.00182002
16 *430:95 0.00122182
17 *430:74 0.00120087
18 *430:64 0.00255307
19 *430:30 0.0032479
20 *430:20 0.00443602
21 *430:8 0.0034704
22 *2987:A0 *2785:A 4.18895e-05
23 *2993:A0 *2775:B2 0.000178119
24 *2993:A0 *3443:A 7.29667e-05
25 *3015:A0 *3016:A 0.0001597
26 *3015:A0 *432:73 0
27 *3015:A0 *759:12 7.13188e-05
28 *3015:A0 *857:12 3.14003e-05
29 *3050:A0 *3048:S 0.000181817
30 *3050:A0 *3050:S 9.54617e-06
31 *3050:A0 *432:115 4.51148e-05
32 *3055:A0 *3043:S 0.000353079
33 *3055:A0 *3045:A1 6.78942e-05
34 *3068:A0 *2785:A 0.000153054
35 *3068:A0 *3068:A1 2.59355e-05
36 *3068:A0 *3238:CLK 2.97074e-05
37 *3068:A0 *3380:A 0.000241665
38 *3073:A0 *3071:A1 5.52302e-05
39 *3073:A0 *3073:A1 4.46186e-06
40 *3073:A0 *3078:A1 7.83659e-05
41 *3073:A0 *483:18 0
42 *3078:A0 *442:108 0.000269422
43 *430:8 *3413:A 2.59355e-05
44 *430:20 *3093:A1 0.000157569
45 *430:20 *442:16 5.52238e-05
46 *430:20 *442:154 0.00147683
47 *430:20 *726:38 7.83587e-05
48 *430:30 *2785:A 0.000268403
49 *430:30 *3232:CLK 0.000175682
50 *430:30 *3233:CLK 0.000249744
51 *430:30 *607:46 1.21258e-05
52 *430:64 *2773:A 8.73872e-05
53 *430:64 *3117:B 0
54 *430:64 *3192:CLK 9.90431e-05
55 *430:64 *3307:A 0
56 *430:64 *3413:A 0
57 *430:64 *445:21 0
58 *430:64 *445:70 6.35511e-06
59 *430:64 *474:49 0.000103428
60 *430:64 *474:69 9.04343e-05
61 *430:64 *476:98 0
62 *430:64 *483:18 0.000202597
63 *430:64 *590:222 0.000112421
64 *430:64 *602:10 0
65 *430:64 *726:26 0.000432806
66 *430:64 *726:28 0.00019867
67 *430:64 *726:38 0.000622993
68 *430:74 *3183:CLK 2.92863e-05
69 *430:95 *3035:A1 5.50052e-05
70 *430:95 *3035:S 6.05161e-06
71 *430:95 *3443:A 0.000177948
72 *430:95 *432:133 4.31385e-05
73 *430:95 *442:108 0.000410425
74 *430:95 *459:10 0.000318196
75 *430:116 *2696:A1 5.33005e-05
76 *430:116 *2696:B2 0.000171274
77 *430:116 *3035:A1 0.000350441
78 *430:116 *3040:A0 0.000141941
79 *430:116 *3415:A 3.49456e-06
80 *430:116 *3461:A 5.89247e-05
81 *430:116 *432:133 0.00102704
82 *430:116 *861:14 0.000404439
83 *430:141 *432:115 4.84159e-05
84 *430:141 *432:133 2.59355e-05
85 *430:141 *857:12 0.00012249
86 *430:155 *2766:B2 0
87 *430:155 *3048:S 0.000269734
88 *430:155 *3050:A1 7.66774e-05
89 *430:155 *3050:S 9.86486e-06
90 *430:155 *465:12 3.67508e-05
91 *430:155 *595:97 0.000236509
92 *430:184 *483:18 2.04817e-05
93 *2622:A *430:64 0.000229848
94 *2696:A2 *3015:A0 0.000194257
95 *2696:B1 *430:116 4.50022e-05
96 *2743:C1 *430:64 0.00015234
97 *2765:B1 *3015:A0 0.000101908
98 *2765:B1 *430:141 0.000114998
99 *2766:C1 *3055:A0 0.000262834
100 *2781:C *3068:A0 7.07702e-05
101 *2785:B *430:30 1.81774e-05
102 *2785:C *430:30 9.50968e-06
103 *2788:B *430:30 0.000646482
104 *2791:A *430:30 0.000261794
105 *2791:C *430:30 0.000401295
106 *2792:A2 *430:64 0
107 *2792:A2 *430:74 0.000123673
108 *2800:B1 *430:20 5.65955e-05
109 *2800:D1 *430:20 5.01883e-05
110 *2987:S *2987:A0 5.62995e-05
111 *3022:B *430:95 1.18064e-05
112 *3080:A *430:64 0.000177183
113 *3183:D *430:74 1.76204e-05
114 *3199:D *430:116 0.000257504
115 *3295:A *430:20 0.000112662
116 *180:10 *3015:A0 6.19181e-05
117 *180:21 *3015:A0 9.77024e-05
118 *180:32 *3015:A0 3.57844e-05
119 *181:134 *430:95 0
120 *182:10 *3015:A0 0.000310384
121 *182:31 *3015:A0 5.84171e-05
122 *183:56 *3015:A0 0
123 *187:16 *3015:A0 0.000667685
124 *191:10 *3068:A0 0.000187966
125 *191:35 *3068:A0 0
126 *202:8 *3015:A0 0.000583356
127 *211:10 *3068:A0 0.000198698
128 *215:20 *3015:A0 0.00018372
129 *215:38 *2993:A0 9.71197e-05
130 *215:38 *430:74 0.000114902
131 *218:80 *430:64 5.44074e-05
132 *282:22 *430:20 0.000154075
133 *282:22 *430:30 0.00111118
134 *285:12 *430:64 0
135 *285:22 *430:64 0
136 *321:22 *3015:A0 3.38861e-06
137 *340:88 *3015:A0 5.52238e-05
138 *345:30 *430:64 0
139 *376:14 *3015:A0 5.26224e-05
140 *391:16 *3015:A0 0.000181796
141 *407:20 *430:64 1.19468e-05
142 *419:14 *3068:A0 0.000178819
143 *421:32 *2993:A0 0.000270243
144 *421:32 *430:95 0.000400405
*RES
1 *2986:X *430:8 14.3357 
2 *430:8 *430:20 29.2321 
3 *430:20 *430:30 40.9643 
4 *430:30 *3068:A0 28.0679 
5 *430:30 *2987:A0 12.0321 
6 *430:8 *430:64 46.6429 
7 *430:64 *430:74 20.7679 
8 *430:74 *2993:A0 18.2107 
9 *430:74 *430:95 16.6607 
10 *430:95 *3035:A0 9.3 
11 *430:95 *430:116 27.4286 
12 *430:116 *3015:A0 48.1214 
13 *430:116 *430:141 7.5 
14 *430:141 *430:155 17.6964 
15 *430:155 *3055:A0 18.2821 
16 *430:155 *3045:A0 9.3 
17 *430:141 *3050:A0 13.1571 
18 *430:64 *430:184 1.33929 
19 *430:184 *3078:A0 16.3893 
20 *430:184 *3073:A0 19.9786 
*END

*D_NET *431 0.000835122
*CONN
*I *2988:A I *D sky130_fd_sc_hd__clkbuf_1
*I *2987:X O *D sky130_fd_sc_hd__mux2_1
*CAP
1 *2988:A 0.000339618
2 *2987:X 0.000339618
3 *2988:A *3181:CLK 0
4 *3181:D *2988:A 4.15914e-05
5 *323:54 *2988:A 0.000114296
*RES
1 *2987:X *2988:A 33.4393 
*END

*D_NET *432 0.0359879
*CONN
*I *3048:A0 I *D sky130_fd_sc_hd__mux2_1
*I *3033:A0 I *D sky130_fd_sc_hd__mux2_1
*I *3071:A0 I *D sky130_fd_sc_hd__mux2_1
*I *2991:A0 I *D sky130_fd_sc_hd__mux2_1
*I *3076:A0 I *D sky130_fd_sc_hd__mux2_1
*I *3053:A0 I *D sky130_fd_sc_hd__mux2_1
*I *3043:A0 I *D sky130_fd_sc_hd__mux2_1
*I *3066:A0 I *D sky130_fd_sc_hd__mux2_1
*I *3013:A0 I *D sky130_fd_sc_hd__mux2_1
*I *3096:A0 I *D sky130_fd_sc_hd__mux2_1
*I *2989:X O *D sky130_fd_sc_hd__buf_2
*CAP
1 *3048:A0 0
2 *3033:A0 3.64069e-05
3 *3071:A0 0.000267934
4 *2991:A0 0
5 *3076:A0 0.000422367
6 *3053:A0 0.000788617
7 *3043:A0 0.000289809
8 *3066:A0 0.00162372
9 *3013:A0 0
10 *3096:A0 0.000435536
11 *2989:X 0.000818575
12 *432:143 0.000830245
13 *432:139 0.000930277
14 *432:133 0.00172545
15 *432:115 0.00165282
16 *432:81 0.00145297
17 *432:73 0.00129221
18 *432:46 0.002654
19 *432:29 0.000558206
20 *432:14 0.00148146
21 *3043:A0 *2697:B2 2.26432e-05
22 *3043:A0 *3043:S 5.52302e-05
23 *3043:A0 *3045:A1 5.52302e-05
24 *3043:A0 *595:82 0.000194664
25 *3053:A0 *2766:A1 3.10499e-05
26 *3053:A0 *3053:A1 1.93007e-05
27 *3053:A0 *3053:S 4.5901e-05
28 *3053:A0 *3056:A 5.35386e-05
29 *3053:A0 *3433:A 6.44139e-06
30 *3053:A0 *471:10 5.5902e-05
31 *3053:A0 *595:82 7.18088e-05
32 *3066:A0 *3276:CLK 1.83776e-05
33 *3066:A0 *480:14 5.33005e-05
34 *3066:A0 *590:208 0.000532429
35 *3066:A0 *594:83 0.000232914
36 *3071:A0 *3071:A1 0.000662718
37 *3071:A0 *3073:S 0.00040279
38 *3071:A0 *3324:A 0.000335916
39 *3076:A0 *2743:A1 4.87953e-05
40 *3076:A0 *2992:A 9.24825e-05
41 *3096:A0 *2771:A 5.50052e-05
42 *3096:A0 *3096:S 9.58689e-05
43 *3096:A0 *3466:A 5.50052e-05
44 *432:14 *2550:B 0.000279461
45 *432:14 *3133:A0 4.96352e-05
46 *432:14 *3133:A1 0.000182811
47 *432:14 *3133:S 4.13372e-05
48 *432:14 *3466:A 0.000251304
49 *432:14 *476:125 0.000196329
50 *432:14 *715:30 2.12647e-05
51 *432:14 *759:22 3.95221e-05
52 *432:29 *3014:A 0
53 *432:29 *3466:A 0.000192666
54 *432:29 *678:12 0.000265296
55 *432:46 *678:12 0.000308986
56 *432:46 *759:12 0.000204941
57 *432:73 *3051:A 0.000170078
58 *432:73 *468:12 0
59 *432:73 *678:12 0.00046795
60 *432:73 *737:24 0.000279643
61 *432:73 *759:12 0.000717113
62 *432:81 *2697:A1 3.01245e-06
63 *432:81 *595:82 1.29901e-05
64 *432:115 *3048:A1 2.09722e-05
65 *432:115 *3051:A 0.000169233
66 *432:133 *3033:S 9.84673e-05
67 *432:133 *3035:S 4.08637e-05
68 *432:133 *862:8 0.000182799
69 *432:139 *3034:A 2.59355e-05
70 *432:139 *445:89 0.000174629
71 *432:143 *2992:A 0
72 *432:143 *3183:CLK 7.6021e-05
73 *432:143 *445:89 0.000891511
74 *2690:B *432:73 0.000146474
75 *2696:A2 *432:73 0
76 *2696:B1 *432:133 6.05161e-06
77 *2697:C1 *432:81 0.000582603
78 *2698:C1 *432:81 0.000436712
79 *2698:C1 *432:133 0.000962634
80 *2709:A3 *432:29 0.000100248
81 *2743:B1 *3076:A0 0.000141985
82 *2765:B1 *432:133 0.000157815
83 *2766:B1 *432:81 9.58632e-05
84 *2766:C1 *3043:A0 5.58331e-05
85 *2772:B1 *3096:A0 5.23735e-05
86 *2928:A *432:46 0.000210329
87 *2941:B *3066:A0 0
88 *3015:A0 *432:73 0
89 *3050:A0 *432:115 4.51148e-05
90 *3070:A *3066:A0 0.00143559
91 *3132:A *432:14 0.000141935
92 *3183:D *432:143 0.000103267
93 *3199:D *432:133 0.00010218
94 *3207:D *3043:A0 7.09043e-05
95 *3207:D *3053:A0 5.66971e-05
96 *176:64 *3096:A0 6.25726e-05
97 *182:10 *432:73 1.78353e-05
98 *182:31 *432:73 4.03318e-05
99 *187:16 *432:133 9.15842e-06
100 *194:26 *3096:A0 0.000226354
101 *194:26 *432:14 2.6269e-05
102 *194:41 *3096:A0 1.95435e-05
103 *208:139 *3076:A0 0.000518946
104 *215:68 *3066:A0 0.00116775
105 *218:12 *3066:A0 6.34676e-05
106 *218:24 *3066:A0 0.000375803
107 *317:66 *432:46 9.96264e-05
108 *318:50 *3066:A0 0.000124415
109 *319:88 *3066:A0 8.38323e-05
110 *336:25 *432:46 0.000136676
111 *345:16 *3066:A0 0.000113061
112 *361:30 *3066:A0 0.000410309
113 *370:54 *432:29 0
114 *391:16 *432:46 6.46107e-05
115 *391:16 *432:73 0.000488401
116 *399:16 *3066:A0 0
117 *407:14 *3066:A0 5.14998e-05
118 *419:144 *432:46 1.56372e-05
119 *430:95 *432:133 4.31385e-05
120 *430:116 *432:133 0.00102704
121 *430:141 *432:115 4.84159e-05
122 *430:141 *432:133 2.59355e-05
*RES
1 *2989:X *432:14 22.8536 
2 *432:14 *3096:A0 16.4429 
3 *432:14 *432:29 10.3929 
4 *432:29 *3013:A0 13.8 
5 *432:29 *432:46 17.1339 
6 *432:46 *3066:A0 40.1584 
7 *432:46 *432:73 21.2768 
8 *432:73 *432:81 12.9821 
9 *432:81 *3043:A0 24.7286 
10 *432:81 *3053:A0 29.3179 
11 *432:73 *432:115 8.51786 
12 *432:115 *432:133 37.25 
13 *432:133 *432:139 8.92857 
14 *432:139 *432:143 15.8571 
15 *432:143 *3076:A0 19.6393 
16 *432:143 *2991:A0 9.3 
17 *432:139 *3071:A0 23.7821 
18 *432:133 *3033:A0 10.0321 
19 *432:115 *3048:A0 9.3 
*END

*D_NET *433 0.00255189
*CONN
*I *2993:S I *D sky130_fd_sc_hd__mux2_1
*I *2991:S I *D sky130_fd_sc_hd__mux2_1
*I *2990:X O *D sky130_fd_sc_hd__or2_1
*CAP
1 *2993:S 0.000362188
2 *2991:S 0
3 *2990:X 0.000196975
4 *433:10 0.000559162
5 *2993:S *2993:A1 5.52302e-05
6 *2993:S *445:89 0.000122893
7 *2993:S *604:14 0.000209526
8 *433:10 *2717:B2 0.00015234
9 *433:10 *445:89 2.1892e-05
10 *3022:A *2993:S 0.000245349
11 *3022:A *433:10 5.7616e-05
12 *3032:A *433:10 2.37761e-05
13 *3075:A *433:10 9.41642e-05
14 *197:108 *2993:S 9.41642e-05
15 *208:118 *433:10 0.000221525
16 *208:139 *433:10 1.17968e-05
17 *209:18 *433:10 0.000123288
*RES
1 *2990:X *433:10 19.425 
2 *433:10 *2991:S 13.8 
3 *433:10 *2993:S 22.0321 
*END

*D_NET *434 0.000848449
*CONN
*I *2992:A I *D sky130_fd_sc_hd__clkbuf_1
*I *2991:X O *D sky130_fd_sc_hd__mux2_1
*CAP
1 *2992:A 0.000298403
2 *2991:X 0.000298403
3 *2992:A *2743:A1 6.74911e-05
4 *3076:A0 *2992:A 9.24825e-05
5 *3182:D *2992:A 2.89016e-05
6 *197:108 *2992:A 6.27679e-05
7 *215:38 *2992:A 0
8 *432:143 *2992:A 0
*RES
1 *2991:X *2992:A 32.7786 
*END

*D_NET *435 0.00127469
*CONN
*I *2994:A I *D sky130_fd_sc_hd__clkbuf_1
*I *2993:X O *D sky130_fd_sc_hd__mux2_1
*CAP
1 *2994:A 0.000236912
2 *2993:X 0.000236912
3 *2994:A *442:108 0.000310298
4 *3032:A *2994:A 0.000170532
5 *421:32 *2994:A 0.000320031
*RES
1 *2993:X *2994:A 34.6714 
*END

*D_NET *436 0.00424262
*CONN
*I *2996:S I *D sky130_fd_sc_hd__mux2_1
*I *2998:S I *D sky130_fd_sc_hd__mux2_1
*I *2995:Y O *D sky130_fd_sc_hd__nor2_1
*CAP
1 *2996:S 0.00026511
2 *2998:S 7.76338e-05
3 *2995:Y 0.00110543
4 *436:14 0.00144818
5 *2996:S *3408:A 0.000346482
6 *2996:S *619:39 0.000465272
7 *2998:S *2752:A1 0
8 *2998:S *527:12 3.92854e-05
9 *436:14 *2784:A 1.58163e-05
10 *436:14 *2784:C 1.79251e-05
11 *2784:B *436:14 5.52238e-05
12 *2995:B *436:14 3.18676e-05
13 *2996:A1 *2996:S 9.6184e-05
14 *2996:A1 *436:14 0.000153453
15 *3185:D *436:14 1.93923e-05
16 *3255:D *436:14 2.70002e-05
17 *187:96 *2998:S 7.83659e-05
*RES
1 *2995:Y *436:14 23.675 
2 *436:14 *2998:S 20.0679 
3 *436:14 *2996:S 16.0321 
*END

*D_NET *437 0.00277076
*CONN
*I *2997:A I *D sky130_fd_sc_hd__clkbuf_1
*I *2996:X O *D sky130_fd_sc_hd__mux2_1
*CAP
1 *2997:A 0.000667283
2 *2996:X 0.000667283
3 *2997:A *759:22 5.73256e-05
4 *2790:A2 *2997:A 0
5 *2996:A1 *2997:A 0.000390648
6 *3184:D *2997:A 3.08664e-05
7 *187:96 *2997:A 0.000440924
8 *245:14 *2997:A 0.000326963
9 *316:46 *2997:A 0.000189471
*RES
1 *2996:X *2997:A 41.4571 
*END

*D_NET *438 0.000492236
*CONN
*I *2999:A I *D sky130_fd_sc_hd__clkbuf_1
*I *2998:X O *D sky130_fd_sc_hd__mux2_1
*CAP
1 *2999:A 7.05943e-05
2 *2998:X 7.05943e-05
3 *2999:A *759:22 1.69115e-05
4 *2761:C *2999:A 5.46299e-05
5 *2998:A1 *2999:A 0.000139202
6 *3185:D *2999:A 1.02504e-05
7 *212:42 *2999:A 0.000130054
8 *370:54 *2999:A 0
*RES
1 *2998:X *2999:A 29.9929 
*END

*D_NET *439 0.00424872
*CONN
*I *3003:S I *D sky130_fd_sc_hd__mux2_1
*I *3001:S I *D sky130_fd_sc_hd__mux2_1
*I *3000:Y O *D sky130_fd_sc_hd__nor2_1
*CAP
1 *3003:S 0.000633264
2 *3001:S 2.04426e-05
3 *3000:Y 0.000308706
4 *439:10 0.000962412
5 *3001:S *3001:A0 2.59355e-05
6 *3001:S *3360:A 5.33005e-05
7 *3003:S *3002:A 4.89638e-05
8 *3003:S *3004:A 0.000314037
9 *3003:S *3319:A 0.000444213
10 *2689:A_N *3003:S 0.000170171
11 *2689:D *3003:S 1.31516e-05
12 *2693:B *3003:S 4.78779e-05
13 *2715:B_N *3003:S 4.58194e-05
14 *179:58 *3003:S 8.43535e-06
15 *180:63 *3003:S 7.252e-05
16 *207:12 *3003:S 0.000512706
17 *207:12 *439:10 0.00018703
18 *208:10 *3003:S 0
19 *208:10 *439:10 0
20 *365:64 *439:10 0.000193708
21 *376:14 *439:10 0.000100261
22 *376:44 *439:10 4.43256e-05
23 *391:37 *439:10 4.14371e-05
*RES
1 *3000:Y *439:10 19.9429 
2 *439:10 *3001:S 14.3357 
3 *439:10 *3003:S 29.3714 
*END

*D_NET *440 0.00253722
*CONN
*I *3002:A I *D sky130_fd_sc_hd__clkbuf_1
*I *3001:X O *D sky130_fd_sc_hd__mux2_1
*CAP
1 *3002:A 0.000866441
2 *3001:X 0.000866441
3 *3002:A *2976:A0 8.22018e-05
4 *3002:A *3003:A0 0.000189451
5 *3002:A *3004:A 0
6 *3002:A *3319:A 0.000270257
7 *3002:A *3360:A 0.00014285
8 *3003:S *3002:A 4.89638e-05
9 *3187:D *3002:A 3.0285e-05
10 *190:18 *3002:A 0
11 *197:18 *3002:A 0
12 *374:141 *3002:A 4.03318e-05
*RES
1 *3001:X *3002:A 43.975 
*END

*D_NET *441 0.00183931
*CONN
*I *3004:A I *D sky130_fd_sc_hd__clkbuf_1
*I *3003:X O *D sky130_fd_sc_hd__mux2_1
*CAP
1 *3004:A 0.000484206
2 *3003:X 0.000484206
3 *3002:A *3004:A 0
4 *3003:S *3004:A 0.000314037
5 *3022:A *3004:A 3.63775e-05
6 *3027:A *3004:A 8.98801e-05
7 *3187:D *3004:A 0.000234136
8 *197:8 *3004:A 0.000122231
9 *197:108 *3004:A 5.49489e-05
10 *391:16 *3004:A 1.92905e-05
*RES
1 *3003:X *3004:A 36.975 
*END

*D_NET *442 0.0261352
*CONN
*I *3091:A1 I *D sky130_fd_sc_hd__mux2_1
*I *3007:A1 I *D sky130_fd_sc_hd__mux2_1
*I *3081:A1 I *D sky130_fd_sc_hd__mux2_1
*I *3038:A1 I *D sky130_fd_sc_hd__mux2_1
*I *3028:A1 I *D sky130_fd_sc_hd__mux2_1
*I *3023:A1 I *D sky130_fd_sc_hd__mux2_1
*I *3061:A1 I *D sky130_fd_sc_hd__mux2_1
*I *3086:A1 I *D sky130_fd_sc_hd__mux2_1
*I *3018:A1 I *D sky130_fd_sc_hd__mux2_1
*I *3102:A1 I *D sky130_fd_sc_hd__mux2_1
*I *3005:X O *D sky130_fd_sc_hd__clkbuf_4
*CAP
1 *3091:A1 0.000613553
2 *3007:A1 0.000186377
3 *3081:A1 0
4 *3038:A1 0.000584117
5 *3028:A1 5.10317e-05
6 *3023:A1 0
7 *3061:A1 6.59684e-05
8 *3086:A1 3.76649e-05
9 *3018:A1 0.000811947
10 *3102:A1 0.000398627
11 *3005:X 0
12 *442:154 0.00107787
13 *442:119 0.000994529
14 *442:108 0.00217815
15 *442:77 0.00224466
16 *442:64 0.000606624
17 *442:58 0.000577972
18 *442:37 0.00137767
19 *442:16 0.00143817
20 *442:4 0.00112068
21 *3007:A1 *3371:A 0.000174805
22 *3018:A1 *3019:A 0.000102146
23 *3018:A1 *3394:A 4.01528e-05
24 *3018:A1 *474:49 0.000198325
25 *3018:A1 *590:222 0.000483507
26 *3028:A1 *3028:S 0.000121254
27 *3028:A1 *3030:A0 0.000122477
28 *3038:A1 *3035:A1 3.67461e-05
29 *3038:A1 *3038:S 0.000351482
30 *3038:A1 *3039:A 9.75679e-05
31 *3038:A1 *3040:A1 7.61443e-05
32 *3038:A1 *3040:S 0.000219483
33 *3038:A1 *3336:A 5.10039e-05
34 *3061:A1 *3061:A0 9.90367e-05
35 *3086:A1 *3086:A0 5.33005e-05
36 *3086:A1 *3086:S 9.60875e-05
37 *3091:A1 *3091:S 5.52238e-05
38 *3091:A1 *3110:A 0.000227539
39 *3102:A1 *2776:A1 7.75818e-05
40 *3102:A1 *3060:B 7.95286e-05
41 *3102:A1 *3102:S 6.6953e-05
42 *3102:A1 *476:98 4.20116e-05
43 *442:16 *2776:A1 0
44 *442:16 *2776:B2 0.000172894
45 *442:16 *3104:A0 2.29112e-05
46 *442:16 *3389:A 0.000124773
47 *442:16 *445:124 0.000228558
48 *442:16 *500:10 0.000304014
49 *442:16 *828:16 0.000316031
50 *442:58 *3060:B 0
51 *442:58 *3081:S 7.73277e-05
52 *442:58 *3083:S 4.49451e-05
53 *442:58 *3307:A 0
54 *442:58 *602:10 0.000149419
55 *442:58 *602:86 0.000187019
56 *442:64 *3081:S 0.000140933
57 *442:64 *3082:A 4.16984e-05
58 *442:64 *3089:A 1.91418e-05
59 *442:64 *477:8 8.68569e-05
60 *442:64 *492:8 0.000167998
61 *442:64 *841:12 0.000181796
62 *442:77 *3061:S 7.4826e-05
63 *442:77 *3063:A0 0
64 *442:77 *3063:A1 0
65 *442:77 *3064:A 0
66 *442:77 *3087:A 0.00015234
67 *442:77 *3341:A 3.90513e-05
68 *442:77 *477:8 0.000237245
69 *442:108 *3023:A0 1.00887e-05
70 *442:108 *3061:A0 9.71197e-05
71 *442:108 *3078:A1 5.37583e-05
72 *442:108 *3078:S 0.000136958
73 *442:108 *3079:A 0.00011069
74 *442:108 *3420:A 7.02611e-05
75 *442:108 *3427:A 0.000126419
76 *442:108 *3443:A 5.52302e-05
77 *442:108 *445:106 5.51649e-05
78 *442:108 *852:10 3.22663e-05
79 *442:119 *3023:S 5.33005e-05
80 *442:119 *3030:A0 1.58163e-05
81 *442:119 *3031:A 0.000149606
82 *442:119 *3035:A1 5.04164e-05
83 *442:119 *445:106 0.000144871
84 *442:119 *863:10 9.41642e-05
85 *442:154 *3093:A1 0.000156851
86 *442:154 *445:124 0.00094123
87 *2692:B1 *442:108 1.47275e-05
88 *2748:A1 *3007:A1 0.000199698
89 *2768:B *3091:A1 6.05161e-06
90 *2994:A *442:108 0.000310298
91 *3078:A0 *442:108 0.000269422
92 *3101:A *3102:A1 0.000100074
93 *3215:D *442:108 1.12499e-05
94 *3218:D *442:64 0.000121573
95 *3218:D *442:77 0.00016384
96 *3295:A *442:154 0.000120342
97 *181:134 *442:108 0
98 *197:128 *442:77 0
99 *202:107 *442:16 0.000189495
100 *207:86 *3007:A1 4.89831e-05
101 *207:86 *3091:A1 4.71964e-05
102 *207:90 *3007:A1 2.46999e-05
103 *221:16 *3007:A1 2.58997e-05
104 *358:64 *442:16 3.18676e-05
105 *358:79 *442:16 4.87854e-05
106 *395:53 *3007:A1 4.99163e-05
107 *395:53 *3091:A1 4.66096e-05
108 *430:20 *442:16 5.52238e-05
109 *430:20 *442:154 0.00147683
110 *430:95 *442:108 0.000410425
*RES
1 *3005:X *442:4 9.3 
2 *442:4 *442:16 24.1071 
3 *442:16 *3102:A1 28.925 
4 *442:16 *442:37 3.46429 
5 *442:37 *3018:A1 28.05 
6 *442:37 *442:58 12.5179 
7 *442:58 *442:64 10.9821 
8 *442:64 *3086:A1 14.7464 
9 *442:64 *442:77 14.0357 
10 *442:77 *3061:A1 10.2464 
11 *442:77 *442:108 43.9643 
12 *442:108 *3023:A1 9.3 
13 *442:108 *442:119 7.03571 
14 *442:119 *3028:A1 19.9429 
15 *442:119 *3038:A1 21.2107 
16 *442:58 *3081:A1 9.3 
17 *442:4 *442:154 18.5893 
18 *442:154 *3007:A1 19.0857 
19 *442:154 *3091:A1 25.05 
*END

*D_NET *443 0.00112397
*CONN
*I *3010:S I *D sky130_fd_sc_hd__mux2_1
*I *3007:S I *D sky130_fd_sc_hd__mux2_1
*I *3006:Y O *D sky130_fd_sc_hd__nor2_1
*CAP
1 *3010:S 0.000337162
2 *3007:S 4.08001e-05
3 *3006:Y 0
4 *443:4 0.000377963
5 *3007:S *3371:A 0.000127439
6 *3010:S *3010:A0 5.33433e-05
7 *2748:A1 *3010:S 3.82357e-05
8 *3006:B *3010:S 1.33343e-05
9 *207:90 *3007:S 0.000127439
10 *221:16 *3010:S 8.25843e-06
*RES
1 *3006:Y *443:4 9.3 
2 *443:4 *3007:S 19.9429 
3 *443:4 *3010:S 14.3893 
*END

*D_NET *444 0.00141138
*CONN
*I *3008:A I *D sky130_fd_sc_hd__clkbuf_1
*I *3007:X O *D sky130_fd_sc_hd__mux2_1
*CAP
1 *3008:A 0.000435581
2 *3007:X 0.000435581
3 *3008:A *2721:B2 3.99614e-06
4 *3008:A *2802:A2 0
5 *3008:A *3189:CLK 0.000105163
6 *3008:A *874:8 5.52238e-05
7 *3188:D *3008:A 0.000183713
8 *3189:D *3008:A 1.76204e-05
9 *212:91 *3008:A 0.000174505
*RES
1 *3007:X *3008:A 27.7964 
*END

*D_NET *445 0.0283336
*CONN
*I *3093:A1 I *D sky130_fd_sc_hd__mux2_1
*I *3010:A1 I *D sky130_fd_sc_hd__mux2_1
*I *3040:A1 I *D sky130_fd_sc_hd__mux2_1
*I *3030:A1 I *D sky130_fd_sc_hd__mux2_1
*I *3025:A1 I *D sky130_fd_sc_hd__mux2_1
*I *3020:A1 I *D sky130_fd_sc_hd__mux2_1
*I *3083:A1 I *D sky130_fd_sc_hd__mux2_1
*I *3063:A1 I *D sky130_fd_sc_hd__mux2_1
*I *3088:A1 I *D sky130_fd_sc_hd__mux2_1
*I *3104:A1 I *D sky130_fd_sc_hd__mux2_1
*I *3009:X O *D sky130_fd_sc_hd__clkbuf_4
*CAP
1 *3093:A1 0.000719645
2 *3010:A1 7.17187e-05
3 *3040:A1 0.000475591
4 *3030:A1 0
5 *3025:A1 2.94794e-05
6 *3020:A1 9.93976e-05
7 *3083:A1 0
8 *3063:A1 0.000664932
9 *3088:A1 0.000227333
10 *3104:A1 0.000157341
11 *3009:X 0
12 *445:124 0.00107422
13 *445:106 0.00116461
14 *445:89 0.00206044
15 *445:70 0.00232682
16 *445:42 0.00101213
17 *445:23 0.000894096
18 *445:21 0.00160287
19 *445:8 0.00105387
20 *445:4 0.000781577
21 *3010:A1 *748:24 0
22 *3020:A1 *3020:A0 0.0001399
23 *3025:A1 *867:10 3.57366e-05
24 *3040:A1 *3035:A1 0.000183299
25 *3040:A1 *3040:S 3.11088e-05
26 *3040:A1 *3336:A 4.84073e-05
27 *3063:A1 *3063:A0 6.95767e-05
28 *3063:A1 *3064:A 8.00806e-05
29 *3063:A1 *3083:A0 0.00065399
30 *3063:A1 *3084:A 0
31 *3063:A1 *602:25 0.000146208
32 *3063:A1 *602:53 0.000245778
33 *3063:A1 *843:18 0.000157924
34 *3063:A1 *853:10 0.000272603
35 *3088:A1 *3060:B 7.72906e-05
36 *3088:A1 *3083:S 7.06861e-05
37 *3088:A1 *3088:A0 0.000140933
38 *3088:A1 *477:8 2.56601e-05
39 *3093:A1 *3093:A0 5.33005e-05
40 *3093:A1 *3094:A 0.000180777
41 *3104:A1 *2714:A1 0.000224582
42 *445:8 *2714:B2 0.000198702
43 *445:8 *3115:A 9.22797e-05
44 *445:8 *3229:CLK 0.000217155
45 *445:8 *3389:A 1.30833e-05
46 *445:8 *726:28 5.2558e-05
47 *445:8 *726:38 0.000115439
48 *445:21 *3307:A 0.000150319
49 *445:21 *3389:A 2.78587e-05
50 *445:21 *726:26 9.19357e-05
51 *445:23 *3083:S 4.72917e-05
52 *445:23 *3192:CLK 8.25843e-06
53 *445:23 *3307:A 0.000113286
54 *445:42 *3083:A0 1.72894e-05
55 *445:42 *3083:S 0.000573542
56 *445:70 *3020:S 0.000163312
57 *445:70 *3192:CLK 7.53317e-05
58 *445:89 *2717:B2 1.41029e-05
59 *445:89 *3020:S 6.56256e-05
60 *445:89 *3026:A 3.51224e-06
61 *445:89 *453:12 0
62 *445:89 *459:10 0
63 *445:89 *867:10 0.000244114
64 *445:106 *2692:A1 0.000155693
65 *445:106 *2692:B2 4.4545e-05
66 *445:106 *3023:A0 1.82462e-05
67 *445:106 *3031:A 9.8126e-05
68 *445:106 *3035:A1 0.000182656
69 *445:106 *3427:A 3.14003e-05
70 *445:106 *863:10 5.33005e-05
71 *445:106 *867:10 1.58163e-05
72 *2692:B1 *445:106 2.51343e-06
73 *2800:A1 *3093:A1 0.000232027
74 *2800:D1 *3093:A1 0.000141734
75 *2993:S *445:89 0.000122893
76 *3005:A *445:124 5.52238e-05
77 *3022:A *445:89 0.000263107
78 *3038:A1 *3040:A1 7.61443e-05
79 *3080:A *445:70 0.00032338
80 *3101:A *445:21 2.06178e-05
81 *3192:D *445:70 4.87669e-06
82 *3209:D *3063:A1 0
83 *3229:D *445:8 1.18064e-05
84 *3295:A *445:124 0.000132088
85 *197:128 *3063:A1 0
86 *197:128 *3088:A1 0
87 *202:77 *445:8 5.51649e-05
88 *202:77 *445:21 0.000121869
89 *202:87 *445:8 1.3142e-05
90 *202:107 *445:8 0.000276609
91 *208:139 *445:89 0.000153047
92 *209:18 *445:70 7.47472e-05
93 *209:18 *445:89 0.000193305
94 *235:14 *445:89 0
95 *235:20 *3010:A1 4.84319e-05
96 *258:28 *3093:A1 5.33005e-05
97 *282:22 *3093:A1 0.000856347
98 *285:22 *3093:A1 0.000901145
99 *285:22 *445:89 0
100 *285:22 *445:124 0.000203038
101 *291:16 *3093:A1 5.33005e-05
102 *350:93 *445:124 0.000828457
103 *358:79 *445:8 0.000197984
104 *430:20 *3093:A1 0.000157569
105 *430:64 *445:21 0
106 *430:64 *445:70 6.35511e-06
107 *432:139 *445:89 0.000174629
108 *432:143 *445:89 0.000891511
109 *433:10 *445:89 2.1892e-05
110 *442:16 *445:124 0.000228558
111 *442:77 *3063:A1 0
112 *442:108 *445:106 5.51649e-05
113 *442:119 *445:106 0.000144871
114 *442:154 *3093:A1 0.000156851
115 *442:154 *445:124 0.00094123
*RES
1 *3009:X *445:4 9.3 
2 *445:4 *445:8 17.375 
3 *445:8 *3104:A1 15.9786 
4 *445:8 *445:21 12.8214 
5 *445:21 *445:23 4.23214 
6 *445:23 *3088:A1 22.2107 
7 *445:23 *445:42 7.14286 
8 *445:42 *3063:A1 35.5857 
9 *445:42 *3083:A1 9.3 
10 *445:21 *445:70 18.1071 
11 *445:70 *3020:A1 15.1571 
12 *445:70 *445:89 35 
13 *445:89 *3025:A1 10.0321 
14 *445:89 *445:106 19.1964 
15 *445:106 *3030:A1 9.3 
16 *445:106 *3040:A1 15.5857 
17 *445:4 *445:124 12.8929 
18 *445:124 *3010:A1 19.6393 
19 *445:124 *3093:A1 30.8179 
*END

*D_NET *446 0.00014024
*CONN
*I *3011:A I *D sky130_fd_sc_hd__clkbuf_1
*I *3010:X O *D sky130_fd_sc_hd__mux2_1
*CAP
1 *3011:A 7.01202e-05
2 *3010:X 7.01202e-05
*RES
1 *3010:X *3011:A 19.8679 
*END

*D_NET *447 0.00341398
*CONN
*I *3013:S I *D sky130_fd_sc_hd__mux2_1
*I *3015:S I *D sky130_fd_sc_hd__mux2_1
*I *3012:X O *D sky130_fd_sc_hd__or3_1
*CAP
1 *3013:S 0
2 *3015:S 0.000269697
3 *3012:X 0.000359187
4 *447:12 0.000628884
5 *3015:S *2771:A 0.000363475
6 *447:12 *2708:A 0.000261978
7 *447:12 *2708:C 0.000291854
8 *447:12 *3013:A1 0.000268042
9 *447:12 *873:14 9.58126e-05
10 *2905:A *3015:S 9.58632e-05
11 *2905:C *3015:S 0.00026023
12 *2905:C *447:12 6.22482e-05
13 *2905:D_N *447:12 3.49456e-06
14 *3058:A *447:12 0
15 *202:8 *3015:S 0.000174198
16 *317:66 *3015:S 6.22396e-05
17 *317:66 *447:12 1.24368e-05
18 *317:72 *3015:S 2.38501e-05
19 *352:34 *447:12 0.000180488
*RES
1 *3012:X *447:12 18.925 
2 *447:12 *3015:S 25.8714 
3 *447:12 *3013:S 9.3 
*END

*D_NET *448 0.000504097
*CONN
*I *3014:A I *D sky130_fd_sc_hd__clkbuf_1
*I *3013:X O *D sky130_fd_sc_hd__mux2_1
*CAP
1 *3014:A 0.000175338
2 *3013:X 0.000175338
3 *3190:D *3014:A 2.84109e-05
4 *370:54 *3014:A 9.54798e-06
5 *370:64 *3014:A 4.82865e-05
6 *370:82 *3014:A 6.71762e-05
7 *432:29 *3014:A 0
*RES
1 *3013:X *3014:A 30.725 
*END

*D_NET *449 0.00079114
*CONN
*I *3016:A I *D sky130_fd_sc_hd__clkbuf_1
*I *3015:X O *D sky130_fd_sc_hd__mux2_1
*CAP
1 *3016:A 0.000180899
2 *3015:X 0.000180899
3 *3015:A0 *3016:A 0.0001597
4 *3191:D *3016:A 4.15914e-05
5 *183:56 *3016:A 0
6 *321:22 *3016:A 0.00017282
7 *376:14 *3016:A 5.52302e-05
*RES
1 *3015:X *3016:A 32.2071 
*END

*D_NET *450 0.00166919
*CONN
*I *3018:S I *D sky130_fd_sc_hd__mux2_1
*I *3020:S I *D sky130_fd_sc_hd__mux2_1
*I *3017:Y O *D sky130_fd_sc_hd__nor2_1
*CAP
1 *3018:S 0
2 *3020:S 0.000264773
3 *3017:Y 0.000234818
4 *450:6 0.000499591
5 *3020:S *869:8 0
6 *450:6 *3394:A 0.000348865
7 *450:6 *474:49 4.31243e-05
8 *209:18 *3020:S 4.90765e-05
9 *285:22 *3020:S 0
10 *445:70 *3020:S 0.000163312
11 *445:89 *3020:S 6.56256e-05
*RES
1 *3017:Y *450:6 13.9429 
2 *450:6 *3020:S 23.2821 
3 *450:6 *3018:S 9.3 
*END

*D_NET *451 0.000430494
*CONN
*I *3019:A I *D sky130_fd_sc_hd__clkbuf_1
*I *3018:X O *D sky130_fd_sc_hd__mux2_1
*CAP
1 *3019:A 8.30034e-05
2 *3018:X 8.30034e-05
3 *3019:A *3394:A 1.19813e-05
4 *3019:A *474:49 0.000150359
5 *3018:A1 *3019:A 0.000102146
*RES
1 *3018:X *3019:A 21.9214 
*END

*D_NET *452 0.000763551
*CONN
*I *3021:A I *D sky130_fd_sc_hd__clkbuf_1
*I *3020:X O *D sky130_fd_sc_hd__mux2_1
*CAP
1 *3021:A 0.000205989
2 *3020:X 0.000205989
3 *376:44 *3021:A 0.000351573
*RES
1 *3020:X *3021:A 22.8679 
*END

*D_NET *453 0.00168495
*CONN
*I *3023:S I *D sky130_fd_sc_hd__mux2_1
*I *3025:S I *D sky130_fd_sc_hd__mux2_1
*I *3022:Y O *D sky130_fd_sc_hd__nor2_1
*CAP
1 *3023:S 5.35187e-05
2 *3025:S 7.58735e-05
3 *3022:Y 0.000330317
4 *453:12 0.000459709
5 *3023:S *3031:A 5.49995e-05
6 *3023:S *604:53 8.88686e-05
7 *3023:S *863:10 8.67634e-05
8 *3025:S *3023:A0 5.49367e-05
9 *3025:S *3024:A 0.000148664
10 *453:12 *3033:A1 0.000125542
11 *453:12 *459:10 0
12 *453:12 *604:53 9.7497e-05
13 *453:12 *863:10 5.4959e-05
14 *442:119 *3023:S 5.33005e-05
15 *445:89 *453:12 0
*RES
1 *3022:Y *453:12 25.05 
2 *453:12 *3025:S 20.55 
3 *453:12 *3023:S 11.4786 
*END

*D_NET *454 0.00162335
*CONN
*I *3024:A I *D sky130_fd_sc_hd__clkbuf_1
*I *3023:X O *D sky130_fd_sc_hd__mux2_1
*CAP
1 *3024:A 0.000665672
2 *3023:X 0.000665672
3 *3024:A *3023:A0 0
4 *3024:A *3026:A 0
5 *3024:A *3434:A 0.000125724
6 *3025:S *3024:A 0.000148664
7 *3195:D *3024:A 1.76204e-05
*RES
1 *3023:X *3024:A 37.975 
*END

*D_NET *455 0.000697547
*CONN
*I *3026:A I *D sky130_fd_sc_hd__clkbuf_1
*I *3025:X O *D sky130_fd_sc_hd__mux2_1
*CAP
1 *3026:A 0.000297571
2 *3025:X 0.000297571
3 *3026:A *3025:A0 0
4 *3026:A *3195:CLK 0
5 *3026:A *3434:A 0
6 *3026:A *867:10 1.72894e-05
7 *3024:A *3026:A 0
8 *3195:D *3026:A 8.16036e-05
9 *445:89 *3026:A 3.51224e-06
*RES
1 *3025:X *3026:A 32.9214 
*END

*D_NET *456 0.0016746
*CONN
*I *3028:S I *D sky130_fd_sc_hd__mux2_1
*I *3030:S I *D sky130_fd_sc_hd__mux2_1
*I *3027:Y O *D sky130_fd_sc_hd__nor2_1
*CAP
1 *3028:S 0.000144699
2 *3030:S 0
3 *3027:Y 0.000412614
4 *456:10 0.000557313
5 *3028:S *3030:A0 2.5967e-05
6 *456:10 *2764:A1 0.000188274
7 *456:10 *3030:A0 3.29297e-05
8 *456:10 *604:40 0
9 *3028:A1 *3028:S 0.000121254
10 *190:18 *456:10 7.83587e-05
11 *421:20 *456:10 5.65955e-05
12 *421:22 *456:10 5.65955e-05
*RES
1 *3027:Y *456:10 21.55 
2 *456:10 *3030:S 13.8 
3 *456:10 *3028:S 16.7107 
*END

*D_NET *457 0.0012795
*CONN
*I *3029:A I *D sky130_fd_sc_hd__clkbuf_1
*I *3028:X O *D sky130_fd_sc_hd__mux2_1
*CAP
1 *3029:A 0.000348119
2 *3028:X 0.000348119
3 *3029:A *2764:A1 0
4 *3029:A *2764:B2 7.83587e-05
5 *3029:A *3196:CLK 9.41642e-05
6 *3029:A *3320:A 0
7 *3029:A *3458:A 0.00027338
8 *3029:A *604:98 2.59355e-05
9 *3029:A *604:126 5.20751e-05
10 *3196:D *3029:A 5.33005e-05
11 *3197:D *3029:A 6.05161e-06
*RES
1 *3028:X *3029:A 34.6893 
*END

*D_NET *458 0.00245956
*CONN
*I *3031:A I *D sky130_fd_sc_hd__clkbuf_1
*I *3030:X O *D sky130_fd_sc_hd__mux2_1
*CAP
1 *3031:A 0.000496077
2 *3030:X 0.000496077
3 *3031:A *2692:A1 4.12276e-05
4 *3031:A *3023:A0 0.000581568
5 *3031:A *3025:A0 7.79781e-06
6 *3031:A *3197:CLK 3.71343e-05
7 *3031:A *604:53 0.000303698
8 *3031:A *604:98 0
9 *2692:B1 *3031:A 2.00751e-05
10 *3023:S *3031:A 5.49995e-05
11 *3197:D *3031:A 0.000173178
12 *442:119 *3031:A 0.000149606
13 *445:106 *3031:A 9.8126e-05
*RES
1 *3030:X *3031:A 41.5286 
*END

*D_NET *459 0.000978558
*CONN
*I *3035:S I *D sky130_fd_sc_hd__mux2_1
*I *3033:S I *D sky130_fd_sc_hd__mux2_1
*I *3032:X O *D sky130_fd_sc_hd__or2_1
*CAP
1 *3035:S 2.52079e-05
2 *3033:S 3.71502e-05
3 *3032:X 0.000131055
4 *459:10 0.000193413
5 *3022:B *459:10 0.000128154
6 *430:95 *3035:S 6.05161e-06
7 *430:95 *459:10 0.000318196
8 *432:133 *3033:S 9.84673e-05
9 *432:133 *3035:S 4.08637e-05
10 *445:89 *459:10 0
11 *453:12 *459:10 0
*RES
1 *3032:X *459:10 22.3714 
2 *459:10 *3033:S 10.2464 
3 *459:10 *3035:S 9.83571 
*END

*D_NET *460 0.000211968
*CONN
*I *3034:A I *D sky130_fd_sc_hd__clkbuf_1
*I *3033:X O *D sky130_fd_sc_hd__mux2_1
*CAP
1 *3034:A 9.30161e-05
2 *3033:X 9.30161e-05
3 *432:139 *3034:A 2.59355e-05
*RES
1 *3033:X *3034:A 20.2786 
*END

*D_NET *461 0.000663402
*CONN
*I *3036:A I *D sky130_fd_sc_hd__clkbuf_1
*I *3035:X O *D sky130_fd_sc_hd__mux2_1
*CAP
1 *3036:A 0.000109221
2 *3035:X 0.000109221
3 *3036:A *2764:B2 0.000149365
4 *3036:A *3427:A 1.33343e-05
5 *2692:B1 *3036:A 0.000118308
6 *3199:D *3036:A 7.89362e-05
7 *181:134 *3036:A 8.50152e-05
*RES
1 *3035:X *3036:A 30.9036 
*END

*D_NET *462 0.00181788
*CONN
*I *3038:S I *D sky130_fd_sc_hd__mux2_1
*I *3040:S I *D sky130_fd_sc_hd__mux2_1
*I *3037:Y O *D sky130_fd_sc_hd__nor2_1
*CAP
1 *3038:S 0.000158272
2 *3040:S 9.62431e-05
3 *3037:Y 0.000243336
4 *462:10 0.000497852
5 *3038:S *3041:A 9.87041e-05
6 *3040:S *3336:A 1.02301e-05
7 *462:10 *3040:A0 2.29112e-05
8 *462:10 *861:14 8.82593e-05
9 *3038:A1 *3038:S 0.000351482
10 *3038:A1 *3040:S 0.000219483
11 *3040:A1 *3040:S 3.11088e-05
*RES
1 *3037:Y *462:10 22.3714 
2 *462:10 *3040:S 11.9071 
3 *462:10 *3038:S 13.55 
*END

*D_NET *463 0.00120051
*CONN
*I *3039:A I *D sky130_fd_sc_hd__clkbuf_1
*I *3038:X O *D sky130_fd_sc_hd__mux2_1
*CAP
1 *3039:A 0.000365974
2 *3038:X 0.000365974
3 *3039:A *3041:A 0
4 *3039:A *861:14 0.000289389
5 *3038:A1 *3039:A 9.75679e-05
6 *3200:D *3039:A 8.16036e-05
*RES
1 *3038:X *3039:A 35.6536 
*END

*D_NET *464 0.00121975
*CONN
*I *3041:A I *D sky130_fd_sc_hd__clkbuf_1
*I *3040:X O *D sky130_fd_sc_hd__mux2_1
*CAP
1 *3041:A 0.000324967
2 *3040:X 0.000324967
3 *3041:A *3205:CLK 3.57844e-05
4 *3041:A *3461:A 0.000294217
5 *3041:A *861:14 7.68793e-05
6 *3038:S *3041:A 9.87041e-05
7 *3039:A *3041:A 0
8 *3201:D *3041:A 6.42338e-05
9 *3205:D *3041:A 0
*RES
1 *3040:X *3041:A 35.0821 
*END

*D_NET *465 0.00256543
*CONN
*I *3043:S I *D sky130_fd_sc_hd__mux2_1
*I *3045:S I *D sky130_fd_sc_hd__mux2_1
*I *3042:X O *D sky130_fd_sc_hd__or2_1
*CAP
1 *3043:S 8.21273e-05
2 *3045:S 0
3 *3042:X 0.000350869
4 *465:12 0.000432997
5 *3043:S *3045:A1 0.000157389
6 *465:12 *2697:B2 7.44817e-05
7 *465:12 *2766:B2 0.000191725
8 *2697:B1 *465:12 4.44838e-05
9 *2766:B1 *465:12 0.00023961
10 *3043:A0 *3043:S 5.52302e-05
11 *3055:A0 *3043:S 0.000353079
12 *172:14 *465:12 0.000146546
13 *185:27 *465:12 0.000289689
14 *421:16 *465:12 5.52302e-05
15 *421:18 *465:12 5.52238e-05
16 *430:155 *465:12 3.67508e-05
*RES
1 *3042:X *465:12 28.175 
2 *465:12 *3045:S 9.3 
3 *465:12 *3043:S 12.7107 
*END

*D_NET *466 0.00106071
*CONN
*I *3044:A I *D sky130_fd_sc_hd__clkbuf_1
*I *3043:X O *D sky130_fd_sc_hd__mux2_1
*CAP
1 *3044:A 0.000372138
2 *3043:X 0.000372138
3 *3044:A *2697:B2 0.000175795
4 *3044:A *3043:A1 0
5 *3044:A *3045:A1 9.90431e-05
6 *3202:D *3044:A 4.15914e-05
*RES
1 *3043:X *3044:A 35.0464 
*END

*D_NET *467 0.000932353
*CONN
*I *3046:A I *D sky130_fd_sc_hd__clkbuf_1
*I *3045:X O *D sky130_fd_sc_hd__mux2_1
*CAP
1 *3046:A 0.000298243
2 *3045:X 0.000298243
3 *3046:A *2697:B2 0
4 *3046:A *2766:B2 0
5 *3046:A *3050:A1 0.00010326
6 *3046:A *3202:CLK 0.000159467
7 *3046:A *595:97 6.74911e-05
8 *2766:C1 *3046:A 5.64835e-06
*RES
1 *3045:X *3046:A 33.8679 
*END

*D_NET *468 0.00255
*CONN
*I *3050:S I *D sky130_fd_sc_hd__mux2_1
*I *3048:S I *D sky130_fd_sc_hd__mux2_1
*I *3047:X O *D sky130_fd_sc_hd__or2_1
*CAP
1 *3050:S 5.36741e-05
2 *3048:S 5.24143e-05
3 *3047:X 0.000534822
4 *468:12 0.00064091
5 *3050:S *3050:A1 3.11088e-05
6 *3050:S *595:97 5.1569e-05
7 *468:12 *595:97 9.15842e-06
8 *468:12 *678:12 2.79092e-05
9 *2765:A2 *468:12 0.000401259
10 *3050:A0 *3048:S 0.000181817
11 *3050:A0 *3050:S 9.54617e-06
12 *172:14 *468:12 0
13 *421:18 *468:12 0.000276211
14 *430:155 *3048:S 0.000269734
15 *430:155 *3050:S 9.86486e-06
16 *432:73 *468:12 0
*RES
1 *3047:X *468:12 27.6929 
2 *468:12 *3048:S 11.8893 
3 *468:12 *3050:S 11.1036 
*END

*D_NET *469 0.000182304
*CONN
*I *3049:A I *D sky130_fd_sc_hd__clkbuf_1
*I *3048:X O *D sky130_fd_sc_hd__mux2_1
*CAP
1 *3049:A 9.1152e-05
2 *3048:X 9.1152e-05
*RES
1 *3048:X *3049:A 20.2786 
*END

*D_NET *470 0.0018168
*CONN
*I *3051:A I *D sky130_fd_sc_hd__clkbuf_1
*I *3050:X O *D sky130_fd_sc_hd__mux2_1
*CAP
1 *3051:A 0.00025085
2 *3050:X 0.00025085
3 *2696:A2 *3051:A 0.000227539
4 *2765:A2 *3051:A 0.0001039
5 *2767:C1 *3051:A 0.000481562
6 *182:31 *3051:A 0.000162785
7 *432:73 *3051:A 0.000170078
8 *432:115 *3051:A 0.000169233
*RES
1 *3050:X *3051:A 36.6179 
*END

*D_NET *471 0.00188588
*CONN
*I *3055:S I *D sky130_fd_sc_hd__mux2_1
*I *3053:S I *D sky130_fd_sc_hd__mux2_1
*I *3052:X O *D sky130_fd_sc_hd__or2_1
*CAP
1 *3055:S 0.000148026
2 *3053:S 4.68493e-05
3 *3052:X 0.000467498
4 *471:10 0.000662374
5 *3053:S *2766:A1 1.24368e-05
6 *3053:S *3433:A 6.60945e-05
7 *3055:S *3055:A1 1.83053e-05
8 *3055:S *3446:A 0.00016362
9 *471:10 *3446:A 0.000146208
10 *3053:A0 *3053:S 4.5901e-05
11 *3053:A0 *471:10 5.5902e-05
12 *407:93 *471:10 5.26625e-05
*RES
1 *3052:X *471:10 21.9607 
2 *471:10 *3053:S 15.1571 
3 *471:10 *3055:S 16.5857 
*END

*D_NET *472 0.00034902
*CONN
*I *3054:A I *D sky130_fd_sc_hd__clkbuf_1
*I *3053:X O *D sky130_fd_sc_hd__mux2_1
*CAP
1 *3054:A 0.000114783
2 *3053:X 0.000114783
3 *3054:A *607:12 7.97214e-05
4 *3206:D *3054:A 3.9733e-05
*RES
1 *3053:X *3054:A 30.0821 
*END

*D_NET *473 0.000736345
*CONN
*I *3056:A I *D sky130_fd_sc_hd__clkbuf_1
*I *3055:X O *D sky130_fd_sc_hd__mux2_1
*CAP
1 *3056:A 0.000270436
2 *3055:X 0.000270436
3 *3056:A *595:82 0.000141935
4 *3053:A0 *3056:A 5.35386e-05
*RES
1 *3055:X *3056:A 33.0286 
*END

*D_NET *474 0.0161734
*CONN
*I *3065:B I *D sky130_fd_sc_hd__or2_1
*I *3058:B I *D sky130_fd_sc_hd__or2_1
*I *3095:C I *D sky130_fd_sc_hd__or3_1
*I *3075:B I *D sky130_fd_sc_hd__or2_1
*I *3085:B I *D sky130_fd_sc_hd__nor2_1
*I *3080:B I *D sky130_fd_sc_hd__nor2_1
*I *3070:B I *D sky130_fd_sc_hd__or2_1
*I *3090:B I *D sky130_fd_sc_hd__nor2_1
*I *3057:Y O *D sky130_fd_sc_hd__nand3b_4
*CAP
1 *3065:B 0.000136931
2 *3058:B 7.47469e-05
3 *3095:C 0
4 *3075:B 9.44787e-05
5 *3085:B 0.000224708
6 *3080:B 0
7 *3070:B 3.6792e-05
8 *3090:B 0.000252324
9 *3057:Y 0.000150066
10 *474:69 0.0004125
11 *474:53 5.22262e-05
12 *474:49 0.00226026
13 *474:33 0.00223088
14 *474:18 0.00119583
15 *474:12 0.00163484
16 *474:6 0.000982955
17 *3065:B *3067:A 0.000143373
18 *3070:B *489:8 0.000129595
19 *3085:B *3081:S 3.99614e-06
20 *3085:B *486:10 6.62752e-05
21 *3085:B *492:8 2.89016e-05
22 *3090:B *3096:A1 0.000258751
23 *3090:B *3400:A 0.000303839
24 *474:6 *3067:A 1.21258e-05
25 *474:6 *3210:CLK 5.74499e-06
26 *474:6 *775:57 1.35553e-05
27 *474:12 *2547:A 7.53822e-05
28 *474:12 *3067:A 5.018e-05
29 *474:12 *3210:CLK 1.93106e-05
30 *474:12 *594:14 0.000195054
31 *474:18 *590:161 0.000579476
32 *474:18 *737:24 0
33 *474:49 *3018:A0 0.000230568
34 *474:49 *3394:A 0.000145935
35 *474:49 *498:10 2.12087e-05
36 *474:49 *590:222 2.91627e-05
37 *474:53 *489:8 2.14658e-05
38 *474:69 *483:18 7.05143e-06
39 *2777:A2 *474:49 0.000312976
40 *3018:A1 *474:49 0.000198325
41 *3019:A *474:49 0.000150359
42 *3058:A *3058:B 9.67754e-05
43 *3075:A *3075:B 5.17614e-05
44 *3080:A *474:49 0.000141032
45 *3080:A *474:69 8.6229e-06
46 *3095:A *474:49 5.17791e-05
47 *3095:B *474:33 3.83498e-05
48 *3192:D *474:49 7.85681e-05
49 *202:52 *474:18 2.83526e-05
50 *218:42 *474:69 4.15161e-05
51 *218:80 *474:69 0.000126439
52 *317:72 *474:49 0.000145858
53 *345:16 *474:18 0.000239417
54 *352:34 *3058:B 4.97967e-05
55 *361:30 *3065:B 1.85025e-05
56 *361:30 *474:6 2.59355e-05
57 *370:64 *3058:B 7.7501e-05
58 *370:64 *474:12 1.90936e-05
59 *376:44 *3070:B 0.000129595
60 *376:44 *474:53 2.89016e-05
61 *380:10 *3090:B 0.000172802
62 *380:10 *474:33 4.97705e-05
63 *380:22 *3090:B 4.6025e-06
64 *384:43 *3090:B 0.000296481
65 *384:43 *474:33 5.43931e-05
66 *395:26 *474:49 0.000545391
67 *403:49 *474:18 0.000260488
68 *411:10 *3058:B 3.74791e-05
69 *411:10 *474:12 9.78004e-05
70 *419:144 *474:18 0.000277266
71 *430:64 *474:49 0.000103428
72 *430:64 *474:69 9.04343e-05
73 *450:6 *474:49 4.31243e-05
*RES
1 *3057:Y *474:6 11.0679 
2 *474:6 *474:12 14.7232 
3 *474:12 *474:18 9.4614 
4 *474:18 *3090:B 22.2732 
5 *474:18 *474:33 6.52679 
6 *474:33 *474:49 41.8929 
7 *474:49 *474:53 5.03571 
8 *474:53 *3070:B 11.4786 
9 *474:53 *3080:B 9.3 
10 *474:49 *474:69 7.05357 
11 *474:69 *3085:B 13.1393 
12 *474:69 *3075:B 11.0857 
13 *474:33 *3095:C 9.3 
14 *474:12 *3058:B 15.9339 
15 *474:6 *3065:B 21.1571 
*END

*D_NET *475 0.000371988
*CONN
*I *3059:A I *D sky130_fd_sc_hd__buf_2
*I *3058:X O *D sky130_fd_sc_hd__or2_1
*CAP
1 *3059:A 7.57201e-05
2 *3058:X 7.57201e-05
3 *3059:A *3299:A 2.06112e-05
4 *3059:A *677:20 0.000122933
5 *3059:A *715:20 7.70035e-05
6 *355:10 *3059:A 0
*RES
1 *3058:X *3059:A 29.2429 
*END

*D_NET *476 0.0203576
*CONN
*I *3132:B I *D sky130_fd_sc_hd__or2_1
*I *2550:B I *D sky130_fd_sc_hd__or2_1
*I *3111:B I *D sky130_fd_sc_hd__nor2_1
*I *3101:B I *D sky130_fd_sc_hd__nor2_1
*I *3060:B I *D sky130_fd_sc_hd__nor2_1
*I *3117:B I *D sky130_fd_sc_hd__or2_1
*I *3127:B I *D sky130_fd_sc_hd__or2_1
*I *3106:B I *D sky130_fd_sc_hd__nor2_1
*I *3122:B I *D sky130_fd_sc_hd__nor2_1
*I *3059:X O *D sky130_fd_sc_hd__buf_2
*CAP
1 *3132:B 0
2 *2550:B 0.000153476
3 *3111:B 0
4 *3101:B 0
5 *3060:B 0.000425815
6 *3117:B 0.000525609
7 *3127:B 3.53909e-05
8 *3106:B 0
9 *3122:B 0.000257008
10 *3059:X 0.00042152
11 *476:125 0.00022524
12 *476:98 0.00125637
13 *476:75 0.00135616
14 *476:66 0.000495784
15 *476:56 0.00164571
16 *476:31 0.00221988
17 *476:14 0.00143038
18 *476:12 0.000632086
19 *2550:B *3133:A0 0.000121838
20 *3060:B *3083:S 5.52238e-05
21 *3060:B *3102:S 3.2923e-05
22 *3117:B *2711:A 0.000104469
23 *3117:B *2773:A 0.000106849
24 *3117:B *3413:A 3.88799e-05
25 *3122:B *2548:S 9.25014e-06
26 *3122:B *619:14 0.000112995
27 *476:12 *3133:A1 0.000266508
28 *476:12 *715:20 0.000150254
29 *476:14 *2548:S 0.000334565
30 *476:14 *521:10 4.60131e-05
31 *476:31 *2553:A0 5.33005e-05
32 *476:31 *500:139 0.000102474
33 *476:31 *505:6 1.24368e-05
34 *476:31 *832:10 1.00733e-05
35 *476:56 *3384:A 2.38651e-06
36 *476:56 *3428:A 9.96242e-05
37 *476:56 *505:6 7.48301e-06
38 *476:56 *508:6 5.52238e-05
39 *476:56 *832:10 0.000225357
40 *476:66 *3113:A 0.00017259
41 *476:66 *3114:A0 0.000178847
42 *476:66 *508:6 9.90431e-05
43 *476:98 *2711:A 1.89507e-06
44 *476:98 *2711:B 0
45 *476:98 *2773:A 0.000129307
46 *476:98 *3102:S 2.85234e-05
47 *476:98 *3389:A 5.50052e-05
48 *476:125 *3133:A0 0.00010269
49 *476:125 *521:10 9.67754e-05
50 *2709:B1 *476:12 9.14222e-05
51 *2711:C *476:66 8.57208e-05
52 *2711:C *476:98 0
53 *2713:D *476:56 0.000515703
54 *2753:C *3122:B 0.000169397
55 *2769:B *476:31 3.97677e-05
56 *2769:C *476:56 1.95435e-05
57 *2770:C1 *476:56 9.83442e-05
58 *2800:B1 *476:56 0
59 *2989:A *2550:B 2.37871e-05
60 *3060:A *3060:B 2.83284e-06
61 *3065:A *2550:B 9.58689e-05
62 *3088:A1 *3060:B 7.72906e-05
63 *3101:A *476:98 0.000167081
64 *3102:A1 *3060:B 7.95286e-05
65 *3102:A1 *476:98 4.20116e-05
66 *3106:A *476:31 0.000219711
67 *3117:A *3117:B 0.000387076
68 *3132:A *2550:B 6.65694e-05
69 *3132:A *476:125 0.000100165
70 *3226:D *476:56 0.000109876
71 *3228:D *3127:B 5.49544e-05
72 *192:22 *3122:B 0.00026546
73 *192:22 *476:31 0.000419186
74 *192:26 *476:31 0.00120848
75 *197:128 *3060:B 0
76 *202:77 *476:98 0.000120582
77 *212:20 *476:12 1.2294e-05
78 *212:20 *476:14 6.93626e-06
79 *218:108 *3122:B 0.000196276
80 *218:108 *476:12 3.51402e-05
81 *218:108 *476:14 0.000386946
82 *245:14 *476:31 7.02611e-05
83 *267:44 *3127:B 9.66977e-05
84 *267:44 *476:56 1.65169e-05
85 *267:44 *476:66 0.000276033
86 *285:22 *476:98 0
87 *345:30 *476:98 2.06178e-05
88 *355:34 *2550:B 0.000269379
89 *358:96 *476:66 1.98839e-05
90 *358:114 *476:56 2.71152e-05
91 *358:138 *3122:B 9.41642e-05
92 *430:64 *3117:B 0
93 *430:64 *476:98 0
94 *432:14 *2550:B 0.000279461
95 *432:14 *476:125 0.000196329
96 *442:58 *3060:B 0
*RES
1 *3059:X *476:12 22.5321 
2 *476:12 *476:14 5.28571 
3 *476:14 *3122:B 20.5857 
4 *476:14 *476:31 26.4107 
5 *476:31 *3106:B 9.3 
6 *476:31 *476:56 26.2857 
7 *476:56 *476:66 8.92857 
8 *476:66 *3127:B 10.2464 
9 *476:66 *476:75 4.5 
10 *476:75 *3117:B 23.3357 
11 *476:75 *476:98 18.9821 
12 *476:98 *3060:B 26.55 
13 *476:98 *3101:B 9.3 
14 *476:56 *3111:B 9.3 
15 *476:12 *476:125 7.5 
16 *476:125 *2550:B 15.2286 
17 *476:125 *3132:B 9.3 
*END

*D_NET *477 0.00297168
*CONN
*I *3061:S I *D sky130_fd_sc_hd__mux2_1
*I *3063:S I *D sky130_fd_sc_hd__mux2_1
*I *3060:Y O *D sky130_fd_sc_hd__nor2_1
*CAP
1 *3061:S 0.00013539
2 *3063:S 7.39031e-05
3 *3060:Y 0.000596129
4 *477:8 0.000805422
5 *3061:S *2794:A1 0
6 *3061:S *3061:A0 5.33334e-05
7 *3061:S *3420:A 6.17134e-05
8 *3061:S *852:10 9.90367e-05
9 *3063:S *853:10 0.00018372
10 *477:8 *2742:B2 5.26091e-05
11 *477:8 *2794:A1 0
12 *477:8 *3081:S 0
13 *477:8 *3086:S 0.000137939
14 *477:8 *3087:A 0.000150625
15 *477:8 *3088:S 0.000197269
16 *477:8 *3089:A 0
17 *477:8 *602:86 0
18 *3088:A1 *477:8 2.56601e-05
19 *197:128 *477:8 0
20 *442:64 *477:8 8.68569e-05
21 *442:77 *3061:S 7.4826e-05
22 *442:77 *477:8 0.000237245
*RES
1 *3060:Y *477:8 27.5857 
2 *477:8 *3063:S 15.5679 
3 *477:8 *3061:S 17.6036 
*END

*D_NET *478 0.000874714
*CONN
*I *3062:A I *D sky130_fd_sc_hd__clkbuf_1
*I *3061:X O *D sky130_fd_sc_hd__mux2_1
*CAP
1 *3062:A 0.000401835
2 *3061:X 0.000401835
3 *3062:A *3063:A0 7.10442e-05
*RES
1 *3061:X *3062:A 34.1893 
*END

*D_NET *479 0.000808521
*CONN
*I *3064:A I *D sky130_fd_sc_hd__clkbuf_1
*I *3063:X O *D sky130_fd_sc_hd__mux2_1
*CAP
1 *3064:A 0.00036422
2 *3063:X 0.00036422
3 *3063:A1 *3064:A 8.00806e-05
4 *442:77 *3064:A 0
*RES
1 *3063:X *3064:A 33.9036 
*END

*D_NET *480 0.00111567
*CONN
*I *3068:S I *D sky130_fd_sc_hd__mux2_1
*I *3066:S I *D sky130_fd_sc_hd__mux2_1
*I *3065:X O *D sky130_fd_sc_hd__or2_1
*CAP
1 *3068:S 6.5372e-05
2 *3066:S 0
3 *3065:X 0.000261411
4 *480:14 0.000326783
5 *3068:S *3066:A1 0.000175251
6 *480:14 *3066:A1 5.52302e-05
7 *480:14 *3067:A 1.92905e-05
8 *480:14 *607:46 7.95153e-05
9 *3066:A0 *480:14 5.33005e-05
10 *407:14 *480:14 7.95153e-05
*RES
1 *3065:X *480:14 23.0679 
2 *480:14 *3066:S 9.3 
3 *480:14 *3068:S 11.0679 
*END

*D_NET *481 0.00182873
*CONN
*I *3067:A I *D sky130_fd_sc_hd__clkbuf_1
*I *3066:X O *D sky130_fd_sc_hd__mux2_1
*CAP
1 *3067:A 0.000397328
2 *3066:X 0.000397328
3 *3067:A *3133:A0 0.000197995
4 *3067:A *3210:CLK 0.000182592
5 *3067:A *775:61 0.000428522
6 *2989:A *3067:A 0
7 *3065:B *3067:A 0.000143373
8 *474:6 *3067:A 1.21258e-05
9 *474:12 *3067:A 5.018e-05
10 *480:14 *3067:A 1.92905e-05
*RES
1 *3066:X *3067:A 36.725 
*END

*D_NET *482 0.000800922
*CONN
*I *3069:A I *D sky130_fd_sc_hd__clkbuf_1
*I *3068:X O *D sky130_fd_sc_hd__mux2_1
*CAP
1 *3069:A 0.000259083
2 *3068:X 0.000259083
3 *3069:A *3068:A1 5.71472e-05
4 *3069:A *3376:A 0.000225609
*RES
1 *3068:X *3069:A 23.2786 
*END

*D_NET *483 0.0045186
*CONN
*I *3073:S I *D sky130_fd_sc_hd__mux2_1
*I *3071:S I *D sky130_fd_sc_hd__mux2_1
*I *3070:X O *D sky130_fd_sc_hd__or2_1
*CAP
1 *3073:S 5.83683e-05
2 *3071:S 0
3 *3070:X 0.00103441
4 *483:18 0.00109278
5 *3073:S *3324:A 0.00040279
6 *483:18 *2792:B2 0.000516346
7 *483:18 *2793:A1 0
8 *483:18 *3073:A1 0
9 *483:18 *3077:A 0.000332771
10 *483:18 *3078:S 1.91894e-05
11 *483:18 *486:10 0.000103844
12 *3071:A0 *3073:S 0.00040279
13 *3073:A0 *483:18 0
14 *218:42 *483:18 4.51691e-05
15 *218:80 *483:18 0.000280021
16 *376:44 *483:18 0
17 *430:64 *483:18 0.000202597
18 *430:184 *483:18 2.04817e-05
19 *474:69 *483:18 7.05143e-06
*RES
1 *3070:X *483:18 40.4071 
2 *483:18 *3071:S 9.3 
3 *483:18 *3073:S 13.1214 
*END

*D_NET *484 0.00140669
*CONN
*I *3072:A I *D sky130_fd_sc_hd__clkbuf_1
*I *3071:X O *D sky130_fd_sc_hd__mux2_1
*CAP
1 *3072:A 0.000508341
2 *3071:X 0.000508341
3 *3072:A *2741:A1 0.000186669
4 *3072:A *3212:CLK 0.000106455
5 *3072:A *3324:A 5.71472e-05
6 *3212:D *3072:A 3.9733e-05
*RES
1 *3071:X *3072:A 35.0107 
*END

*D_NET *485 0.00199629
*CONN
*I *3074:A I *D sky130_fd_sc_hd__clkbuf_1
*I *3073:X O *D sky130_fd_sc_hd__mux2_1
*CAP
1 *3074:A 0.000799121
2 *3073:X 0.000799121
3 *3074:A *2792:B2 2.09722e-05
4 *3074:A *3213:CLK 1.84776e-05
5 *3074:A *3324:A 0.000317082
6 *3213:D *3074:A 4.152e-05
*RES
1 *3073:X *3074:A 38.5464 
*END

*D_NET *486 0.00242164
*CONN
*I *3078:S I *D sky130_fd_sc_hd__mux2_1
*I *3076:S I *D sky130_fd_sc_hd__mux2_1
*I *3075:X O *D sky130_fd_sc_hd__or2_1
*CAP
1 *3078:S 0.000398022
2 *3076:S 0
3 *3075:X 0.000334105
4 *486:10 0.000732127
5 *3078:S *2792:A1 8.06331e-05
6 *3078:S *2792:B2 0.000175512
7 *3078:S *3077:A 0
8 *3078:S *3078:A1 2.97137e-05
9 *3078:S *602:86 0
10 *3078:S *602:101 0
11 *486:10 *2793:A1 5.24274e-05
12 *2743:B1 *3078:S 0.000265378
13 *2793:A2 *486:10 2.74584e-05
14 *2794:C1 *3078:S 0
15 *2794:C1 *486:10 0
16 *3085:B *486:10 6.62752e-05
17 *442:108 *3078:S 0.000136958
18 *483:18 *3078:S 1.91894e-05
19 *483:18 *486:10 0.000103844
*RES
1 *3075:X *486:10 19.6393 
2 *486:10 *3076:S 13.8 
3 *486:10 *3078:S 22.9964 
*END

*D_NET *487 0.00124302
*CONN
*I *3077:A I *D sky130_fd_sc_hd__clkbuf_1
*I *3076:X O *D sky130_fd_sc_hd__mux2_1
*CAP
1 *3077:A 0.000250062
2 *3076:X 0.000250062
3 *3077:A *2792:B2 4.1331e-06
4 *3077:A *3076:A1 0.000266085
5 *2743:B1 *3077:A 0.000139907
6 *3078:S *3077:A 0
7 *483:18 *3077:A 0.000332771
*RES
1 *3076:X *3077:A 33.3321 
*END

*D_NET *488 0.000189327
*CONN
*I *3079:A I *D sky130_fd_sc_hd__clkbuf_1
*I *3078:X O *D sky130_fd_sc_hd__mux2_1
*CAP
1 *3079:A 3.93186e-05
2 *3078:X 3.93186e-05
3 *442:108 *3079:A 0.00011069
*RES
1 *3078:X *3079:A 19.8679 
*END

*D_NET *489 0.00348061
*CONN
*I *3081:S I *D sky130_fd_sc_hd__mux2_1
*I *3083:S I *D sky130_fd_sc_hd__mux2_1
*I *3080:Y O *D sky130_fd_sc_hd__nor2_1
*CAP
1 *3081:S 0.000259609
2 *3083:S 0.000296559
3 *3080:Y 0.000461087
4 *489:8 0.00101725
5 *3081:S *3088:S 0
6 *3081:S *492:8 1.21258e-05
7 *3081:S *841:12 9.25014e-06
8 *3083:S *3307:A 9.71197e-05
9 *489:8 *2793:A1 3.48705e-05
10 *489:8 *602:14 9.46929e-05
11 *489:8 *840:16 3.30352e-05
12 *3060:B *3083:S 5.52238e-05
13 *3070:B *489:8 0.000129595
14 *3085:B *3081:S 3.99614e-06
15 *3088:A1 *3083:S 7.06861e-05
16 *442:58 *3081:S 7.73277e-05
17 *442:58 *3083:S 4.49451e-05
18 *442:64 *3081:S 0.000140933
19 *445:23 *3083:S 4.72917e-05
20 *445:42 *3083:S 0.000573542
21 *474:53 *489:8 2.14658e-05
22 *477:8 *3081:S 0
*RES
1 *3080:Y *489:8 20.0857 
2 *489:8 *3083:S 22.0321 
3 *489:8 *3081:S 18.8536 
*END

*D_NET *490 0.00270061
*CONN
*I *3082:A I *D sky130_fd_sc_hd__clkbuf_1
*I *3081:X O *D sky130_fd_sc_hd__mux2_1
*CAP
1 *3082:A 0.000967651
2 *3081:X 0.000967651
3 *3082:A *3083:A0 0.000106542
4 *3082:A *3219:CLK 0.000135335
5 *3082:A *492:8 9.90431e-05
6 *3082:A *602:14 5.85026e-05
7 *3218:D *3082:A 0.000265634
8 *197:128 *3082:A 5.85482e-05
9 *442:64 *3082:A 4.16984e-05
*RES
1 *3081:X *3082:A 41.9571 
*END

*D_NET *491 0.00210915
*CONN
*I *3084:A I *D sky130_fd_sc_hd__clkbuf_1
*I *3083:X O *D sky130_fd_sc_hd__mux2_1
*CAP
1 *3084:A 0.000850932
2 *3083:X 0.000850932
3 *3084:A *602:53 7.15846e-05
4 *3084:A *602:59 1.92905e-05
5 *3063:A1 *3084:A 0
6 *3216:D *3084:A 5.5782e-05
7 *3217:D *3084:A 1.32552e-05
8 *3219:D *3084:A 0.000247377
*RES
1 *3083:X *3084:A 41.225 
*END

*D_NET *492 0.00243513
*CONN
*I *3086:S I *D sky130_fd_sc_hd__mux2_1
*I *3088:S I *D sky130_fd_sc_hd__mux2_1
*I *3085:Y O *D sky130_fd_sc_hd__nor2_1
*CAP
1 *3086:S 0.000180922
2 *3088:S 0.000116976
3 *3085:Y 0.000219497
4 *492:8 0.000517395
5 *3086:S *2793:B2 0.000221634
6 *3086:S *3086:A0 6.42095e-05
7 *3086:S *602:86 0
8 *3086:S *841:12 3.0285e-05
9 *3086:S *842:8 3.18988e-05
10 *3088:S *602:14 5.71472e-05
11 *3088:S *840:16 8.73737e-05
12 *3088:S *841:12 2.66026e-05
13 *492:8 *3081:A0 0.00014183
14 *3081:S *3088:S 0
15 *3081:S *492:8 1.21258e-05
16 *3082:A *492:8 9.90431e-05
17 *3085:B *492:8 2.89016e-05
18 *3086:A1 *3086:S 9.60875e-05
19 *442:64 *492:8 0.000167998
20 *477:8 *3086:S 0.000137939
21 *477:8 *3088:S 0.000197269
*RES
1 *3085:Y *492:8 18.8536 
2 *492:8 *3088:S 17.3179 
3 *492:8 *3086:S 18.7643 
*END

*D_NET *493 0.000590546
*CONN
*I *3087:A I *D sky130_fd_sc_hd__clkbuf_1
*I *3086:X O *D sky130_fd_sc_hd__mux2_1
*CAP
1 *3087:A 0.00011791
2 *3086:X 0.00011791
3 *3087:A *2793:B2 5.17614e-05
4 *442:77 *3087:A 0.00015234
5 *477:8 *3087:A 0.000150625
*RES
1 *3086:X *3087:A 30.4929 
*END

*D_NET *494 0.00217106
*CONN
*I *3089:A I *D sky130_fd_sc_hd__clkbuf_1
*I *3088:X O *D sky130_fd_sc_hd__mux2_1
*CAP
1 *3089:A 0.000455113
2 *3088:X 0.000455113
3 *3089:A *3341:A 0.000199706
4 *3089:A *843:18 0.000309018
5 *3218:D *3089:A 8.33655e-05
6 *197:128 *3089:A 0.000649605
7 *442:64 *3089:A 1.91418e-05
8 *477:8 *3089:A 0
*RES
1 *3088:X *3089:A 39.8679 
*END

*D_NET *495 0.00352577
*CONN
*I *3091:S I *D sky130_fd_sc_hd__mux2_1
*I *3093:S I *D sky130_fd_sc_hd__mux2_1
*I *3090:Y O *D sky130_fd_sc_hd__nor2_1
*CAP
1 *3091:S 0.000785845
2 *3093:S 8.42101e-05
3 *3090:Y 0.000180726
4 *495:8 0.00105078
5 *3091:S *3091:A0 0.000113854
6 *3091:S *3221:CLK 0.000138606
7 *3091:S *3382:A 0
8 *3091:S *838:6 1.24368e-05
9 *3093:S *3093:A0 0.00012501
10 *3093:S *3325:A 0.000197269
11 *495:8 *3325:A 0.000166983
12 *3091:A1 *3091:S 5.52238e-05
13 *3221:D *3091:S 4.87669e-06
14 *380:22 *495:8 0.000313414
15 *384:43 *3093:S 3.57844e-05
16 *384:43 *495:8 0.000260754
*RES
1 *3090:Y *495:8 20.3 
2 *495:8 *3093:S 16.3536 
3 *495:8 *3091:S 25.1036 
*END

*D_NET *496 0.000473332
*CONN
*I *3092:A I *D sky130_fd_sc_hd__clkbuf_1
*I *3091:X O *D sky130_fd_sc_hd__mux2_1
*CAP
1 *3092:A 8.33195e-05
2 *3091:X 8.33195e-05
3 *3092:A *3091:A0 5.52302e-05
4 *376:84 *3092:A 0.000125731
5 *391:43 *3092:A 0.000125731
*RES
1 *3091:X *3092:A 29.7786 
*END

*D_NET *497 0.000461384
*CONN
*I *3094:A I *D sky130_fd_sc_hd__clkbuf_1
*I *3093:X O *D sky130_fd_sc_hd__mux2_1
*CAP
1 *3094:A 0.000113653
2 *3093:X 0.000113653
3 *2800:A1 *3094:A 5.33005e-05
4 *3093:A1 *3094:A 0.000180777
*RES
1 *3093:X *3094:A 21.1 
*END

*D_NET *498 0.00181343
*CONN
*I *3099:S I *D sky130_fd_sc_hd__mux2_1
*I *3096:S I *D sky130_fd_sc_hd__mux2_1
*I *3095:X O *D sky130_fd_sc_hd__or3_1
*CAP
1 *3099:S 0
2 *3096:S 0.000286992
3 *3095:X 0.000128278
4 *498:10 0.00041527
5 *3096:S *3400:A 3.06123e-05
6 *3096:A0 *3096:S 9.58689e-05
7 *176:64 *3096:S 6.05161e-06
8 *183:56 *3096:S 0.000181746
9 *183:56 *498:10 6.93072e-05
10 *317:72 *498:10 5.49489e-05
11 *380:10 *3096:S 0.000374637
12 *380:10 *498:10 0.000148514
13 *474:49 *498:10 2.12087e-05
*RES
1 *3095:X *498:10 16.6929 
2 *498:10 *3096:S 20.9607 
3 *498:10 *3099:S 13.8 
*END

*D_NET *499 0.00152171
*CONN
*I *3097:A I *D sky130_fd_sc_hd__clkbuf_1
*I *3096:X O *D sky130_fd_sc_hd__mux2_1
*CAP
1 *3097:A 0.000234297
2 *3096:X 0.000234297
3 *3097:A *2703:A 0.000135028
4 *2703:C *3097:A 1.95435e-05
5 *2713:C *3097:A 0.00050829
6 *176:64 *3097:A 0.000141131
7 *176:70 *3097:A 0.00010889
8 *183:56 *3097:A 9.15842e-06
9 *208:18 *3097:A 6.06915e-05
10 *380:10 *3097:A 6.69066e-05
11 *380:22 *3097:A 3.47641e-06
*RES
1 *3096:X *3097:A 34.6 
*END

*D_NET *500 0.0293588
*CONN
*I *3099:A0 I *D sky130_fd_sc_hd__mux2_1
*I *2548:A0 I *D sky130_fd_sc_hd__mux2_1
*I *2553:A0 I *D sky130_fd_sc_hd__mux2_1
*I *3130:A0 I *D sky130_fd_sc_hd__mux2_1
*I *2585:A0 I *D sky130_fd_sc_hd__mux2_1
*I *2565:A0 I *D sky130_fd_sc_hd__mux2_1
*I *2560:A0 I *D sky130_fd_sc_hd__mux2_1
*I *2575:A0 I *D sky130_fd_sc_hd__mux2_1
*I *2570:A0 I *D sky130_fd_sc_hd__mux2_1
*I *3120:A0 I *D sky130_fd_sc_hd__mux2_1
*I *3098:X O *D sky130_fd_sc_hd__buf_2
*CAP
1 *3099:A0 0.000474641
2 *2548:A0 0
3 *2553:A0 0.00029165
4 *3130:A0 0.000296822
5 *2585:A0 3.15764e-05
6 *2565:A0 3.4518e-05
7 *2560:A0 2.63623e-05
8 *2575:A0 0.000562268
9 *2570:A0 7.29154e-05
10 *3120:A0 4.36033e-05
11 *3098:X 0.000259655
12 *500:139 0.00130787
13 *500:131 0.00420781
14 *500:54 0.000850849
15 *500:41 0.000638309
16 *500:37 0.000608795
17 *500:31 0.00121926
18 *500:21 0.0012134
19 *500:12 0.000352539
20 *500:10 0.00328553
21 *2553:A0 *2548:A1 3.97677e-05
22 *2553:A0 *2553:S 9.90431e-05
23 *2553:A0 *2753:A 0.000313474
24 *2560:A0 *2560:A1 9.83388e-05
25 *2560:A0 *2724:A1 0.000141729
26 *2560:A0 *511:55 2.03647e-05
27 *2565:A0 *2565:A1 6.05161e-06
28 *2570:A0 *2570:A1 5.52238e-05
29 *2570:A0 *812:8 1.00073e-05
30 *2575:A0 *2573:A0 0.000183767
31 *2575:A0 *2806:B2 1.62144e-05
32 *2575:A0 *511:55 7.70675e-05
33 *2575:A0 *816:8 1.3457e-05
34 *2585:A0 *2585:A1 6.05161e-06
35 *2585:A0 *806:10 2.59355e-05
36 *3099:A0 *2772:A1 3.64514e-05
37 *3099:A0 *726:20 0.000150279
38 *3120:A0 *601:42 5.33005e-05
39 *3130:A0 *2776:A1 2.8266e-06
40 *3130:A0 *3130:S 0.00010096
41 *3130:A0 *3224:CLK 2.42054e-05
42 *3130:A0 *518:10 0.000744553
43 *500:10 *3118:A1 3.92854e-05
44 *500:10 *3120:S 0
45 *500:10 *3128:A0 5.40587e-05
46 *500:10 *511:100 8.99326e-05
47 *500:12 *601:42 0.000478999
48 *500:31 *2585:S 5.33005e-05
49 *500:31 *2589:A 0
50 *500:31 *2591:A 1.88048e-05
51 *500:31 *2722:A1 0.000140088
52 *500:31 *3120:S 9.14786e-05
53 *500:31 *511:79 0.000313776
54 *500:31 *511:96 3.88131e-05
55 *500:31 *544:22 0.000299107
56 *500:31 *807:6 0.000354683
57 *500:37 *2563:A1 0.000175274
58 *500:37 *2565:S 0.000197523
59 *500:37 *2722:B2 0
60 *500:37 *511:66 8.80814e-05
61 *500:37 *511:79 0.000188449
62 *500:37 *532:18 1.22506e-05
63 *500:41 *2565:S 3.2923e-05
64 *500:41 *2568:S 8.07951e-05
65 *500:41 *2807:A1 0
66 *500:41 *3347:A 0
67 *500:41 *511:66 0.000353014
68 *500:41 *535:14 4.73656e-05
69 *500:54 *2570:A1 0.000139208
70 *500:54 *2806:B2 4.42631e-05
71 *500:54 *812:8 3.21277e-05
72 *500:131 *3227:CLK 0.000620127
73 *500:131 *601:42 0.000294913
74 *500:131 *601:55 9.41642e-05
75 *500:131 *748:14 0.000909058
76 *500:131 *831:6 0.000448314
77 *500:131 *832:10 6.04503e-05
78 *500:139 *2549:A 0.000351389
79 *2622:A *500:31 0
80 *2703:C *3099:A0 6.67152e-05
81 *2753:B *2553:A0 0.000158112
82 *2753:C *2553:A0 0.00029018
83 *2772:A2 *3099:A0 2.51528e-05
84 *3111:A *500:131 0.000267377
85 *3224:D *3130:A0 1.76204e-05
86 *3227:D *500:131 0.000141237
87 *3295:A *500:131 0
88 *177:10 *3099:A0 0.000176536
89 *177:10 *500:131 8.72919e-05
90 *177:100 *3099:A0 0.000147378
91 *181:34 *500:131 0.000114992
92 *192:22 *500:139 0.000410643
93 *192:26 *500:139 0.000559096
94 *197:128 *3130:A0 3.79258e-05
95 *197:134 *3130:A0 1.12323e-05
96 *197:134 *500:31 0.00125181
97 *245:14 *2553:A0 9.55226e-05
98 *365:22 *3099:A0 0.000702221
99 *365:22 *500:131 8.55772e-05
100 *395:53 *500:131 0.00011294
101 *442:16 *500:10 0.000304014
102 *476:31 *2553:A0 5.33005e-05
103 *476:31 *500:139 0.000102474
*RES
1 *3098:X *500:10 25.7107 
2 *500:10 *500:12 4.64286 
3 *500:12 *3120:A0 9.83571 
4 *500:12 *500:21 4.5 
5 *500:21 *500:31 33.8571 
6 *500:31 *500:37 7.76786 
7 *500:37 *500:41 12.8214 
8 *500:41 *2570:A0 10.2464 
9 *500:41 *500:54 8.42857 
10 *500:54 *2575:A0 23.9964 
11 *500:54 *2560:A0 15.1571 
12 *500:37 *2565:A0 14.3357 
13 *500:31 *2585:A0 14.3357 
14 *500:21 *3130:A0 22.2464 
15 *500:10 *500:131 36.2328 
16 *500:131 *500:139 21.1964 
17 *500:139 *2553:A0 17.6571 
18 *500:139 *2548:A0 9.3 
19 *500:131 *3099:A0 25.1036 
*END

*D_NET *501 0.00109501
*CONN
*I *3100:A I *D sky130_fd_sc_hd__clkbuf_1
*I *3099:X O *D sky130_fd_sc_hd__mux2_1
*CAP
1 *3100:A 0.000380075
2 *3099:X 0.000380075
3 *2778:B *3100:A 1.83136e-05
4 *177:100 *3100:A 0.000188574
5 *374:141 *3100:A 0.000100328
6 *391:37 *3100:A 2.76457e-05
*RES
1 *3099:X *3100:A 33.6179 
*END

*D_NET *502 0.0011795
*CONN
*I *3102:S I *D sky130_fd_sc_hd__mux2_1
*I *3104:S I *D sky130_fd_sc_hd__mux2_1
*I *3101:Y O *D sky130_fd_sc_hd__nor2_1
*CAP
1 *3102:S 0.00013457
2 *3104:S 0.000160639
3 *3101:Y 0
4 *502:6 0.000295209
5 *3102:S *3104:A0 5.54817e-06
6 *3104:S *2714:A1 0.000145197
7 *3104:S *3104:A0 3.75959e-05
8 *3104:S *834:8 0.000272338
9 *3060:B *3102:S 3.2923e-05
10 *3102:A1 *3102:S 6.6953e-05
11 *476:98 *3102:S 2.85234e-05
*RES
1 *3101:Y *502:6 13.8 
2 *502:6 *3104:S 18.3357 
3 *502:6 *3102:S 16.1929 
*END

*D_NET *503 0.00035825
*CONN
*I *3103:A I *D sky130_fd_sc_hd__clkbuf_1
*I *3102:X O *D sky130_fd_sc_hd__mux2_1
*CAP
1 *3103:A 0.000106039
2 *3102:X 0.000106039
3 *3103:A *2776:A1 8.95763e-05
4 *3103:A *3105:A 5.65955e-05
*RES
1 *3102:X *3103:A 21.225 
*END

*D_NET *504 0.00136116
*CONN
*I *3105:A I *D sky130_fd_sc_hd__clkbuf_1
*I *3104:X O *D sky130_fd_sc_hd__mux2_1
*CAP
1 *3105:A 0.000304688
2 *3104:X 0.000304688
3 *3105:A *2714:A1 0.000226274
4 *3105:A *2776:A1 0.000389981
5 *3105:A *3102:A0 7.89362e-05
6 *3103:A *3105:A 5.65955e-05
*RES
1 *3104:X *3105:A 34.0107 
*END

*D_NET *505 0.00186859
*CONN
*I *3107:S I *D sky130_fd_sc_hd__mux2_1
*I *3109:S I *D sky130_fd_sc_hd__mux2_1
*I *3106:Y O *D sky130_fd_sc_hd__nor2_1
*CAP
1 *3107:S 0.000258053
2 *3109:S 5.92852e-05
3 *3106:Y 0.000126404
4 *505:6 0.000443742
5 *3107:S *3107:A0 9.60939e-05
6 *3107:S *3112:A0 0
7 *3107:S *3428:A 0.000145405
8 *3109:S *832:10 2.59355e-05
9 *505:6 *832:10 0.000138582
10 *2769:B *505:6 0.000137983
11 *2800:B1 *3107:S 0
12 *192:36 *3107:S 2.61099e-05
13 *350:83 *3107:S 0.000187347
14 *358:138 *3107:S 0.000203732
15 *476:31 *505:6 1.24368e-05
16 *476:56 *505:6 7.48301e-06
*RES
1 *3106:Y *505:6 12.3 
2 *505:6 *3109:S 10.2643 
3 *505:6 *3107:S 25.3357 
*END

*D_NET *506 0.00136411
*CONN
*I *3108:A I *D sky130_fd_sc_hd__clkbuf_1
*I *3107:X O *D sky130_fd_sc_hd__mux2_1
*CAP
1 *3108:A 0.000328309
2 *3107:X 0.000328309
3 *3108:A *3112:A0 2.97829e-05
4 *3108:A *830:8 0.00014183
5 *3111:A *3108:A 0.000144215
6 *235:20 *3108:A 0.000306791
7 *399:34 *3108:A 8.48709e-05
*RES
1 *3107:X *3108:A 34.2607 
*END

*D_NET *507 0.00220108
*CONN
*I *3110:A I *D sky130_fd_sc_hd__clkbuf_1
*I *3109:X O *D sky130_fd_sc_hd__mux2_1
*CAP
1 *3110:A 0.000553209
2 *3109:X 0.000553209
3 *3110:A *2768:A 9.6087e-05
4 *2730:D1 *3110:A 0
5 *2768:B *3110:A 7.65804e-05
6 *2768:C *3110:A 3.61166e-05
7 *2770:B1 *3110:A 0.000400069
8 *2770:C1 *3110:A 1.02504e-05
9 *3091:A1 *3110:A 0.000227539
10 *358:114 *3110:A 4.94435e-05
11 *358:138 *3110:A 0.000198574
*RES
1 *3109:X *3110:A 40.6714 
*END

*D_NET *508 0.00119262
*CONN
*I *3114:S I *D sky130_fd_sc_hd__mux2_1
*I *3112:S I *D sky130_fd_sc_hd__mux2_1
*I *3111:Y O *D sky130_fd_sc_hd__nor2_1
*CAP
1 *3114:S 0
2 *3112:S 0.000192179
3 *3111:Y 2.73219e-05
4 *508:6 0.0002195
5 *3112:S *3114:A0 0.000286161
6 *3112:S *748:24 7.56549e-05
7 *3112:S *748:39 2.86273e-05
8 *3227:D *3112:S 2.49484e-05
9 *267:44 *508:6 0.000140933
10 *358:114 *3112:S 3.22095e-05
11 *399:34 *3112:S 1.08175e-05
12 *476:56 *508:6 5.52238e-05
13 *476:66 *508:6 9.90431e-05
*RES
1 *3111:Y *508:6 10.6571 
2 *508:6 *3112:S 23.2821 
3 *508:6 *3114:S 9.3 
*END

*D_NET *509 0.00144596
*CONN
*I *3113:A I *D sky130_fd_sc_hd__clkbuf_1
*I *3112:X O *D sky130_fd_sc_hd__mux2_1
*CAP
1 *3113:A 0.000254533
2 *3112:X 0.000254533
3 *3113:A *2711:A 0
4 *2711:C *3113:A 9.57165e-05
5 *267:44 *3113:A 0.000358696
6 *285:22 *3113:A 0.000309887
7 *476:66 *3113:A 0.00017259
*RES
1 *3112:X *3113:A 35.0821 
*END

*D_NET *510 0.00211735
*CONN
*I *3115:A I *D sky130_fd_sc_hd__clkbuf_1
*I *3114:X O *D sky130_fd_sc_hd__mux2_1
*CAP
1 *3115:A 0.00043193
2 *3114:X 0.00043193
3 *3115:A *2711:B 5.71472e-05
4 *3115:A *2773:A 9.60939e-05
5 *3115:A *2776:A2 5.33005e-05
6 *3115:A *3229:CLK 3.17148e-05
7 *3115:A *601:42 5.33005e-05
8 *3115:A *601:55 4.08637e-05
9 *3115:A *726:28 2.24646e-05
10 *3115:A *726:38 0.000191403
11 *2712:B1 *3115:A 9.90431e-05
12 *267:44 *3115:A 0.000515882
13 *445:8 *3115:A 9.22797e-05
*RES
1 *3114:X *3115:A 38.1 
*END

*D_NET *511 0.0416482
*CONN
*I *3133:A0 I *D sky130_fd_sc_hd__mux2_1
*I *2551:A0 I *D sky130_fd_sc_hd__mux2_1
*I *2558:A0 I *D sky130_fd_sc_hd__mux2_1
*I *2588:A0 I *D sky130_fd_sc_hd__mux2_1
*I *3128:A0 I *D sky130_fd_sc_hd__mux2_1
*I *3118:A0 I *D sky130_fd_sc_hd__mux2_1
*I *2583:A0 I *D sky130_fd_sc_hd__mux2_1
*I *2563:A0 I *D sky130_fd_sc_hd__mux2_1
*I *2568:A0 I *D sky130_fd_sc_hd__mux2_1
*I *2573:A0 I *D sky130_fd_sc_hd__mux2_1
*I *3116:X O *D sky130_fd_sc_hd__clkbuf_4
*CAP
1 *3133:A0 0.000843907
2 *2551:A0 0
3 *2558:A0 0
4 *2588:A0 2.74371e-05
5 *3128:A0 0.000831262
6 *3118:A0 0
7 *2583:A0 0
8 *2563:A0 0
9 *2568:A0 5.54784e-05
10 *2573:A0 0.000327402
11 *3116:X 0.000774418
12 *511:150 0.00364395
13 *511:100 0.00112389
14 *511:96 0.000753484
15 *511:79 0.000819309
16 *511:66 0.000835682
17 *511:55 0.000879862
18 *511:34 0.000836409
19 *511:30 0.00170105
20 *511:18 0.00440756
21 *511:10 0.00641539
22 *2568:A0 *2561:A 4.35567e-05
23 *2568:A0 *2568:S 0.000144773
24 *2568:A0 *2724:A1 2.14658e-05
25 *2568:A0 *813:10 0.000229456
26 *2573:A0 *2573:S 0
27 *2573:A0 *2575:A1 0
28 *2573:A0 *2576:A 8.00806e-05
29 *2573:A0 *529:8 0
30 *2588:A0 *931:8 2.59355e-05
31 *3128:A0 *3119:A 0.00012356
32 *3128:A0 *3120:A1 0.000170964
33 *3128:A0 *3120:S 0
34 *3128:A0 *3128:A1 3.05446e-05
35 *3128:A0 *3128:S 1.97695e-05
36 *3128:A0 *3131:A 9.30251e-06
37 *3128:A0 *601:42 6.59531e-05
38 *3133:A0 *2547:A 9.58632e-05
39 *3133:A0 *2551:S 0.000166093
40 *3133:A0 *3133:S 0.000131576
41 *3133:A0 *3383:A 0
42 *3133:A0 *521:10 9.67754e-05
43 *3133:A0 *524:10 0.000380053
44 *3133:A0 *775:61 0.00014396
45 *511:10 *608:37 0.000173083
46 *511:10 *796:30 3.4467e-05
47 *511:18 *2636:A 9.58126e-05
48 *511:18 *2930:A0 2.67113e-05
49 *511:30 *2558:A1 0.000182694
50 *511:30 *2805:B2 0.000266092
51 *511:30 *3262:CLK 9.40071e-05
52 *511:30 *591:14 0.00027032
53 *511:34 *591:14 0.000272603
54 *511:55 *2560:A1 2.88725e-05
55 *511:55 *2560:S 0.000108829
56 *511:55 *2568:S 0.000129515
57 *511:55 *2724:A1 0.00011363
58 *511:55 *529:8 0
59 *511:55 *816:8 0.000100823
60 *511:66 *2568:S 3.75052e-05
61 *511:66 *3345:A 0.000320031
62 *511:66 *591:92 0
63 *511:79 *2563:A1 0.000175274
64 *511:79 *2585:S 0
65 *511:79 *3459:A 0
66 *511:79 *598:72 0.00031614
67 *511:96 *2585:S 5.33005e-05
68 *511:96 *3459:A 0
69 *511:96 *544:22 0.000228791
70 *511:96 *598:66 0.000186815
71 *511:96 *598:72 1.32056e-05
72 *511:96 *931:8 9.7659e-05
73 *511:100 *3118:A1 7.83659e-05
74 *511:150 *3383:A 0
75 *511:150 *590:108 9.06546e-05
76 *511:150 *608:37 0.000128921
77 *2550:B *3133:A0 0.000121838
78 *2560:A0 *511:55 2.03647e-05
79 *2575:A0 *2573:A0 0.000183767
80 *2575:A0 *511:55 7.70675e-05
81 *2602:A *511:18 0.000115838
82 *2622:A *3128:A0 6.14969e-05
83 *2622:A *511:100 0.000416349
84 *2791:B *511:150 4.22986e-05
85 *2812:B1 *511:18 7.12975e-05
86 *2812:C1 *511:18 0.000104088
87 *2817:A1 *511:10 0.000206325
88 *2838:A *511:18 9.71197e-05
89 *2930:S *511:18 5.33334e-05
90 *2953:B *511:150 0.00264488
91 *2989:A *3133:A0 9.75173e-05
92 *2989:A *511:150 0
93 *3065:A *3133:A0 1.94066e-05
94 *3067:A *3133:A0 0.000197995
95 *3230:D *3128:A0 5.33005e-05
96 *3238:D *511:150 0
97 *3243:D *511:66 0
98 *3251:D *511:79 0
99 *3252:D *511:96 4.13122e-06
100 *3262:D *511:30 0.000128546
101 *197:134 *511:96 0.000150618
102 *202:107 *511:100 0
103 *231:116 *511:18 0.000306311
104 *316:78 *511:30 0.000140011
105 *321:75 *511:18 0.00121922
106 *325:49 *511:18 0.00022766
107 *325:57 *511:18 4.58194e-05
108 *328:149 *511:10 6.8646e-06
109 *328:149 *511:150 0.000173587
110 *351:95 *511:10 0.000148903
111 *351:95 *511:18 0.00102967
112 *351:114 *511:18 0.000484102
113 *355:34 *3133:A0 0.000114553
114 *358:36 *2573:A0 0
115 *358:57 *511:100 0.000344932
116 *361:30 *3133:A0 5.63882e-05
117 *361:30 *511:150 0.000298879
118 *371:79 *511:30 0.000897427
119 *415:50 *3133:A0 0.000127588
120 *432:14 *3133:A0 4.96352e-05
121 *476:125 *3133:A0 0.00010269
122 *500:10 *3128:A0 5.40587e-05
123 *500:10 *511:100 8.99326e-05
124 *500:31 *511:79 0.000313776
125 *500:31 *511:96 3.88131e-05
126 *500:37 *511:66 8.80814e-05
127 *500:37 *511:79 0.000188449
128 *500:41 *511:66 0.000353014
*RES
1 *3116:X *511:10 24.8 
2 *511:10 *511:18 49.125 
3 *511:18 *511:30 33.2679 
4 *511:30 *511:34 7.08929 
5 *511:34 *2573:A0 20.5321 
6 *511:34 *511:55 12.1429 
7 *511:55 *2568:A0 11.8893 
8 *511:55 *511:66 16.4643 
9 *511:66 *2563:A0 13.8 
10 *511:66 *511:79 15.2143 
11 *511:79 *2583:A0 9.3 
12 *511:79 *511:96 19.0179 
13 *511:96 *511:100 14.3393 
14 *511:100 *3118:A0 13.8 
15 *511:100 *3128:A0 28.8179 
16 *511:96 *2588:A0 9.83571 
17 *511:30 *2558:A0 9.3 
18 *511:10 *511:150 25.5019 
19 *511:150 *2551:A0 13.8 
20 *511:150 *3133:A0 33.425 
*END

*D_NET *512 0.00115686
*CONN
*I *3118:S I *D sky130_fd_sc_hd__mux2_1
*I *3120:S I *D sky130_fd_sc_hd__mux2_1
*I *3117:X O *D sky130_fd_sc_hd__or2_1
*CAP
1 *3118:S 0
2 *3120:S 0.000246536
3 *3117:X 5.86082e-05
4 *512:6 0.000305144
5 *3120:S *3119:A 2.14757e-05
6 *3120:S *829:14 0.000314139
7 *512:6 *829:14 0.000119483
8 *2622:A *3120:S 0
9 *3128:A0 *3120:S 0
10 *500:10 *3120:S 0
11 *500:31 *3120:S 9.14786e-05
*RES
1 *3117:X *512:6 10.6571 
2 *512:6 *3120:S 23.9607 
3 *512:6 *3118:S 9.3 
*END

*D_NET *513 0.00128724
*CONN
*I *3119:A I *D sky130_fd_sc_hd__clkbuf_1
*I *3118:X O *D sky130_fd_sc_hd__mux2_1
*CAP
1 *3119:A 0.000341932
2 *3118:X 0.000341932
3 *3119:A *3121:A 2.34969e-05
4 *3119:A *601:42 0.000228784
5 *3119:A *829:14 5.71472e-05
6 *3120:S *3119:A 2.14757e-05
7 *3128:A0 *3119:A 0.00012356
8 *197:134 *3119:A 0.000148911
*RES
1 *3118:X *3119:A 34.3143 
*END

*D_NET *514 0.000841741
*CONN
*I *3121:A I *D sky130_fd_sc_hd__clkbuf_1
*I *3120:X O *D sky130_fd_sc_hd__mux2_1
*CAP
1 *3121:A 0.00032766
2 *3120:X 0.00032766
3 *3121:A *601:22 5.01883e-05
4 *3119:A *3121:A 2.34969e-05
5 *3230:D *3121:A 0.000112736
*RES
1 *3120:X *3121:A 33.7786 
*END

*D_NET *515 0.00120852
*CONN
*I *3125:S I *D sky130_fd_sc_hd__mux2_1
*I *3123:S I *D sky130_fd_sc_hd__mux2_1
*I *3122:Y O *D sky130_fd_sc_hd__nor2_1
*CAP
1 *3125:S 0.0001257
2 *3123:S 6.13304e-05
3 *3122:Y 4.23896e-05
4 *515:10 0.00022942
5 *3123:S *3123:A0 4.58194e-05
6 *3123:S *3126:A 4.82947e-05
7 *3125:S *2786:A 6.97609e-05
8 *3125:S *3123:A0 0.000120628
9 *3125:S *3125:A0 5.49489e-05
10 *3125:S *3126:A 2.12005e-05
11 *515:10 *594:26 0.000125731
12 *358:138 *3125:S 0.000137561
13 *370:54 *515:10 0.000125731
*RES
1 *3122:Y *515:10 19.9429 
2 *515:10 *3123:S 10.675 
3 *515:10 *3125:S 12.7286 
*END

*D_NET *516 0.000220489
*CONN
*I *3124:A I *D sky130_fd_sc_hd__clkbuf_1
*I *3123:X O *D sky130_fd_sc_hd__mux2_1
*CAP
1 *3124:A 6.81963e-05
2 *3123:X 6.81963e-05
3 *3124:A *3126:A 4.48206e-05
4 *3124:A *737:34 0
5 *3233:D *3124:A 3.92757e-05
*RES
1 *3123:X *3124:A 29.2429 
*END

*D_NET *517 0.00153324
*CONN
*I *3126:A I *D sky130_fd_sc_hd__clkbuf_1
*I *3125:X O *D sky130_fd_sc_hd__mux2_1
*CAP
1 *3126:A 0.000307571
2 *3125:X 0.000307571
3 *3126:A *2786:A 0.000573297
4 *3126:A *3123:A0 1.40034e-05
5 *3126:A *3382:A 3.57366e-05
6 *3123:A1 *3126:A 5.33005e-05
7 *3123:S *3126:A 4.82947e-05
8 *3124:A *3126:A 4.48206e-05
9 *3125:S *3126:A 2.12005e-05
10 *202:14 *3126:A 0.000127446
*RES
1 *3125:X *3126:A 36.0464 
*END

*D_NET *518 0.0044217
*CONN
*I *3130:S I *D sky130_fd_sc_hd__mux2_1
*I *3128:S I *D sky130_fd_sc_hd__mux2_1
*I *3127:X O *D sky130_fd_sc_hd__or2_1
*CAP
1 *3130:S 8.13719e-05
2 *3128:S 0.000136474
3 *3127:X 0.00109706
4 *518:10 0.0013149
5 *3128:S *3128:A1 7.6644e-05
6 *3128:S *3131:A 4.73575e-05
7 *3128:S *601:14 0
8 *3128:S *601:22 0
9 *3128:S *823:14 3.06878e-06
10 *3130:S *3130:A1 5.71472e-05
11 *3130:S *3224:CLK 0
12 *3130:S *823:14 3.14193e-05
13 *518:10 *2776:A1 0.000577016
14 *518:10 *2776:A2 7.02611e-05
15 *518:10 *3102:A0 1.03968e-05
16 *3128:A0 *3128:S 1.97695e-05
17 *3130:A0 *3130:S 0.00010096
18 *3130:A0 *518:10 0.000744553
19 *267:44 *518:10 5.33005e-05
*RES
1 *3127:X *518:10 25.5857 
2 *518:10 *3128:S 20.9071 
3 *518:10 *3130:S 11.8179 
*END

*D_NET *519 0.00127279
*CONN
*I *3129:A I *D sky130_fd_sc_hd__clkbuf_1
*I *3128:X O *D sky130_fd_sc_hd__mux2_1
*CAP
1 *3129:A 0.000530571
2 *3128:X 0.000530571
3 *3129:A *3131:A 0.000154497
4 *3129:A *3234:CLK 0
5 *3235:D *3129:A 5.71472e-05
*RES
1 *3128:X *3129:A 36.7964 
*END

*D_NET *520 0.000685956
*CONN
*I *3131:A I *D sky130_fd_sc_hd__clkbuf_1
*I *3130:X O *D sky130_fd_sc_hd__mux2_1
*CAP
1 *3131:A 0.0002374
2 *3130:X 0.0002374
3 *3128:A0 *3131:A 9.30251e-06
4 *3128:S *3131:A 4.73575e-05
5 *3129:A *3131:A 0.000154497
6 *3235:D *3131:A 0
*RES
1 *3130:X *3131:A 32.6179 
*END

*D_NET *521 0.00172123
*CONN
*I *3133:S I *D sky130_fd_sc_hd__mux2_1
*I *2548:S I *D sky130_fd_sc_hd__mux2_1
*I *3132:X O *D sky130_fd_sc_hd__or2_1
*CAP
1 *3133:S 0.000174042
2 *2548:S 0.000128774
3 *3132:X 4.60594e-05
4 *521:10 0.000348876
5 *3133:S *759:22 4.37645e-05
6 *2753:C *2548:S 5.7616e-05
7 *3122:B *2548:S 9.25014e-06
8 *3133:A0 *3133:S 0.000131576
9 *3133:A0 *521:10 9.67754e-05
10 *212:20 *2548:S 0.000140744
11 *212:20 *521:10 2.50593e-05
12 *432:14 *3133:S 4.13372e-05
13 *476:14 *2548:S 0.000334565
14 *476:14 *521:10 4.60131e-05
15 *476:125 *521:10 9.67754e-05
*RES
1 *3132:X *521:10 15.4786 
2 *521:10 *2548:S 18.175 
3 *521:10 *3133:S 16.8357 
*END

*D_NET *522 0.00127745
*CONN
*I *2547:A I *D sky130_fd_sc_hd__clkbuf_1
*I *3133:X O *D sky130_fd_sc_hd__mux2_1
*CAP
1 *2547:A 0.000346005
2 *3133:X 0.000346005
3 *3133:A0 *2547:A 9.58632e-05
4 *212:14 *2547:A 0
5 *212:20 *2547:A 0.000414194
6 *474:12 *2547:A 7.53822e-05
*RES
1 *3133:X *2547:A 34.4393 
*END

*D_NET *523 0.00118687
*CONN
*I *2549:A I *D sky130_fd_sc_hd__clkbuf_1
*I *2548:X O *D sky130_fd_sc_hd__mux2_1
*CAP
1 *2549:A 0.000291639
2 *2548:X 0.000291639
3 *2709:A3 *2549:A 0.000126958
4 *370:54 *2549:A 0.000125243
5 *500:139 *2549:A 0.000351389
*RES
1 *2548:X *2549:A 32.6536 
*END

*D_NET *524 0.00229177
*CONN
*I *2553:S I *D sky130_fd_sc_hd__mux2_1
*I *2551:S I *D sky130_fd_sc_hd__mux2_1
*I *2550:X O *D sky130_fd_sc_hd__or2_1
*CAP
1 *2553:S 5.38267e-05
2 *2551:S 0.000163696
3 *2550:X 0.000233578
4 *524:10 0.000451101
5 *2551:S *3383:A 4.22349e-05
6 *2551:S *3465:A 0.000137561
7 *2553:S *2554:A 5.49489e-05
8 *2553:S *2753:A 8.77219e-05
9 *524:10 *2553:A1 0
10 *524:10 *2554:A 5.41195e-05
11 *2553:A0 *2553:S 9.90431e-05
12 *2753:B *2553:S 0.000314493
13 *2989:A *2551:S 0
14 *2989:A *524:10 0
15 *3133:A0 *2551:S 0.000166093
16 *3133:A0 *524:10 0.000380053
17 *361:30 *2551:S 5.33005e-05
*RES
1 *2550:X *524:10 18.7107 
2 *524:10 *2551:S 17.4071 
3 *524:10 *2553:S 16.8 
*END

*D_NET *525 0.000568815
*CONN
*I *2552:A I *D sky130_fd_sc_hd__clkbuf_1
*I *2551:X O *D sky130_fd_sc_hd__mux2_1
*CAP
1 *2552:A 0.000145388
2 *2551:X 0.000145388
3 *2552:A *3383:A 0.000133361
4 *2552:A *3465:A 9.03409e-05
5 *2749:C *2552:A 2.84026e-05
6 *3238:D *2552:A 2.59355e-05
*RES
1 *2551:X *2552:A 21.9214 
*END

*D_NET *526 0.00175094
*CONN
*I *2554:A I *D sky130_fd_sc_hd__clkbuf_1
*I *2553:X O *D sky130_fd_sc_hd__mux2_1
*CAP
1 *2554:A 0.000296915
2 *2553:X 0.000296915
3 *2554:A *2553:A1 0
4 *2554:A *2753:A 0.000513175
5 *2554:A *3239:CLK 9.51506e-05
6 *2553:S *2554:A 5.49489e-05
7 *2753:B *2554:A 0.000192676
8 *3239:D *2554:A 9.83259e-05
9 *211:14 *2554:A 0.000148708
10 *524:10 *2554:A 5.41195e-05
*RES
1 *2553:X *2554:A 37.2429 
*END

*D_NET *527 0.0213238
*CONN
*I *2562:B I *D sky130_fd_sc_hd__or2_1
*I *2556:B I *D sky130_fd_sc_hd__or2_2
*I *2592:C I *D sky130_fd_sc_hd__or3_1
*I *2587:B I *D sky130_fd_sc_hd__or2_1
*I *2582:B I *D sky130_fd_sc_hd__or2_1
*I *2572:B I *D sky130_fd_sc_hd__or2_1
*I *2567:B I *D sky130_fd_sc_hd__or2_1
*I *2577:B I *D sky130_fd_sc_hd__nor2_1
*I *2555:X O *D sky130_fd_sc_hd__or3b_4
*CAP
1 *2562:B 0
2 *2556:B 0.000283754
3 *2592:C 9.26114e-06
4 *2587:B 0
5 *2582:B 7.41962e-05
6 *2572:B 1.645e-05
7 *2567:B 8.348e-05
8 *2577:B 0.000188478
9 *2555:X 0.000692623
10 *527:118 0.000770377
11 *527:89 0.000364557
12 *527:50 0.000768535
13 *527:40 0.000999435
14 *527:26 0.0025247
15 *527:14 0.00194947
16 *527:12 0.00137152
17 *2556:B *528:135 9.46571e-05
18 *2556:B *606:81 1.95763e-05
19 *2572:B *2626:A 9.90367e-05
20 *2577:B *2614:A 4.13595e-05
21 *2577:B *2724:A1 0
22 *2582:B *547:14 0.000186669
23 *527:12 *2751:A 0.000137983
24 *527:12 *607:46 6.24269e-05
25 *527:12 *619:39 0.000169252
26 *527:12 *652:6 4.87953e-05
27 *527:12 *652:23 5.50313e-05
28 *527:14 *532:18 0.000505913
29 *527:26 *2805:B2 0.000314114
30 *527:26 *532:18 0.00272878
31 *527:26 *600:81 1.94945e-05
32 *527:40 *2612:B 4.74522e-05
33 *527:40 *2622:B 9.0573e-05
34 *527:40 *2805:B2 0
35 *527:40 *748:24 0.000191575
36 *527:50 *2612:B 3.32054e-05
37 *527:50 *538:22 9.71197e-05
38 *527:89 *748:24 0.00011764
39 *527:118 *532:18 0.000379164
40 *2572:A *527:40 0.000437114
41 *2572:A *527:50 1.89507e-06
42 *2577:A *2577:B 9.60875e-05
43 *2587:A *2582:B 9.71197e-05
44 *2587:A *527:89 0.000140933
45 *2727:B1 *527:50 3.34687e-05
46 *2752:C1 *527:12 4.43142e-05
47 *2762:B *527:12 0.000111918
48 *2762:B *527:89 0
49 *2782:C *527:12 1.79251e-05
50 *2790:A2 *527:12 6.26165e-05
51 *2807:B1 *2572:B 9.90367e-05
52 *2807:B1 *527:50 0.000131342
53 *2808:A1 *527:50 0
54 *2808:A3 *2567:B 4.87854e-05
55 *2808:A3 *527:50 0.000151816
56 *2897:A *2556:B 1.32056e-05
57 *2914:A *527:26 0.000369067
58 *2998:S *527:12 3.92854e-05
59 *3184:D *2592:C 6.27272e-06
60 *3267:D *527:40 3.2534e-05
61 *174:104 *527:26 2.50474e-05
62 *177:28 *527:12 6.6043e-05
63 *181:50 *527:89 0
64 *187:96 *527:12 0.00018857
65 *211:71 *527:118 8.00837e-05
66 *211:85 *527:14 0.000146168
67 *211:85 *527:26 0.000627612
68 *211:85 *527:118 8.39559e-05
69 *215:86 *2556:B 5.15762e-05
70 *215:108 *527:40 0.000223102
71 *218:108 *527:12 0.000122614
72 *221:16 *2582:B 0.000354985
73 *221:16 *527:89 0.000127806
74 *231:14 *527:12 0.000820431
75 *281:24 *527:118 0.000107255
76 *323:26 *2556:B 4.24766e-06
77 *328:71 *2577:B 0.000128154
78 *328:71 *527:50 8.08022e-05
79 *350:42 *2556:B 0.000117314
80 *350:42 *527:118 6.74804e-05
81 *350:118 *2577:B 0.000128154
82 *350:118 *527:50 0.000141382
83 *355:42 *2556:B 4.6025e-06
84 *355:42 *527:118 1.46648e-05
85 *370:8 *2556:B 0.000119237
86 *370:33 *2592:C 2.11419e-05
*RES
1 *2555:X *527:12 35.4332 
2 *527:12 *527:14 0.839733 
3 *527:14 *527:26 23.4876 
4 *527:26 *527:40 20.8214 
5 *527:40 *527:50 17.0357 
6 *527:50 *2577:B 18.0679 
7 *527:50 *2567:B 15.1571 
8 *527:40 *2572:B 14.7464 
9 *527:26 *527:89 10.8393 
10 *527:89 *2582:B 12.7107 
11 *527:89 *2587:B 9.3 
12 *527:14 *2592:C 17.4868 
13 *527:12 *527:118 6.49208 
14 *527:118 *2556:B 19.7464 
15 *527:118 *2562:B 13.8 
*END

*D_NET *528 0.0278202
*CONN
*I *2632:B I *D sky130_fd_sc_hd__or2_1
*I *2627:B I *D sky130_fd_sc_hd__or2_1
*I *2607:B I *D sky130_fd_sc_hd__or2_1
*I *2602:B I *D sky130_fd_sc_hd__or2_1
*I *2617:B I *D sky130_fd_sc_hd__or2_1
*I *2597:B I *D sky130_fd_sc_hd__nor2_1
*I *2557:B I *D sky130_fd_sc_hd__or2_1
*I *2622:B I *D sky130_fd_sc_hd__or2_1
*I *2612:B I *D sky130_fd_sc_hd__or2_1
*I *2556:X O *D sky130_fd_sc_hd__or2_2
*CAP
1 *2632:B 0.000693239
2 *2627:B 0
3 *2607:B 4.22522e-05
4 *2602:B 0.00018618
5 *2617:B 0
6 *2597:B 2.45212e-05
7 *2557:B 0.000896073
8 *2622:B 0.000991855
9 *2612:B 0.000235438
10 *2556:X 0
11 *528:135 0.000813066
12 *528:82 0.00134203
13 *528:72 0.000938201
14 *528:66 0.0010337
15 *528:62 0.000646375
16 *528:28 0.00230969
17 *528:18 0.00376603
18 *528:4 0.00253009
19 *2557:B *2615:A1 2.05938e-05
20 *2557:B *538:22 7.6021e-05
21 *2557:B *817:10 0.000126629
22 *2557:B *892:8 0.000252371
23 *2597:B *553:10 6.05161e-06
24 *2602:B *556:8 5.33005e-05
25 *2607:B *600:37 0.000135028
26 *2622:B *2580:A0 3.98645e-05
27 *2622:B *2625:A1 0.000178503
28 *2622:B *2802:A2 2.76798e-05
29 *2632:B *2629:A 0.000146003
30 *2632:B *3271:CLK 7.20217e-06
31 *2632:B *574:8 1.92813e-05
32 *2632:B *608:37 0.000362472
33 *528:18 *600:12 0.000313198
34 *528:18 *737:34 7.83659e-05
35 *528:28 *3305:A 5.33005e-05
36 *528:28 *3330:A 1.92905e-05
37 *528:62 *590:24 1.94879e-05
38 *528:62 *590:35 0.000217973
39 *528:62 *590:52 1.90936e-05
40 *528:62 *600:12 3.17148e-05
41 *528:66 *2746:A1 1.27784e-05
42 *528:66 *2746:B2 0.000348429
43 *528:66 *2797:A1 0.00017309
44 *528:66 *925:10 7.90803e-05
45 *528:72 *2797:B2 0
46 *528:72 *599:59 0.000309243
47 *528:72 *925:10 7.6644e-05
48 *528:82 *2618:S 4.58194e-05
49 *528:82 *565:6 2.89114e-05
50 *2556:B *528:135 9.46571e-05
51 *2567:A *528:18 9.25014e-06
52 *2602:A *2602:B 5.45307e-05
53 *2607:A *2607:B 5.33005e-05
54 *2613:A0 *2612:B 0
55 *2618:A0 *528:72 0.000273269
56 *2618:A0 *528:82 0.000440711
57 *2627:A *2632:B 8.38433e-05
58 *2627:A *528:135 0.000435116
59 *2632:A *2632:B 0.000101355
60 *2683:B *2632:B 0.000169585
61 *2722:B1 *2622:B 0.000346268
62 *2727:A2 *528:82 0.000361914
63 *2727:B1 *2557:B 0.00034854
64 *2727:B1 *528:82 0.000115957
65 *2728:C *2557:B 0
66 *2747:B1 *528:62 0
67 *2747:B1 *528:66 0
68 *2798:B1 *528:66 0
69 *2804:B1 *2557:B 0
70 *2805:B1 *2612:B 7.06577e-05
71 *2807:B1 *2612:B 3.59472e-05
72 *2807:B1 *2622:B 8.283e-05
73 *2807:B1 *528:28 3.32631e-05
74 *2808:A1 *2612:B 0
75 *2808:B1 *2612:B 0
76 *2840:A *528:72 0.000100474
77 *2888:S *528:18 0.000153776
78 *2897:A *528:135 9.58126e-05
79 *2935:B *2607:B 9.60939e-05
80 *3157:D *528:28 5.33005e-05
81 *3157:D *528:62 9.25014e-06
82 *3258:D *2557:B 0
83 *3263:D *2557:B 0.000141583
84 *3267:D *2622:B 0
85 *3271:D *2632:B 0.000288564
86 *174:18 *2632:B 0.00014742
87 *181:50 *528:66 6.07232e-05
88 *181:56 *528:66 0
89 *187:112 *528:72 0.000228191
90 *187:112 *528:82 0.000109596
91 *197:134 *2622:B 2.28238e-05
92 *208:58 *2597:B 5.52238e-05
93 *215:86 *2632:B 9.76435e-06
94 *215:108 *2622:B 0.000538142
95 *316:70 *528:28 6.70761e-05
96 *321:75 *2602:B 1.82328e-05
97 *322:31 *528:18 0.000694747
98 *323:26 *2632:B 0.000151701
99 *323:26 *528:135 3.26548e-05
100 *328:30 *528:66 0.000133253
101 *328:30 *528:72 0.000241801
102 *328:149 *2632:B 0.000115054
103 *345:61 *2557:B 6.6833e-05
104 *345:79 *528:82 0.00012401
105 *358:30 *528:82 1.97291e-05
106 *358:57 *2622:B 6.53272e-05
107 *361:54 *528:18 6.73939e-05
108 *370:8 *528:135 2.18985e-05
109 *370:16 *528:18 0.00061838
110 *370:16 *528:135 9.66977e-05
111 *395:57 *528:62 8.17508e-05
112 *395:57 *528:66 3.17148e-05
113 *415:52 *2632:B 5.28594e-05
114 *527:40 *2612:B 4.74522e-05
115 *527:40 *2622:B 9.0573e-05
116 *527:50 *2612:B 3.32054e-05
*RES
1 *2556:X *528:4 9.3 
2 *528:4 *528:18 41.2321 
3 *528:18 *528:28 17.9286 
4 *528:28 *2612:B 18.1036 
5 *528:28 *2622:B 42.3 
6 *528:18 *528:62 10.0893 
7 *528:62 *528:66 8.85714 
8 *528:66 *528:72 17.3929 
9 *528:72 *528:82 15.4464 
10 *528:82 *2557:B 30.2286 
11 *528:82 *2597:B 14.3357 
12 *528:72 *2617:B 9.3 
13 *528:66 *2602:B 16.4071 
14 *528:62 *2607:B 15.1571 
15 *528:4 *528:135 4.64286 
16 *528:135 *2627:B 9.3 
17 *528:135 *2632:B 35.7464 
*END

*D_NET *529 0.00148396
*CONN
*I *2560:S I *D sky130_fd_sc_hd__mux2_1
*I *2558:S I *D sky130_fd_sc_hd__mux2_1
*I *2557:X O *D sky130_fd_sc_hd__or2_1
*CAP
1 *2560:S 0.000286173
2 *2558:S 0
3 *2557:X 9.18613e-05
4 *529:8 0.000378034
5 *2560:S *2560:A1 5.33433e-05
6 *2560:S *2724:A1 1.6704e-05
7 *2560:S *3439:A 0.000229214
8 *2573:A0 *529:8 0
9 *2724:B1 *2560:S 1.92789e-05
10 *358:36 *2560:S 0.000153047
11 *358:36 *529:8 0.000147474
12 *511:55 *2560:S 0.000108829
13 *511:55 *529:8 0
*RES
1 *2557:X *529:8 15.7464 
2 *529:8 *2558:S 13.8 
3 *529:8 *2560:S 20.4071 
*END

*D_NET *530 0.00156745
*CONN
*I *2559:A I *D sky130_fd_sc_hd__clkbuf_1
*I *2558:X O *D sky130_fd_sc_hd__mux2_1
*CAP
1 *2559:A 0.000584087
2 *2558:X 0.000584087
3 *2559:A *2561:A 7.43844e-05
4 *2559:A *591:14 0.000260262
5 *3241:D *2559:A 6.46302e-05
*RES
1 *2558:X *2559:A 27.2786 
*END

*D_NET *531 0.00119355
*CONN
*I *2561:A I *D sky130_fd_sc_hd__clkbuf_1
*I *2560:X O *D sky130_fd_sc_hd__mux2_1
*CAP
1 *2561:A 0.000413003
2 *2560:X 0.000413003
3 *2561:A *2568:S 0.000105163
4 *2561:A *2569:A 3.18676e-05
5 *2561:A *591:92 3.92757e-05
6 *2559:A *2561:A 7.43844e-05
7 *2568:A0 *2561:A 4.35567e-05
8 *3241:D *2561:A 7.32955e-05
*RES
1 *2560:X *2561:A 34.975 
*END

*D_NET *532 0.0147793
*CONN
*I *2563:S I *D sky130_fd_sc_hd__mux2_1
*I *2565:S I *D sky130_fd_sc_hd__mux2_1
*I *2562:X O *D sky130_fd_sc_hd__or2_1
*CAP
1 *2563:S 0
2 *2565:S 0.00011539
3 *2562:X 0.00453127
4 *532:18 0.00464666
5 *532:18 *2790:A1 5.49489e-05
6 *532:18 *606:81 9.02649e-06
7 *532:18 *606:102 1.60861e-05
8 *2762:B *532:18 0.000989358
9 *2762:C *532:18 1.90936e-05
10 *211:85 *532:18 5.97716e-05
11 *218:42 *532:18 6.55434e-05
12 *218:124 *532:18 0.000120339
13 *281:24 *532:18 2.59355e-05
14 *316:60 *532:18 6.93695e-05
15 *361:54 *532:18 0
16 *411:14 *532:18 0.000199976
17 *500:37 *2565:S 0.000197523
18 *500:37 *532:18 1.22506e-05
19 *500:41 *2565:S 3.2923e-05
20 *527:14 *532:18 0.000505913
21 *527:26 *532:18 0.00272878
22 *527:118 *532:18 0.000379164
*RES
1 *2562:X *532:18 35.139 
2 *532:18 *2565:S 16.6571 
3 *532:18 *2563:S 13.8 
*END

*D_NET *533 0.000514906
*CONN
*I *2564:A I *D sky130_fd_sc_hd__clkbuf_1
*I *2563:X O *D sky130_fd_sc_hd__mux2_1
*CAP
1 *2564:A 0.000257453
2 *2563:X 0.000257453
*RES
1 *2563:X *2564:A 23.1536 
*END

*D_NET *534 0.000286921
*CONN
*I *2566:A I *D sky130_fd_sc_hd__clkbuf_1
*I *2565:X O *D sky130_fd_sc_hd__mux2_1
*CAP
1 *2566:A 0.000143461
2 *2565:X 0.000143461
*RES
1 *2565:X *2566:A 21.1 
*END

*D_NET *535 0.00333018
*CONN
*I *2570:S I *D sky130_fd_sc_hd__mux2_1
*I *2568:S I *D sky130_fd_sc_hd__mux2_1
*I *2567:X O *D sky130_fd_sc_hd__or2_1
*CAP
1 *2570:S 0
2 *2568:S 0.000218539
3 *2567:X 0.00055972
4 *535:14 0.000778259
5 *2568:S *591:92 0
6 *535:14 *2806:A1 0.000203927
7 *535:14 *812:8 0.000369743
8 *2561:A *2568:S 0.000105163
9 *2568:A0 *2568:S 0.000144773
10 *2806:A2 *535:14 0.000285619
11 *2806:B1 *535:14 1.02821e-05
12 *2807:C1 *535:14 0.000358977
13 *500:41 *2568:S 8.07951e-05
14 *500:41 *535:14 4.73656e-05
15 *511:55 *2568:S 0.000129515
16 *511:66 *2568:S 3.75052e-05
*RES
1 *2567:X *535:14 25.8893 
2 *535:14 *2568:S 19.2464 
3 *535:14 *2570:S 13.8 
*END

*D_NET *536 0.000741035
*CONN
*I *2569:A I *D sky130_fd_sc_hd__clkbuf_1
*I *2568:X O *D sky130_fd_sc_hd__mux2_1
*CAP
1 *2569:A 0.000354584
2 *2568:X 0.000354584
3 *2561:A *2569:A 3.18676e-05
4 *3244:D *2569:A 0
*RES
1 *2568:X *2569:A 32.9214 
*END

*D_NET *537 0.000829091
*CONN
*I *2571:A I *D sky130_fd_sc_hd__clkbuf_1
*I *2570:X O *D sky130_fd_sc_hd__mux2_1
*CAP
1 *2571:A 0.000318502
2 *2570:X 0.000318502
3 *2571:A *2568:A1 2.56694e-05
4 *2571:A *3345:A 0
5 *2571:A *591:92 2.38671e-05
6 *2571:A *812:8 0.00010096
7 *3245:D *2571:A 4.15914e-05
*RES
1 *2570:X *2571:A 32.5464 
*END

*D_NET *538 0.00430092
*CONN
*I *2575:S I *D sky130_fd_sc_hd__mux2_1
*I *2573:S I *D sky130_fd_sc_hd__mux2_1
*I *2572:X O *D sky130_fd_sc_hd__or2_1
*CAP
1 *2575:S 0
2 *2573:S 0.000172313
3 *2572:X 0.00105101
4 *538:22 0.00122332
5 *2573:S *2573:A1 7.31907e-05
6 *2573:S *2575:A1 0.000100823
7 *2573:S *2576:A 0
8 *538:22 *2615:A1 2.28499e-05
9 *538:22 *562:14 0
10 *2557:B *538:22 7.6021e-05
11 *2573:A0 *2573:S 0
12 *2577:A *538:22 0.000148903
13 *2613:A0 *538:22 4.43698e-05
14 *2615:A0 *538:22 5.33005e-05
15 *2727:B1 *538:22 0.000493287
16 *2807:B1 *538:22 2.14658e-05
17 *2808:A2 *538:22 0
18 *2808:A3 *538:22 5.52302e-05
19 *2808:B1 *538:22 7.43412e-05
20 *3263:D *538:22 2.91887e-05
21 *321:75 *538:22 0.000333071
22 *328:48 *538:22 9.60939e-05
23 *328:71 *538:22 9.80405e-05
24 *358:36 *2573:S 3.69772e-05
25 *527:50 *538:22 9.71197e-05
*RES
1 *2572:X *538:22 41.9964 
2 *538:22 *2573:S 22.2286 
3 *538:22 *2575:S 9.3 
*END

*D_NET *539 0.00107435
*CONN
*I *2574:A I *D sky130_fd_sc_hd__clkbuf_1
*I *2573:X O *D sky130_fd_sc_hd__mux2_1
*CAP
1 *2574:A 0.000360604
2 *2573:X 0.000360604
3 *2574:A *2576:A 3.08664e-05
4 *2574:A *3247:CLK 0.000142856
5 *2574:A *591:20 0
6 *2574:A *591:22 0
7 *3247:D *2574:A 0.000179416
*RES
1 *2573:X *2574:A 34.6179 
*END

*D_NET *540 0.000429154
*CONN
*I *2576:A I *D sky130_fd_sc_hd__clkbuf_1
*I *2575:X O *D sky130_fd_sc_hd__mux2_1
*CAP
1 *2576:A 0.000159103
2 *2575:X 0.000159103
3 *2573:A0 *2576:A 8.00806e-05
4 *2573:S *2576:A 0
5 *2574:A *2576:A 3.08664e-05
*RES
1 *2575:X *2576:A 30.725 
*END

*D_NET *541 0.00499153
*CONN
*I *2580:S I *D sky130_fd_sc_hd__mux2_1
*I *2578:S I *D sky130_fd_sc_hd__mux2_1
*I *2577:Y O *D sky130_fd_sc_hd__nor2_1
*CAP
1 *2580:S 0.000426129
2 *2578:S 0.00055677
3 *2577:Y 0
4 *541:6 0.0009829
5 *2578:S *2598:A0 0.000127439
6 *2578:S *2598:S 7.54519e-05
7 *2578:S *2600:A0 7.83659e-05
8 *2578:S *2803:A1 0
9 *2578:S *553:10 6.95205e-05
10 *2580:S *2807:A1 0.000515404
11 *2567:A *2580:S 0.000154762
12 *2728:A *2578:S 1.08359e-05
13 *202:115 *2578:S 0.000669182
14 *202:115 *2580:S 0.000141799
15 *220:18 *2578:S 0.000645995
16 *220:18 *2580:S 0.000394005
17 *350:120 *2578:S 0.000142966
*RES
1 *2577:Y *541:6 13.8 
2 *541:6 *2578:S 30.0143 
3 *541:6 *2580:S 24.6929 
*END

*D_NET *542 0.000603661
*CONN
*I *2579:A I *D sky130_fd_sc_hd__clkbuf_1
*I *2578:X O *D sky130_fd_sc_hd__mux2_1
*CAP
1 *2579:A 0.000257085
2 *2578:X 0.000257085
3 *2579:A *2727:B2 4.07062e-05
4 *2598:A1 *2579:A 4.87841e-05
*RES
1 *2578:X *2579:A 32.6357 
*END

*D_NET *543 0.000410949
*CONN
*I *2581:A I *D sky130_fd_sc_hd__clkbuf_1
*I *2580:X O *D sky130_fd_sc_hd__mux2_1
*CAP
1 *2581:A 0.000132442
2 *2580:X 0.000132442
3 *2581:A *2807:A1 3.13687e-05
4 *2581:A *3243:CLK 0.000101545
5 *2581:A *3347:A 0
6 *197:134 *2581:A 1.31516e-05
*RES
1 *2580:X *2581:A 29.7786 
*END

*D_NET *544 0.004328
*CONN
*I *2583:S I *D sky130_fd_sc_hd__mux2_1
*I *2585:S I *D sky130_fd_sc_hd__mux2_1
*I *2582:X O *D sky130_fd_sc_hd__or2_1
*CAP
1 *2583:S 0
2 *2585:S 0.000250499
3 *2582:X 0.00105025
4 *544:22 0.00130075
5 *2585:S *2722:A1 0
6 *2585:S *3459:A 5.41794e-05
7 *2585:S *806:10 0.000273822
8 *544:22 *2801:A1 4.62198e-05
9 *544:22 *547:14 4.42256e-05
10 *544:22 *598:66 5.8785e-05
11 *544:22 *598:122 1.79531e-06
12 *2729:A1 *544:22 0.000347181
13 *2801:A2 *544:22 0.000113277
14 *3253:D *544:22 9.51076e-05
15 *220:18 *544:22 1.15281e-05
16 *358:57 *544:22 4.58835e-05
17 *500:31 *2585:S 5.33005e-05
18 *500:31 *544:22 0.000299107
19 *511:79 *2585:S 0
20 *511:96 *2585:S 5.33005e-05
21 *511:96 *544:22 0.000228791
*RES
1 *2582:X *544:22 35.5679 
2 *544:22 *2585:S 23.8 
3 *544:22 *2583:S 9.3 
*END

*D_NET *545 0.00066571
*CONN
*I *2584:A I *D sky130_fd_sc_hd__clkbuf_1
*I *2583:X O *D sky130_fd_sc_hd__mux2_1
*CAP
1 *2584:A 0.000332855
2 *2583:X 0.000332855
*RES
1 *2583:X *2584:A 33.0643 
*END

*D_NET *546 0.000342741
*CONN
*I *2586:A I *D sky130_fd_sc_hd__clkbuf_1
*I *2585:X O *D sky130_fd_sc_hd__mux2_1
*CAP
1 *2586:A 0.0001044
2 *2585:X 0.0001044
3 *2586:A *815:8 5.50052e-05
4 *3251:D *2586:A 7.89362e-05
*RES
1 *2585:X *2586:A 29.7786 
*END

*D_NET *547 0.00304464
*CONN
*I *2588:S I *D sky130_fd_sc_hd__mux2_1
*I *2590:S I *D sky130_fd_sc_hd__mux2_1
*I *2587:X O *D sky130_fd_sc_hd__or2_1
*CAP
1 *2588:S 0.000203613
2 *2590:S 0
3 *2587:X 0.000441875
4 *547:14 0.000645488
5 *2588:S *2588:A1 3.30237e-05
6 *2588:S *2590:A1 0.000147474
7 *2588:S *931:8 0.000315152
8 *547:14 *2590:A1 1.02504e-05
9 *2582:A *547:14 5.33005e-05
10 *2582:B *547:14 0.000186669
11 *2801:A2 *2588:S 0.000119125
12 *202:107 *2588:S 0.000372316
13 *202:107 *547:14 7.98046e-05
14 *220:18 *547:14 0.000153045
15 *221:16 *547:14 8.36989e-05
16 *350:118 *2588:S 0.000122407
17 *350:118 *547:14 3.31747e-05
18 *544:22 *547:14 4.42256e-05
*RES
1 *2587:X *547:14 22.3893 
2 *547:14 *2590:S 13.8 
3 *547:14 *2588:S 21.7821 
*END

*D_NET *548 0.000706638
*CONN
*I *2589:A I *D sky130_fd_sc_hd__clkbuf_1
*I *2588:X O *D sky130_fd_sc_hd__mux2_1
*CAP
1 *2589:A 0.000276795
2 *2588:X 0.000276795
3 *2622:A *2589:A 0.000153047
4 *500:31 *2589:A 0
*RES
1 *2588:X *2589:A 32.5464 
*END

*D_NET *549 0.00115795
*CONN
*I *2591:A I *D sky130_fd_sc_hd__clkbuf_1
*I *2590:X O *D sky130_fd_sc_hd__mux2_1
*CAP
1 *2591:A 0.000381519
2 *2590:X 0.000381519
3 *2591:A *2722:A1 0.000236031
4 *2622:A *2591:A 5.26091e-05
5 *2722:A2 *2591:A 2.35097e-05
6 *2722:B1 *2591:A 8.73065e-06
7 *2729:A1 *2591:A 5.52302e-05
8 *197:134 *2591:A 0
9 *500:31 *2591:A 1.88048e-05
*RES
1 *2590:X *2591:A 33.3679 
*END

*D_NET *550 0.00147828
*CONN
*I *2595:S I *D sky130_fd_sc_hd__mux2_1
*I *2593:S I *D sky130_fd_sc_hd__mux2_1
*I *2592:X O *D sky130_fd_sc_hd__or3_1
*CAP
1 *2595:S 7.87053e-05
2 *2593:S 0.00010284
3 *2592:X 1.57316e-05
4 *550:6 0.000197277
5 *2593:S *3373:A 9.67754e-05
6 *2593:S *929:12 0.000224582
7 *2595:S *715:47 9.87489e-05
8 *2595:S *737:34 9.87489e-05
9 *2592:B *2593:S 0.000393245
10 *2592:B *550:6 5.33005e-05
11 *2595:A0 *2595:S 1.87701e-05
12 *2784:B *2593:S 7.82908e-05
13 *2784:B *550:6 2.12647e-05
*RES
1 *2592:X *550:6 9.83571 
2 *550:6 *2593:S 13.55 
3 *550:6 *2595:S 20.3714 
*END

*D_NET *551 0.000162487
*CONN
*I *2594:A I *D sky130_fd_sc_hd__clkbuf_1
*I *2593:X O *D sky130_fd_sc_hd__mux2_1
*CAP
1 *2594:A 6.69818e-05
2 *2593:X 6.69818e-05
3 *174:83 *2594:A 2.85234e-05
*RES
1 *2593:X *2594:A 19.8679 
*END

*D_NET *552 0.00198455
*CONN
*I *2596:A I *D sky130_fd_sc_hd__clkbuf_1
*I *2595:X O *D sky130_fd_sc_hd__mux2_1
*CAP
1 *2596:A 0.000535576
2 *2595:X 0.000535576
3 *2596:A *3255:CLK 0.00026454
4 *291:28 *2596:A 0.0001249
5 *322:61 *2596:A 2.57552e-06
6 *365:22 *2596:A 0.000126422
7 *419:57 *2596:A 0.000394956
*RES
1 *2595:X *2596:A 35.9393 
*END

*D_NET *553 0.00232131
*CONN
*I *2600:S I *D sky130_fd_sc_hd__mux2_1
*I *2598:S I *D sky130_fd_sc_hd__mux2_1
*I *2597:Y O *D sky130_fd_sc_hd__nor2_1
*CAP
1 *2600:S 5.23575e-05
2 *2598:S 0.000357752
3 *2597:Y 0.000364867
4 *553:10 0.000774977
5 *2598:S *2598:A0 3.11088e-05
6 *2598:S *2599:A 0
7 *2598:S *926:8 0
8 *2600:S *2600:A0 2.89114e-05
9 *553:10 *2725:A1 0.000243686
10 *553:10 *2725:B2 9.22103e-06
11 *553:10 *2803:A1 3.34366e-05
12 *553:10 *811:10 0
13 *553:10 *926:8 0
14 *2578:S *2598:S 7.54519e-05
15 *2578:S *553:10 6.95205e-05
16 *2597:B *553:10 6.05161e-06
17 *2598:A1 *2598:S 4.13389e-05
18 *2728:B *553:10 0.000139907
19 *208:58 *553:10 4.70078e-05
20 *358:30 *2600:S 3.3283e-05
21 *358:36 *2600:S 1.24368e-05
*RES
1 *2597:Y *553:10 21.4071 
2 *553:10 *2598:S 20.175 
3 *553:10 *2600:S 15.1929 
*END

*D_NET *554 0.000926809
*CONN
*I *2599:A I *D sky130_fd_sc_hd__clkbuf_1
*I *2598:X O *D sky130_fd_sc_hd__mux2_1
*CAP
1 *2599:A 0.000233685
2 *2598:X 0.000233685
3 *2599:A *811:10 9.7659e-05
4 *2599:A *926:8 0.00017806
5 *2598:S *2599:A 0
6 *358:36 *2599:A 0.00018372
*RES
1 *2598:X *2599:A 33.7429 
*END

*D_NET *555 0.00111879
*CONN
*I *2601:A I *D sky130_fd_sc_hd__clkbuf_1
*I *2600:X O *D sky130_fd_sc_hd__mux2_1
*CAP
1 *2601:A 0.00042078
2 *2600:X 0.00042078
3 *2601:A *3256:CLK 3.08664e-05
4 *2601:A *926:8 8.11424e-05
5 *3256:D *2601:A 7.05195e-05
6 *358:36 *2601:A 9.47028e-05
*RES
1 *2600:X *2601:A 35.1714 
*END

*D_NET *556 0.0015127
*CONN
*I *2603:S I *D sky130_fd_sc_hd__mux2_1
*I *2605:S I *D sky130_fd_sc_hd__mux2_1
*I *2602:X O *D sky130_fd_sc_hd__or2_1
*CAP
1 *2603:S 0
2 *2605:S 8.15943e-05
3 *2602:X 0.000220478
4 *556:8 0.000302072
5 *2605:S *2603:A1 1.02936e-05
6 *2605:S *2604:A 9.90367e-05
7 *2605:S *2605:A1 3.48705e-05
8 *556:8 *2603:A1 0.00010096
9 *556:8 *3354:A 2.59355e-05
10 *2602:B *556:8 5.33005e-05
11 *316:78 *2605:S 9.76689e-05
12 *316:89 *2605:S 5.33334e-05
13 *321:75 *2605:S 0.000288693
14 *321:75 *556:8 0.000144466
*RES
1 *2602:X *556:8 14.2643 
2 *556:8 *2605:S 13.1214 
3 *556:8 *2603:S 9.3 
*END

*D_NET *557 0.00133482
*CONN
*I *2604:A I *D sky130_fd_sc_hd__clkbuf_1
*I *2603:X O *D sky130_fd_sc_hd__mux2_1
*CAP
1 *2604:A 0.000196889
2 *2603:X 0.000196889
3 *2604:A *2605:A1 2.65105e-05
4 *2605:S *2604:A 9.90367e-05
5 *3263:D *2604:A 0
6 *321:75 *2604:A 0.000656826
7 *328:46 *2604:A 2.79421e-05
8 *328:48 *2604:A 0.00013073
*RES
1 *2603:X *2604:A 25.6179 
*END

*D_NET *558 0.000358689
*CONN
*I *2606:A I *D sky130_fd_sc_hd__clkbuf_1
*I *2605:X O *D sky130_fd_sc_hd__mux2_1
*CAP
1 *2606:A 8.99348e-05
2 *2605:X 8.99348e-05
3 *2606:A *599:53 0
4 *2620:A0 *2606:A 4.15914e-05
5 *2805:B1 *2606:A 8.00806e-05
6 *3258:D *2606:A 5.71472e-05
*RES
1 *2605:X *2606:A 29.9036 
*END

*D_NET *559 0.00246907
*CONN
*I *2608:S I *D sky130_fd_sc_hd__mux2_1
*I *2610:S I *D sky130_fd_sc_hd__mux2_1
*I *2607:X O *D sky130_fd_sc_hd__or2_1
*CAP
1 *2608:S 0.000169486
2 *2610:S 0.000322117
3 *2607:X 0
4 *559:6 0.000491603
5 *2608:S *2608:A1 2.14757e-05
6 *2608:S *2805:B2 0
7 *2608:S *600:26 0.000171368
8 *2610:S *2610:A1 7.83659e-05
9 *2610:S *2805:B2 0
10 *2798:B1 *2608:S 0.00013905
11 *2798:B1 *2610:S 0.000174844
12 *181:50 *2608:S 0.000271339
13 *299:22 *2608:S 0.000313235
14 *328:30 *2610:S 0.000316184
*RES
1 *2607:X *559:6 13.8 
2 *559:6 *2610:S 21.175 
3 *559:6 *2608:S 20.2643 
*END

*D_NET *560 0.00128277
*CONN
*I *2609:A I *D sky130_fd_sc_hd__clkbuf_1
*I *2608:X O *D sky130_fd_sc_hd__mux2_1
*CAP
1 *2609:A 0.000313887
2 *2608:X 0.000313887
3 *2609:A *2611:A 9.80029e-05
4 *2609:A *3261:CLK 1.33343e-05
5 *2609:A *599:10 0.000386358
6 *2805:B1 *2609:A 3.97543e-05
7 *3260:D *2609:A 3.18676e-05
8 *299:22 *2609:A 1.98839e-05
9 *371:79 *2609:A 6.57914e-05
*RES
1 *2608:X *2609:A 34.9393 
*END

*D_NET *561 0.00121514
*CONN
*I *2611:A I *D sky130_fd_sc_hd__clkbuf_1
*I *2610:X O *D sky130_fd_sc_hd__mux2_1
*CAP
1 *2611:A 0.000286542
2 *2610:X 0.000286542
3 *2611:A *2804:A1 0.00010096
4 *2611:A *3263:CLK 7.48301e-06
5 *2611:A *599:10 1.27784e-05
6 *2611:A *599:12 3.93986e-05
7 *2611:A *748:24 2.59355e-05
8 *2609:A *2611:A 9.80029e-05
9 *2805:B1 *2611:A 0.000340066
10 *328:44 *2611:A 1.74352e-05
*RES
1 *2610:X *2611:A 34.1536 
*END

*D_NET *562 0.00264452
*CONN
*I *2613:S I *D sky130_fd_sc_hd__mux2_1
*I *2615:S I *D sky130_fd_sc_hd__mux2_1
*I *2612:X O *D sky130_fd_sc_hd__or2_1
*CAP
1 *2613:S 0
2 *2615:S 0.000479118
3 *2612:X 0.000152535
4 *562:14 0.000631653
5 *2615:S *2613:A1 5.71472e-05
6 *2615:S *2614:A 5.03772e-05
7 *562:14 *2613:A1 9.86146e-05
8 *2577:A *2615:S 3.63775e-05
9 *2613:A0 *2615:S 1.39841e-05
10 *2613:A0 *562:14 0.000150485
11 *2808:A2 *562:14 0.000148903
12 *220:18 *2615:S 0.000506335
13 *299:22 *562:14 5.52302e-05
14 *350:118 *2615:S 0.000263763
15 *538:22 *562:14 0
*RES
1 *2612:X *562:14 22.3357 
2 *562:14 *2615:S 29.0679 
3 *562:14 *2613:S 9.3 
*END

*D_NET *563 0.00122427
*CONN
*I *2614:A I *D sky130_fd_sc_hd__clkbuf_1
*I *2613:X O *D sky130_fd_sc_hd__mux2_1
*CAP
1 *2614:A 0.000322042
2 *2613:X 0.000322042
3 *2614:A *2724:A1 1.74352e-05
4 *2614:A *2724:B2 5.52238e-05
5 *2577:A *2614:A 9.90367e-05
6 *2577:B *2614:A 4.13595e-05
7 *2615:S *2614:A 5.03772e-05
8 *2724:A2 *2614:A 5.71472e-05
9 *2724:B1 *2614:A 0.000116049
10 *3262:D *2614:A 0.000143557
*RES
1 *2613:X *2614:A 26.1536 
*END

*D_NET *564 0.000383354
*CONN
*I *2616:A I *D sky130_fd_sc_hd__clkbuf_1
*I *2615:X O *D sky130_fd_sc_hd__mux2_1
*CAP
1 *2616:A 5.93932e-05
2 *2615:X 5.93932e-05
3 *3263:D *2616:A 9.09669e-05
4 *321:75 *2616:A 3.20468e-05
5 *328:48 *2616:A 0.000141554
*RES
1 *2615:X *2616:A 20.6893 
*END

*D_NET *565 0.000717743
*CONN
*I *2620:S I *D sky130_fd_sc_hd__mux2_1
*I *2618:S I *D sky130_fd_sc_hd__mux2_1
*I *2617:X O *D sky130_fd_sc_hd__or2_1
*CAP
1 *2620:S 0.000119528
2 *2618:S 3.61152e-05
3 *2617:X 1.20577e-05
4 *565:6 0.000167701
5 *2620:S *2805:B2 0
6 *2620:S *3265:CLK 0.000170654
7 *2620:S *870:10 0
8 *187:112 *2618:S 9.41642e-05
9 *187:112 *565:6 4.27935e-05
10 *528:82 *2618:S 4.58194e-05
11 *528:82 *565:6 2.89114e-05
*RES
1 *2617:X *565:6 9.83571 
2 *565:6 *2618:S 10.2464 
3 *565:6 *2620:S 20.55 
*END

*D_NET *566 0.000961309
*CONN
*I *2619:A I *D sky130_fd_sc_hd__clkbuf_1
*I *2618:X O *D sky130_fd_sc_hd__mux2_1
*CAP
1 *2619:A 0.000237982
2 *2618:X 0.000237982
3 *2619:A *2618:A1 0
4 *2619:A *2727:A1 0
5 *2620:A0 *2619:A 0
6 *2896:A *2619:A 0.000214
7 *345:79 *2619:A 0.000271345
*RES
1 *2618:X *2619:A 33.4929 
*END

*D_NET *567 0.00105235
*CONN
*I *2621:A I *D sky130_fd_sc_hd__clkbuf_1
*I *2620:X O *D sky130_fd_sc_hd__mux2_1
*CAP
1 *2621:A 0.000371362
2 *2620:X 0.000371362
3 *2621:A *3265:CLK 0.000286017
4 *2621:A *693:36 7.4057e-06
5 *3265:D *2621:A 1.62025e-05
*RES
1 *2620:X *2621:A 33.1893 
*END

*D_NET *568 0.00202831
*CONN
*I *2623:S I *D sky130_fd_sc_hd__mux2_1
*I *2625:S I *D sky130_fd_sc_hd__mux2_1
*I *2622:X O *D sky130_fd_sc_hd__or2_1
*CAP
1 *2623:S 3.09338e-05
2 *2625:S 0.000152115
3 *2622:X 0.000192061
4 *568:6 0.00037511
5 *2623:S *2623:A1 5.33005e-05
6 *568:6 *2624:A 8.23377e-05
7 *568:6 *2805:A1 0.000151119
8 *2590:A0 *2625:S 0.000219402
9 *2623:A0 *2623:S 8.43535e-06
10 *2623:A0 *568:6 3.69047e-06
11 *2801:A2 *568:6 9.58632e-05
12 *2802:B1 *2623:S 9.41642e-05
13 *2802:B1 *568:6 0.000221978
14 *202:107 *2625:S 0.000263996
15 *350:118 *2625:S 8.38007e-05
*RES
1 *2622:X *568:6 14.3536 
2 *568:6 *2625:S 23.2821 
3 *568:6 *2623:S 10.2464 
*END

*D_NET *569 0.0015351
*CONN
*I *2624:A I *D sky130_fd_sc_hd__clkbuf_1
*I *2623:X O *D sky130_fd_sc_hd__mux2_1
*CAP
1 *2624:A 0.000551882
2 *2623:X 0.000551882
3 *2624:A *2805:A1 0.000156156
4 *2622:A *2624:A 0.000141843
5 *2801:A2 *2624:A 5.10039e-05
6 *197:134 *2624:A 0
7 *568:6 *2624:A 8.23377e-05
*RES
1 *2623:X *2624:A 36.3679 
*END

*D_NET *570 0.000942616
*CONN
*I *2626:A I *D sky130_fd_sc_hd__clkbuf_1
*I *2625:X O *D sky130_fd_sc_hd__mux2_1
*CAP
1 *2626:A 0.000208427
2 *2625:X 0.000208427
3 *2572:A *2626:A 5.49489e-05
4 *2572:B *2626:A 9.90367e-05
5 *2807:B1 *2626:A 0.000110237
6 *2808:A1 *2626:A 0.000102196
7 *2808:B1 *2626:A 0.000102196
8 *3267:D *2626:A 5.71472e-05
*RES
1 *2625:X *2626:A 32.3679 
*END

*D_NET *571 0.00395568
*CONN
*I *2630:S I *D sky130_fd_sc_hd__mux2_1
*I *2628:S I *D sky130_fd_sc_hd__mux2_1
*I *2627:X O *D sky130_fd_sc_hd__or2_1
*CAP
1 *2630:S 0.000460478
2 *2628:S 0.000115576
3 *2627:X 0.000274462
4 *571:18 0.000850517
5 *2628:S *2628:A1 0.000139202
6 *2630:S *2628:A1 0.000139208
7 *2630:S *2790:A1 9.58632e-05
8 *2630:S *3268:CLK 0.000197291
9 *2630:S *3337:A 0.000137639
10 *571:18 *2790:A1 9.41642e-05
11 *571:18 *827:10 3.04394e-05
12 *2595:A0 *2630:S 0.000184287
13 *2628:A0 *2628:S 2.36643e-05
14 *2628:A0 *571:18 0
15 *2755:A2 *2630:S 9.76435e-06
16 *2877:B *571:18 3.5848e-05
17 *174:18 *571:18 0.000321949
18 *322:10 *571:18 0.000465565
19 *328:149 *2630:S 5.14352e-05
20 *415:50 *2630:S 0.000328329
*RES
1 *2627:X *571:18 34.5679 
2 *571:18 *2628:S 11.4964 
3 *571:18 *2630:S 28.8179 
*END

*D_NET *572 0.0016041
*CONN
*I *2629:A I *D sky130_fd_sc_hd__clkbuf_1
*I *2628:X O *D sky130_fd_sc_hd__mux2_1
*CAP
1 *2629:A 0.000284639
2 *2628:X 0.000284639
3 *2629:A *827:10 0.000106111
4 *2632:B *2629:A 0.000146003
5 *3268:D *2629:A 0.000147732
6 *3269:D *2629:A 6.75178e-05
7 *174:18 *2629:A 0.000484918
8 *215:86 *2629:A 7.12762e-05
9 *415:52 *2629:A 1.12623e-05
*RES
1 *2628:X *2629:A 36.2964 
*END

*D_NET *573 0.00137486
*CONN
*I *2631:A I *D sky130_fd_sc_hd__clkbuf_1
*I *2630:X O *D sky130_fd_sc_hd__mux2_1
*CAP
1 *2631:A 0.000402847
2 *2630:X 0.000402847
3 *2631:A *2790:A1 0.000314225
4 *2631:A *3268:CLK 5.33005e-05
5 *2631:A *3269:CLK 5.49489e-05
6 *2595:A0 *2631:A 1.46148e-05
7 *2628:A0 *2631:A 1.26938e-05
8 *3269:D *2631:A 6.05161e-06
9 *322:10 *2631:A 0.00011333
*RES
1 *2630:X *2631:A 33.6 
*END

*D_NET *574 0.00240682
*CONN
*I *2633:S I *D sky130_fd_sc_hd__mux2_1
*I *2635:S I *D sky130_fd_sc_hd__mux2_1
*I *2632:X O *D sky130_fd_sc_hd__or2_1
*CAP
1 *2633:S 0.000232974
2 *2635:S 0.000151496
3 *2632:X 0.000266809
4 *574:8 0.000651279
5 *2633:S *3351:A 4.47937e-05
6 *2635:S *2634:A 0
7 *2635:S *3351:A 6.41382e-05
8 *574:8 *3271:CLK 0.000114458
9 *2632:B *574:8 1.92813e-05
10 *3271:D *574:8 8.45695e-05
11 *3281:D *2633:S 0.000197459
12 *316:22 *2633:S 7.83587e-05
13 *356:14 *2633:S 0.000189448
14 *356:14 *2635:S 0.000311751
*RES
1 *2632:X *574:8 17.2107 
2 *574:8 *2635:S 17.8714 
3 *574:8 *2633:S 18.8536 
*END

*D_NET *575 0.00208293
*CONN
*I *2634:A I *D sky130_fd_sc_hd__clkbuf_1
*I *2633:X O *D sky130_fd_sc_hd__mux2_1
*CAP
1 *2634:A 0.000486405
2 *2633:X 0.000486405
3 *2634:A *2635:A1 5.30637e-06
4 *2634:A *2818:A1 6.41179e-05
5 *2634:A *3351:A 0.000384732
6 *2634:A *3361:A 9.90367e-05
7 *2635:S *2634:A 0
8 *3281:D *2634:A 5.33005e-05
9 *211:47 *2634:A 0.000503629
*RES
1 *2633:X *2634:A 39.2964 
*END

*D_NET *576 0.00212595
*CONN
*I *2636:A I *D sky130_fd_sc_hd__clkbuf_1
*I *2635:X O *D sky130_fd_sc_hd__mux2_1
*CAP
1 *2636:A 0.000373115
2 *2635:X 0.000373115
3 *2636:A *608:37 0.000680675
4 *2819:A3 *2636:A 0.000467989
5 *2837:A *2636:A 0.000115358
6 *350:42 *2636:A 0
7 *351:95 *2636:A 1.98839e-05
8 *511:18 *2636:A 9.58126e-05
*RES
1 *2635:X *2636:A 37.8857 
*END

*D_NET *577 0.000184858
*CONN
*I *2638:A I *D sky130_fd_sc_hd__clkbuf_1
*I *2637:X O *D sky130_fd_sc_hd__clkbuf_1
*CAP
1 *2638:A 5.49324e-05
2 *2637:X 5.49324e-05
3 *2638:A *2637:A 1.97695e-05
4 *2638:A *3293:SET_B 5.52238e-05
*RES
1 *2637:X *2638:A 19.8679 
*END

*D_NET *578 0.00107137
*CONN
*I *2641:A I *D sky130_fd_sc_hd__clkbuf_1
*I *2640:X O *D sky130_fd_sc_hd__mux2_1
*CAP
1 *2641:A 0.000387445
2 *2640:X 0.000387445
3 *2641:A *2810:B2 0
4 *2641:A *592:87 9.34004e-05
5 *2641:A *592:102 0.000103971
6 *2641:A *630:16 0
7 *2639:B *2641:A 9.91086e-05
*RES
1 *2640:X *2641:A 35.2964 
*END

*D_NET *579 0.00299316
*CONN
*I *2643:B1 I *D sky130_fd_sc_hd__a22o_1
*I *2642:Y O *D sky130_fd_sc_hd__o21ai_1
*CAP
1 *2643:B1 0.0010931
2 *2642:Y 0.0010931
3 *2643:B1 *3277:D 9.90431e-05
4 *2643:B1 *596:44 6.62911e-05
5 *2642:B1 *2643:B1 8.87097e-05
6 *2643:A2 *2643:B1 5.33005e-05
7 *2643:B2 *2643:B1 5.52302e-05
8 *2824:A3 *2643:B1 5.00805e-05
9 *159:20 *2643:B1 0
10 *310:12 *2643:B1 8.48686e-05
11 *310:14 *2643:B1 0.000309434
*RES
1 *2642:Y *2643:B1 44.24 
*END

*D_NET *580 0.00177491
*CONN
*I *2646:A2 I *D sky130_fd_sc_hd__a221o_1
*I *2644:Y O *D sky130_fd_sc_hd__inv_2
*CAP
1 *2646:A2 0.000678998
2 *2644:Y 0.000678998
3 *2646:A2 *2646:C1 0
4 *2646:A2 *2647:A 1.46576e-05
5 *2646:A2 *3287:CLK 0.00010096
6 *2646:A2 *3287:D 0.000127268
7 *2646:A2 *3287:RESET_B 9.84891e-05
8 *2646:A2 *3340:A 9.25014e-06
9 *2646:A2 *630:83 0
10 *2646:A2 *781:16 2.46952e-05
11 *2646:A2 *787:16 0
12 *3451:A *2646:A2 4.15914e-05
*RES
1 *2644:Y *2646:A2 40.408 
*END

*D_NET *581 0.00136936
*CONN
*I *2646:B2 I *D sky130_fd_sc_hd__a221o_1
*I *2645:Y O *D sky130_fd_sc_hd__inv_2
*CAP
1 *2646:B2 0.000542864
2 *2645:Y 0.000542864
3 *2646:B2 *2646:C1 4.46186e-06
4 *2646:B2 *3340:A 4.25716e-05
5 *2646:B2 *787:16 1.38106e-05
6 *2645:A *2646:B2 0.000222784
*RES
1 *2645:Y *2646:B2 35.2473 
*END

*D_NET *582 0.00300646
*CONN
*I *2648:A1 I *D sky130_fd_sc_hd__mux2_1
*I *2647:Y O *D sky130_fd_sc_hd__inv_2
*CAP
1 *2648:A1 0.000833234
2 *2647:Y 0.000833234
3 *2648:A1 *2648:A0 0.000126416
4 *2648:A1 *2670:B 0
5 *2648:A1 *2674:A2 0.000307885
6 *2648:A1 *3340:A 0
7 *2648:A1 *795:12 0.000169008
8 *2645:A *2648:A1 0.000184677
9 *2674:B1 *2648:A1 0.000552011
10 *2676:A *2648:A1 0
11 *11:29 *2648:A1 0
*RES
1 *2647:Y *2648:A1 47.2071 
*END

*D_NET *583 0.000408911
*CONN
*I *2649:A I *D sky130_fd_sc_hd__clkbuf_1
*I *2648:X O *D sky130_fd_sc_hd__mux2_1
*CAP
1 *2649:A 9.053e-05
2 *2648:X 9.053e-05
3 *2649:A *641:22 7.70717e-05
4 *11:29 *2649:A 0.00015078
*RES
1 *2648:X *2649:A 30.0821 
*END

*D_NET *584 0.00095966
*CONN
*I *2653:A1 I *D sky130_fd_sc_hd__a21oi_1
*I *2652:A1 I *D sky130_fd_sc_hd__o21ai_1
*I *2650:Y O *D sky130_fd_sc_hd__inv_2
*CAP
1 *2653:A1 0
2 *2652:A1 0.000121608
3 *2650:Y 0.000145352
4 *584:12 0.00026696
5 *2652:A1 *2651:B 0
6 *2652:A1 *2652:B1 0.000144773
7 *2652:A1 *2653:B1 5.71472e-05
8 *2652:A1 *2654:A1 7.32955e-05
9 *584:12 *2651:B 4.15914e-05
10 *584:12 *2652:B1 2.61099e-05
11 *584:12 *630:12 7.83659e-05
12 *584:12 *796:16 4.45768e-06
*RES
1 *2650:Y *584:12 20.6929 
2 *584:12 *2652:A1 12.6214 
3 *584:12 *2653:A1 9.3 
*END

*D_NET *585 0.00047074
*CONN
*I *2652:B1 I *D sky130_fd_sc_hd__o21ai_1
*I *2651:Y O *D sky130_fd_sc_hd__xnor2_1
*CAP
1 *2652:B1 7.42452e-05
2 *2651:Y 7.42452e-05
3 *2652:B1 *2651:A 0
4 *2652:B1 *2651:B 3.99614e-06
5 *2652:B1 *2654:A1 5.71472e-05
6 *2652:B1 *796:16 9.02232e-05
7 *2652:A1 *2652:B1 0.000144773
8 *584:12 *2652:B1 2.61099e-05
*RES
1 *2651:Y *2652:B1 21.2071 
*END

*D_NET *586 0.000104357
*CONN
*I *2653:B1 I *D sky130_fd_sc_hd__a21oi_1
*I *2652:Y O *D sky130_fd_sc_hd__o21ai_1
*CAP
1 *2653:B1 2.36049e-05
2 *2652:Y 2.36049e-05
3 *2652:A1 *2653:B1 5.71472e-05
*RES
1 *2652:Y *2653:B1 19.1357 
*END

*D_NET *587 0.00156143
*CONN
*I *2654:A1 I *D sky130_fd_sc_hd__mux2_1
*I *2653:Y O *D sky130_fd_sc_hd__a21oi_1
*CAP
1 *2654:A1 0.000316562
2 *2653:Y 0.000316562
3 *2654:A1 *2654:S 4.10796e-05
4 *2654:A1 *796:16 5.52238e-05
5 *2652:A1 *2654:A1 7.32955e-05
6 *2652:B1 *2654:A1 5.71472e-05
7 *315:12 *2654:A1 0.00070156
*RES
1 *2653:Y *2654:A1 27.3679 
*END

*D_NET *588 0.00119723
*CONN
*I *2655:A I *D sky130_fd_sc_hd__clkbuf_1
*I *2654:X O *D sky130_fd_sc_hd__mux2_1
*CAP
1 *2655:A 0.000356984
2 *2654:X 0.000356984
3 *2655:A *2654:A0 3.05522e-05
4 *2655:A *3272:CLK 5.52302e-05
5 *2655:A *3272:RESET_B 0
6 *2655:A *3287:CLK 2.59355e-05
7 *2655:A *592:115 0.000153047
8 *2655:A *592:139 0.000126439
9 *2655:A *630:83 0
10 *2655:A *783:12 7.83587e-05
11 *3272:D *2655:A 1.3701e-05
*RES
1 *2654:X *2655:A 34.6357 
*END

*D_NET *589 0.000843228
*CONN
*I *3144:D I *D sky130_fd_sc_hd__dfrtp_1
*I *2824:X O *D sky130_fd_sc_hd__a32o_1
*CAP
1 *3144:D 0.000177739
2 *2824:X 0.000177739
3 *3144:D *2824:A2 0.000133456
4 *3144:D *3313:A 0.000142856
5 *3144:D *590:138 0.000136629
6 *3144:D *596:61 7.48091e-05
*RES
1 *2824:X *3144:D 33.6357 
*END

*D_NET *590 0.0577898
*CONN
*I *3309:A I *D sky130_fd_sc_hd__clkbuf_8
*I *3308:A I *D sky130_fd_sc_hd__clkbuf_8
*I *3306:A I *D sky130_fd_sc_hd__clkbuf_8
*I *3307:A I *D sky130_fd_sc_hd__clkbuf_8
*I *3302:A I *D sky130_fd_sc_hd__clkbuf_8
*I *3300:A I *D sky130_fd_sc_hd__clkbuf_8
*I *3299:A I *D sky130_fd_sc_hd__clkbuf_8
*I *3311:A I *D sky130_fd_sc_hd__clkbuf_8
*I *3310:A I *D sky130_fd_sc_hd__clkbuf_8
*I *3301:A I *D sky130_fd_sc_hd__clkbuf_8
*I *3298:A I *D sky130_fd_sc_hd__clkbuf_8
*I *3297:A I *D sky130_fd_sc_hd__clkbuf_8
*I *3303:A I *D sky130_fd_sc_hd__clkbuf_8
*I *3296:A I *D sky130_fd_sc_hd__clkbuf_8
*I *3305:A I *D sky130_fd_sc_hd__clkbuf_8
*I *3304:A I *D sky130_fd_sc_hd__clkbuf_8
*I *3295:X O *D sky130_fd_sc_hd__clkbuf_16
*CAP
1 *3309:A 0.000305102
2 *3308:A 1.66742e-05
3 *3306:A 0
4 *3307:A 0.000281659
5 *3302:A 0.0011309
6 *3300:A 0.000317228
7 *3299:A 5.04969e-05
8 *3311:A 0
9 *3310:A 0
10 *3301:A 0
11 *3298:A 0
12 *3297:A 0
13 *3303:A 4.80972e-05
14 *3296:A 0.000112767
15 *3305:A 2.9238e-05
16 *3304:A 2.7879e-05
17 *3295:X 4.82184e-05
18 *590:246 0.000472415
19 *590:222 0.00187917
20 *590:208 0.00334001
21 *590:176 0.00225203
22 *590:161 0.00152924
23 *590:157 0.00365044
24 *590:138 0.00183863
25 *590:121 0.00211449
26 *590:108 0.00237654
27 *590:92 0.00239051
28 *590:86 0.000919916
29 *590:52 0.00129523
30 *590:35 0.00123277
31 *590:24 0.00221974
32 *590:18 0.00461786
33 *590:14 0.00329702
34 *3299:A *715:20 6.05161e-06
35 *3300:A *3141:CLK 9.71197e-05
36 *3307:A *3192:CLK 4.18895e-05
37 *3307:A *602:10 0.00010096
38 *3308:A *3360:A 1.40306e-05
39 *3308:A *603:8 5.52238e-05
40 *3309:A *2976:A0 0.000130526
41 *3309:A *3360:A 1.90303e-05
42 *3309:A *603:8 8.31492e-05
43 *590:14 *3125:A0 2.06178e-05
44 *590:86 *3447:A 0.000210191
45 *590:92 *2812:A1 0.000102545
46 *590:92 *3447:A 3.51442e-05
47 *590:92 *737:46 0.000562208
48 *590:92 *899:10 1.90303e-05
49 *590:108 *630:12 2.11419e-05
50 *590:121 *2660:A_N 0
51 *590:121 *593:14 0.000202842
52 *590:121 *593:34 1.02504e-05
53 *590:121 *630:12 0
54 *590:121 *682:14 0
55 *590:138 *2664:C1 0
56 *590:138 *2824:A2 0
57 *590:138 *2870:B1_N 0
58 *590:138 *3277:D 0
59 *590:138 *3278:D 5.91452e-05
60 *590:138 *3279:D 0
61 *590:138 *3280:RESET_B 0
62 *590:138 *593:34 0.00018774
63 *590:138 *596:12 0.000224676
64 *590:138 *652:63 0
65 *590:138 *674:20 0
66 *590:157 *759:22 0.000101167
67 *590:208 *737:24 0
68 *590:246 *2775:A1 0
69 *2567:A *590:24 0.000547537
70 *2567:A *590:52 0.00214676
71 *2590:A0 *3296:A 1.3701e-05
72 *2666:B *590:121 0
73 *2666:B *590:138 0
74 *2673:B1 *590:138 0
75 *2677:B *590:138 8.39e-05
76 *2807:C1 *3303:A 8.99214e-05
77 *2824:A1 *590:138 0
78 *2824:B1 *590:138 0.000200406
79 *2848:B1_N *590:138 7.79781e-06
80 *2851:B_N *3300:A 0.000177183
81 *2863:B2 *3300:A 0.00017309
82 *2941:B *590:18 0
83 *2941:B *590:157 0
84 *2941:B *590:208 0
85 *2944:A0 *590:86 3.15517e-05
86 *3018:A1 *590:222 0.000483507
87 *3059:A *3299:A 2.06112e-05
88 *3066:A0 *590:208 0.000532429
89 *3070:A *590:208 0.00234754
90 *3070:A *590:222 0.00189687
91 *3080:A *590:222 9.16325e-06
92 *3083:S *3307:A 9.71197e-05
93 *3136:D *590:138 6.8646e-06
94 *3144:D *590:138 0.000136629
95 *3176:D *590:246 0.000204722
96 *3192:D *590:222 0.000166306
97 *3193:D *590:222 4.72325e-05
98 *187:64 *590:14 2.22043e-05
99 *187:96 *590:86 0
100 *190:18 *3309:A 0.000108103
101 *190:18 *590:246 0.000317719
102 *202:115 *3296:A 6.20827e-05
103 *211:10 *3300:A 0
104 *211:85 *590:52 0.000155231
105 *215:68 *3300:A 0.00011578
106 *215:108 *3296:A 9.90431e-05
107 *215:108 *590:52 8.65399e-05
108 *218:24 *590:208 0.000604292
109 *218:24 *590:222 0.000219509
110 *220:18 *3296:A 0.000112667
111 *222:26 *590:18 0.00177165
112 *222:26 *590:24 1.95025e-05
113 *222:26 *590:86 8.75016e-05
114 *222:26 *590:157 0.000812661
115 *232:14 *590:86 0.000347433
116 *232:14 *590:92 0.000125724
117 *285:22 *590:222 0
118 *299:22 *3304:A 5.33005e-05
119 *313:10 *590:138 0.000350859
120 *317:25 *3300:A 9.25014e-06
121 *330:28 *3302:A 0.000117157
122 *338:10 *3302:A 0.000146398
123 *338:29 *3302:A 4.5258e-05
124 *345:16 *590:176 0.000100754
125 *350:42 *590:108 1.94879e-05
126 *350:62 *590:14 4.88232e-05
127 *355:10 *3299:A 4.65158e-06
128 *395:57 *590:24 2.09826e-05
129 *395:57 *590:35 0.000211441
130 *395:57 *590:52 1.10632e-05
131 *403:49 *590:157 0.000266967
132 *403:49 *590:208 3.56789e-05
133 *403:53 *590:18 0.000140136
134 *419:136 *3300:A 0.000112056
135 *419:136 *590:161 6.68593e-05
136 *419:136 *590:176 4.13127e-05
137 *419:144 *590:161 1.46799e-05
138 *430:64 *3307:A 0
139 *430:64 *590:222 0.000112421
140 *442:58 *3307:A 0
141 *445:21 *3307:A 0.000150319
142 *445:23 *3307:A 0.000113286
143 *474:18 *590:161 0.000579476
144 *474:49 *590:222 2.91627e-05
145 *511:150 *590:108 9.06546e-05
146 *528:28 *3305:A 5.33005e-05
147 *528:62 *590:24 1.94879e-05
148 *528:62 *590:35 0.000217973
149 *528:62 *590:52 1.90936e-05
*RES
1 *3295:X *590:14 20.9798 
2 *590:14 *590:18 7.82487 
3 *590:18 *590:24 8.09382 
4 *590:24 *3304:A 14.3357 
5 *590:24 *590:35 2.85714 
6 *590:35 *3305:A 14.3357 
7 *590:35 *590:52 10.5309 
8 *590:52 *3296:A 16.6661 
9 *590:52 *3303:A 14.6705 
10 *590:18 *590:86 8.94102 
11 *590:86 *590:92 11.6071 
12 *590:92 *590:108 23.3122 
13 *590:108 *3297:A 9.3 
14 *590:108 *590:121 9.83929 
15 *590:121 *3298:A 13.8 
16 *590:121 *590:138 41.875 
17 *590:138 *3301:A 9.3 
18 *590:92 *3310:A 9.3 
19 *590:86 *3311:A 13.8 
20 *590:14 *590:157 3.02993 
21 *590:157 *590:161 4.8623 
22 *590:161 *3299:A 18.0225 
23 *590:161 *590:176 1.63247 
24 *590:176 *3300:A 24.8082 
25 *590:176 *3302:A 24.0332 
26 *590:157 *590:208 8.63797 
27 *590:208 *590:222 20.6575 
28 *590:222 *3307:A 24.9786 
29 *590:222 *3306:A 9.3 
30 *590:208 *590:246 12.1332 
31 *590:246 *3308:A 9.83571 
32 *590:246 *3309:A 23.4786 
*END

*D_NET *591 0.0121456
*CONN
*I *3262:CLK I *D sky130_fd_sc_hd__dfxtp_1
*I *3241:CLK I *D sky130_fd_sc_hd__dfxtp_1
*I *3245:CLK I *D sky130_fd_sc_hd__dfxtp_1
*I *3244:CLK I *D sky130_fd_sc_hd__dfxtp_1
*I *3240:CLK I *D sky130_fd_sc_hd__dfxtp_1
*I *3247:CLK I *D sky130_fd_sc_hd__dfxtp_1
*I *3246:CLK I *D sky130_fd_sc_hd__dfxtp_1
*I *3256:CLK I *D sky130_fd_sc_hd__dfxtp_1
*I *3257:CLK I *D sky130_fd_sc_hd__dfxtp_1
*I *3248:CLK I *D sky130_fd_sc_hd__dfxtp_1
*I *3296:X O *D sky130_fd_sc_hd__clkbuf_8
*CAP
1 *3262:CLK 0.000185071
2 *3241:CLK 0
3 *3245:CLK 3.82418e-05
4 *3244:CLK 0.000238252
5 *3240:CLK 0.000157187
6 *3247:CLK 9.41634e-05
7 *3246:CLK 3.72704e-05
8 *3256:CLK 0.000445919
9 *3257:CLK 0.000209119
10 *3248:CLK 0.000737252
11 *3296:X 0.000446231
12 *591:92 0.00111611
13 *591:26 0.00109036
14 *591:24 0.000736803
15 *591:22 0.00039345
16 *591:20 0.000696628
17 *591:18 0.000671814
18 *591:16 0.000961071
19 *591:14 0.000435994
20 *591:10 0.0010673
21 *3257:CLK *693:36 0.000174277
22 *591:10 *2580:A0 0.000100831
23 *591:10 *2724:B2 1.60258e-05
24 *591:10 *598:29 1.08359e-05
25 *591:92 *3345:A 2.56601e-05
26 *591:92 *812:8 2.72859e-05
27 *2559:A *591:14 0.000260262
28 *2561:A *591:92 3.92757e-05
29 *2568:S *591:92 0
30 *2571:A *591:92 2.38671e-05
31 *2574:A *3247:CLK 0.000142856
32 *2574:A *591:20 0
33 *2574:A *591:22 0
34 *2601:A *3256:CLK 3.08664e-05
35 *2724:A2 *591:10 0
36 *2807:C1 *591:10 0
37 *3240:D *3240:CLK 8.95186e-05
38 *3240:D *591:18 0
39 *3241:D *591:14 0.000128093
40 *3244:D *3244:CLK 0.000105246
41 *3245:D *591:92 0.000131985
42 *3246:D *591:22 4.15914e-05
43 *3257:D *3256:CLK 1.757e-05
44 *3262:D *3262:CLK 0.000137983
45 *197:134 *591:10 0
46 *215:108 *591:10 0
47 *358:36 *591:10 0.000200131
48 *358:57 *591:10 4.62539e-05
49 *511:30 *3262:CLK 9.40071e-05
50 *511:30 *591:14 0.00027032
51 *511:34 *591:14 0.000272603
52 *511:66 *591:92 0
*RES
1 *3296:X *591:10 27.5321 
2 *591:10 *591:14 11.2321 
3 *591:14 *591:16 4.5 
4 *591:16 *591:18 1.94643 
5 *591:18 *591:20 7.10714 
6 *591:20 *591:22 3.16071 
7 *591:22 *591:24 2.55357 
8 *591:24 *591:26 2.55357 
9 *591:26 *3248:CLK 25.925 
10 *591:26 *3257:CLK 18.4429 
11 *591:24 *3256:CLK 21.3179 
12 *591:22 *3246:CLK 14.3357 
13 *591:20 *3247:CLK 15.8893 
14 *591:18 *3240:CLK 16.4071 
15 *591:16 *591:92 15.9821 
16 *591:92 *3244:CLK 22.2464 
17 *591:92 *3245:CLK 10.0321 
18 *591:14 *3241:CLK 9.3 
19 *591:10 *3262:CLK 13.1214 
*END

*D_NET *592 0.0167714
*CONN
*I *3281:CLK I *D sky130_fd_sc_hd__dfrtp_1
*I *3270:CLK I *D sky130_fd_sc_hd__dfxtp_1
*I *3271:CLK I *D sky130_fd_sc_hd__dfxtp_1
*I *3173:CLK I *D sky130_fd_sc_hd__dfxtp_1
*I *3286:CLK I *D sky130_fd_sc_hd__dfrtp_1
*I *3287:CLK I *D sky130_fd_sc_hd__dfrtp_1
*I *3272:CLK I *D sky130_fd_sc_hd__dfrtp_1
*I *3294:CLK I *D sky130_fd_sc_hd__dfrtp_1
*I *3293:CLK I *D sky130_fd_sc_hd__dfstp_1
*I *3282:CLK I *D sky130_fd_sc_hd__dfrtp_4
*I *3283:CLK I *D sky130_fd_sc_hd__dfrtp_1
*I *3171:CLK I *D sky130_fd_sc_hd__dfxtp_1
*I *3170:CLK I *D sky130_fd_sc_hd__dfxtp_1
*I *3147:CLK I *D sky130_fd_sc_hd__dfxtp_1
*I *3175:CLK I *D sky130_fd_sc_hd__dfxtp_1
*I *3297:X O *D sky130_fd_sc_hd__clkbuf_8
*CAP
1 *3281:CLK 0
2 *3270:CLK 0
3 *3271:CLK 0.000430634
4 *3173:CLK 6.89738e-05
5 *3286:CLK 0.000221563
6 *3287:CLK 9.15833e-05
7 *3272:CLK 2.3671e-05
8 *3294:CLK 0.000273115
9 *3293:CLK 0
10 *3282:CLK 2.76349e-05
11 *3283:CLK 0
12 *3171:CLK 0.000125455
13 *3170:CLK 5.85144e-05
14 *3147:CLK 1.645e-05
15 *3175:CLK 0.000228974
16 *3297:X 0.000790071
17 *592:139 0.000406525
18 *592:115 0.000434122
19 *592:113 0.000588325
20 *592:102 0.000814956
21 *592:87 0.000718416
22 *592:76 0.000397736
23 *592:32 0.000423634
24 *592:30 0.000323012
25 *592:28 0.000409379
26 *592:26 0.000448951
27 *592:24 0.000543771
28 *592:22 0.000847658
29 *592:18 0.000126321
30 *592:16 0.000887154
31 *3170:CLK *2878:A1 5.03772e-05
32 *3171:CLK *2954:A1 0.000159538
33 *3173:CLK *2737:A2 5.30637e-06
34 *3175:CLK *2968:A1 0
35 *3175:CLK *3357:A 2.44318e-05
36 *3271:CLK *2818:A1 0.00017121
37 *3271:CLK *3361:A 6.02129e-05
38 *3271:CLK *619:62 0
39 *3286:CLK *2654:S 0.000150625
40 *3286:CLK *3286:D 8.86129e-06
41 *3286:CLK *630:73 8.1401e-05
42 *3286:CLK *630:81 0
43 *3286:CLK *783:12 1.52978e-05
44 *3287:CLK *2654:A0 9.71197e-05
45 *592:24 *2731:A2 0.00018459
46 *592:24 *2818:A1 0.000150257
47 *592:24 *3361:A 0.000104477
48 *592:24 *737:46 0.000291715
49 *592:26 *2731:A2 0.000187012
50 *592:28 *2731:A2 9.25014e-06
51 *592:28 *2731:B2 6.88561e-05
52 *592:28 *2810:B2 0
53 *592:28 *2956:A1 9.96487e-05
54 *592:30 *2731:B2 5.73123e-05
55 *592:32 *2731:B2 3.28534e-05
56 *592:32 *2878:A1 5.33882e-05
57 *592:32 *2882:A1 4.15914e-05
58 *592:32 *2968:A1 0
59 *592:32 *921:10 3.01126e-05
60 *592:76 *693:20 9.54364e-05
61 *592:87 *2810:B2 0
62 *592:87 *693:20 0.000109355
63 *592:102 *2640:A1 0.000288576
64 *592:102 *2810:B2 0
65 *592:113 *3293:SET_B 3.02581e-06
66 *592:115 *3272:RESET_B 0
67 *592:139 *783:12 2.49484e-05
68 *2632:A *3271:CLK 5.36586e-05
69 *2632:B *3271:CLK 7.20217e-06
70 *2639:A *592:102 0
71 *2639:B *3282:CLK 2.89114e-05
72 *2639:B *592:102 0.000245374
73 *2641:A *592:87 9.34004e-05
74 *2641:A *592:102 0.000103971
75 *2646:A2 *3287:CLK 0.00010096
76 *2655:A *3272:CLK 5.52302e-05
77 *2655:A *3287:CLK 2.59355e-05
78 *2655:A *592:115 0.000153047
79 *2655:A *592:139 0.000126439
80 *2883:A *3175:CLK 0.000150618
81 *2883:A *592:32 0.000125731
82 *2957:A *592:28 0.00012249
83 *2963:A *592:76 0.000141941
84 *2969:A *3147:CLK 9.90367e-05
85 *3147:D *3147:CLK 9.90367e-05
86 *3170:D *3170:CLK 5.33334e-05
87 *3171:D *3171:CLK 0.000100115
88 *3171:D *592:28 7.36697e-05
89 *3171:D *592:30 1.46689e-05
90 *3175:D *3175:CLK 0.000354369
91 *3270:D *592:18 5.33005e-05
92 *3270:D *592:22 5.33005e-05
93 *3271:D *3271:CLK 8.29284e-05
94 *163:32 *592:102 0.000719386
95 *163:32 *592:113 0.000219676
96 *300:20 *592:24 2.69397e-05
97 *300:20 *592:26 6.04069e-05
98 *300:20 *592:76 0.000142856
99 *315:22 *592:102 6.87574e-05
100 *316:22 *3271:CLK 0.000137535
101 *350:20 *592:24 0.000100831
102 *350:42 *3173:CLK 0.000135028
103 *351:150 *592:24 0
104 *359:111 *592:28 2.70349e-05
105 *359:119 *592:28 2.39407e-05
106 *359:119 *592:30 4.30793e-05
107 *359:119 *592:32 4.94185e-05
108 *574:8 *3271:CLK 0.000114458
*RES
1 *3297:X *592:16 20.1929 
2 *592:16 *592:18 1.76786 
3 *592:18 *592:22 5.03571 
4 *592:22 *592:24 9.83929 
5 *592:24 *592:26 2.55357 
6 *592:26 *592:28 5.28571 
7 *592:28 *592:30 2.25 
8 *592:30 *592:32 4.98214 
9 *592:32 *3175:CLK 19.4786 
10 *592:32 *3147:CLK 14.7464 
11 *592:30 *3170:CLK 15.1571 
12 *592:28 *3171:CLK 16.8 
13 *592:26 *592:76 8.73214 
14 *592:76 *3283:CLK 9.3 
15 *592:76 *592:87 9.75 
16 *592:87 *3282:CLK 14.3357 
17 *592:87 *592:102 17.8571 
18 *592:102 *3293:CLK 9.3 
19 *592:102 *592:113 11.2143 
20 *592:113 *592:115 2.55357 
21 *592:115 *3294:CLK 18.3357 
22 *592:115 *3272:CLK 14.3357 
23 *592:113 *592:139 2.25 
24 *592:139 *3287:CLK 15.9786 
25 *592:139 *3286:CLK 18.0143 
26 *592:24 *3173:CLK 15.1571 
27 *592:22 *3271:CLK 23.1571 
28 *592:18 *3270:CLK 9.3 
29 *592:16 *3281:CLK 9.3 
*END

*D_NET *593 0.0139062
*CONN
*I *3279:CLK I *D sky130_fd_sc_hd__dfrtp_1
*I *3284:CLK I *D sky130_fd_sc_hd__dfrtp_1
*I *3288:CLK I *D sky130_fd_sc_hd__dfrtp_1
*I *3291:CLK I *D sky130_fd_sc_hd__dfrtp_4
*I *3289:CLK I *D sky130_fd_sc_hd__dfrtp_2
*I *3145:CLK I *D sky130_fd_sc_hd__dfrtp_1
*I *3180:CLK I *D sky130_fd_sc_hd__dfxtp_1
*I *3178:CLK I *D sky130_fd_sc_hd__dfxtp_1
*I *3268:CLK I *D sky130_fd_sc_hd__dfxtp_1
*I *3179:CLK I *D sky130_fd_sc_hd__dfxtp_1
*I *3290:CLK I *D sky130_fd_sc_hd__dfrtp_1
*I *3280:CLK I *D sky130_fd_sc_hd__dfrtp_1
*I *3298:X O *D sky130_fd_sc_hd__clkbuf_8
*CAP
1 *3279:CLK 0
2 *3284:CLK 0
3 *3288:CLK 9.81467e-05
4 *3291:CLK 0
5 *3289:CLK 0.000144638
6 *3145:CLK 0
7 *3180:CLK 0
8 *3178:CLK 1.9105e-05
9 *3268:CLK 0.00037573
10 *3179:CLK 0.000135049
11 *3290:CLK 0.000221618
12 *3280:CLK 0.000632509
13 *3298:X 0.000278972
14 *593:95 0.000670186
15 *593:91 0.00107493
16 *593:84 0.000827027
17 *593:77 0.000671895
18 *593:57 0.00091703
19 *593:51 0.000927319
20 *593:40 0.000444382
21 *593:34 0.000344335
22 *593:14 0.000954331
23 *593:10 0.000244221
24 *593:8 0.000278972
25 *3268:CLK *2630:A1 0.000397539
26 *3268:CLK *2790:A1 5.58104e-05
27 *3280:CLK *3280:RESET_B 0.000438461
28 *3288:CLK *3145:RESET_B 0.000109702
29 *3289:CLK *2657:B 0
30 *3289:CLK *2658:A 2.27416e-05
31 *3289:CLK *2659:A 1.00477e-05
32 *3289:CLK *3291:D 4.94455e-05
33 *3289:CLK *795:54 5.52302e-05
34 *3290:CLK *2670:B 9.26203e-05
35 *3290:CLK *3290:D 4.60309e-05
36 *593:14 *3280:RESET_B 0
37 *593:34 *3279:D 6.26559e-05
38 *593:34 *3280:RESET_B 0
39 *593:34 *3284:D 7.11475e-05
40 *593:34 *630:42 9.02232e-05
41 *593:40 *3280:RESET_B 0.000223592
42 *593:40 *3284:D 7.32272e-05
43 *593:40 *630:8 0.000127439
44 *593:40 *630:42 7.61932e-05
45 *593:40 *652:63 0.000139653
46 *593:51 *652:63 0.000224513
47 *593:57 *885:10 0.000100165
48 *593:77 *652:63 0.000581101
49 *593:91 *3145:RESET_B 3.02581e-06
50 *593:95 *2659:A 6.27875e-05
51 *593:95 *786:12 5.7361e-05
52 *2630:A0 *3268:CLK 0.000137639
53 *2630:S *3268:CLK 0.000197291
54 *2631:A *3268:CLK 5.33005e-05
55 *2662:A *593:95 7.80183e-05
56 *2666:B *593:8 4.88515e-05
57 *2667:A *3290:CLK 0.0001399
58 *2673:C1 *593:95 1.95287e-05
59 *3178:D *3178:CLK 1.02301e-05
60 *3178:D *3268:CLK 2.85234e-05
61 *3178:D *593:57 0.000105937
62 *3180:D *593:77 0
63 *3292:D *593:95 0
64 *316:22 *3280:CLK 0.000255048
65 *590:121 *593:14 0.000202842
66 *590:121 *593:34 1.02504e-05
67 *590:138 *593:34 0.00018774
*RES
1 *3298:X *593:8 13.55 
2 *593:8 *593:10 4.5 
3 *593:10 *593:14 7.05357 
4 *593:14 *3280:CLK 22.1571 
5 *593:14 *3290:CLK 13.9429 
6 *593:10 *593:34 8.82143 
7 *593:34 *593:40 10.5357 
8 *593:40 *3179:CLK 15.9786 
9 *593:40 *593:51 2.85714 
10 *593:51 *593:57 13.2679 
11 *593:57 *3268:CLK 18.0679 
12 *593:57 *3178:CLK 9.72857 
13 *593:51 *593:77 11.9107 
14 *593:77 *3180:CLK 9.3 
15 *593:77 *593:84 5.875 
16 *593:84 *3145:CLK 9.3 
17 *593:84 *593:91 6.69643 
18 *593:91 *593:95 14.3393 
19 *593:95 *3289:CLK 16.8893 
20 *593:95 *3291:CLK 13.8 
21 *593:91 *3288:CLK 11.4786 
22 *593:34 *3284:CLK 9.3 
23 *593:8 *3279:CLK 9.3 
*END

*D_NET *594 0.0139838
*CONN
*I *3276:CLK I *D sky130_fd_sc_hd__dfrtp_4
*I *3141:CLK I *D sky130_fd_sc_hd__dfrtp_4
*I *3210:CLK I *D sky130_fd_sc_hd__dfxtp_1
*I *3236:CLK I *D sky130_fd_sc_hd__dfxtp_1
*I *3237:CLK I *D sky130_fd_sc_hd__dfxtp_1
*I *3232:CLK I *D sky130_fd_sc_hd__dfxtp_1
*I *3233:CLK I *D sky130_fd_sc_hd__dfxtp_1
*I *3299:X O *D sky130_fd_sc_hd__clkbuf_8
*CAP
1 *3276:CLK 0.000485603
2 *3141:CLK 0.000158985
3 *3210:CLK 0.000261879
4 *3236:CLK 0
5 *3237:CLK 0
6 *3232:CLK 0.000110132
7 *3233:CLK 0.000336071
8 *3299:X 0
9 *594:83 0.00108349
10 *594:26 0.000763081
11 *594:22 0.000969726
12 *594:14 0.000978509
13 *594:12 0.000795884
14 *594:4 0.000647251
15 *3141:CLK *595:10 0.000476702
16 *3210:CLK *607:46 0.000146991
17 *3210:CLK *775:57 5.33005e-05
18 *3210:CLK *775:61 0.000146392
19 *3276:CLK *2719:A_N 3.49858e-05
20 *3276:CLK *2719:B 4.38679e-06
21 *3276:CLK *2719:C 2.59355e-05
22 *3276:CLK *3273:RESET_B 4.43698e-05
23 *3276:CLK *607:12 0.000388139
24 *3276:CLK *663:8 3.47737e-05
25 *3276:CLK *663:92 4.79479e-05
26 *3276:CLK *773:24 0
27 *2709:B1 *594:22 0.000346266
28 *2757:A3 *3233:CLK 0.000104818
29 *2791:C *3232:CLK 0.000177821
30 *2833:A *3276:CLK 8.21418e-05
31 *3066:A0 *3276:CLK 1.83776e-05
32 *3066:A0 *594:83 0.000232914
33 *3067:A *3210:CLK 0.000182592
34 *3122:A *594:26 1.94879e-05
35 *3210:D *3210:CLK 0.000177459
36 *3232:D *3232:CLK 6.58992e-05
37 *3232:D *594:26 0.000397003
38 *3233:D *3233:CLK 0.000124027
39 *3236:D *594:22 6.69865e-05
40 *3295:A *3233:CLK 2.11419e-05
41 *3300:A *3141:CLK 9.71197e-05
42 *187:58 *594:22 0.000325684
43 *187:58 *594:26 0.000296786
44 *187:64 *594:26 9.99931e-06
45 *202:14 *3233:CLK 4.81698e-05
46 *215:68 *3276:CLK 0.000128066
47 *231:98 *3233:CLK 2.11419e-05
48 *282:22 *3232:CLK 1.10868e-05
49 *282:22 *3233:CLK 0.000164656
50 *317:38 *3141:CLK 0.000178847
51 *319:10 *3276:CLK 0
52 *345:16 *594:83 0.000113061
53 *370:54 *594:22 0.000221393
54 *370:54 *594:26 0.000290872
55 *407:14 *594:83 0.000519366
56 *407:93 *3276:CLK 0.00052122
57 *407:93 *594:83 5.59013e-05
58 *415:27 *594:12 0.000101813
59 *415:50 *3210:CLK 9.58632e-05
60 *430:30 *3232:CLK 0.000175682
61 *430:30 *3233:CLK 0.000249744
62 *474:6 *3210:CLK 5.74499e-06
63 *474:12 *3210:CLK 1.93106e-05
64 *474:12 *594:14 0.000195054
65 *515:10 *594:26 0.000125731
*RES
1 *3299:X *594:4 9.3 
2 *594:4 *594:12 12.9107 
3 *594:12 *594:14 6.28571 
4 *594:14 *594:22 15.4821 
5 *594:22 *594:26 14.0357 
6 *594:26 *3233:CLK 28.05 
7 *594:26 *3232:CLK 12.7107 
8 *594:22 *3237:CLK 13.8 
9 *594:14 *3236:CLK 9.3 
10 *594:12 *3210:CLK 25.0321 
11 *594:4 *594:83 15.3214 
12 *594:83 *3141:CLK 18.4429 
13 *594:83 *3276:CLK 27.3357 
*END

*D_NET *595 0.011638
*CONN
*I *3140:CLK I *D sky130_fd_sc_hd__dfrtp_2
*I *3273:CLK I *D sky130_fd_sc_hd__dfrtp_4
*I *3202:CLK I *D sky130_fd_sc_hd__dfxtp_1
*I *3203:CLK I *D sky130_fd_sc_hd__dfxtp_1
*I *3207:CLK I *D sky130_fd_sc_hd__dfxtp_1
*I *3206:CLK I *D sky130_fd_sc_hd__dfxtp_1
*I *3275:CLK I *D sky130_fd_sc_hd__dfrtp_4
*I *3139:CLK I *D sky130_fd_sc_hd__dfrtp_1
*I *3138:CLK I *D sky130_fd_sc_hd__dfrtp_1
*I *3300:X O *D sky130_fd_sc_hd__clkbuf_8
*CAP
1 *3140:CLK 0.00011782
2 *3273:CLK 5.7669e-05
3 *3202:CLK 0.000113985
4 *3203:CLK 0.000129359
5 *3207:CLK 0
6 *3206:CLK 0
7 *3275:CLK 3.53043e-05
8 *3139:CLK 2.04425e-05
9 *3138:CLK 5.66232e-05
10 *3300:X 0.000433185
11 *595:97 0.00073647
12 *595:82 0.000903643
13 *595:65 0.00120449
14 *595:55 0.00106036
15 *595:38 0.000392546
16 *595:36 0.00036946
17 *595:23 0.00020368
18 *595:10 0.000569924
19 *3138:CLK *770:14 5.72123e-05
20 *3139:CLK *2831:A 2.59355e-05
21 *3139:CLK *773:18 5.33005e-05
22 *3140:CLK *663:24 6.25963e-05
23 *3203:CLK *3335:A 5.91336e-05
24 *3203:CLK *856:6 3.67142e-05
25 *3273:CLK *3273:D 7.17235e-05
26 *3275:CLK *663:24 1.92789e-05
27 *595:36 *2831:A 5.01213e-05
28 *595:36 *3274:RESET_B 0
29 *595:38 *663:24 5.65558e-05
30 *595:55 *2719:B 0
31 *595:55 *3273:RESET_B 0
32 *595:55 *3275:D 0.000142317
33 *595:55 *799:12 0
34 *595:65 *2719:B 0.0001098
35 *595:65 *2719:D 1.92789e-05
36 *595:65 *3273:D 6.05161e-06
37 *595:65 *3275:D 2.95726e-05
38 *595:65 *607:12 0
39 *595:82 *2697:A1 0.000223675
40 *595:82 *2697:B2 7.97067e-05
41 *595:82 *3446:A 0.000470044
42 *595:97 *2765:A1 0
43 *595:97 *2766:A1 3.1891e-05
44 *595:97 *2766:B2 1.38323e-05
45 *595:97 *3050:A1 0.000101216
46 *2697:C1 *595:82 1.02301e-05
47 *2765:A2 *595:97 9.69313e-05
48 *2766:A2 *595:97 7.13226e-06
49 *2766:B1 *595:97 2.59355e-05
50 *2766:C1 *595:82 3.45899e-05
51 *2857:B1 *595:10 6.19181e-05
52 *2859:A *3138:CLK 9.80173e-05
53 *2859:A *595:10 1.02504e-05
54 *2859:A *595:23 0.000195555
55 *2859:A *595:36 0.000173097
56 *3043:A0 *595:82 0.000194664
57 *3046:A *3202:CLK 0.000159467
58 *3046:A *595:97 6.74911e-05
59 *3050:S *595:97 5.1569e-05
60 *3053:A0 *595:82 7.18088e-05
61 *3056:A *595:82 0.000141935
62 *3139:D *595:10 0.000268575
63 *3140:D *595:36 0
64 *3141:CLK *595:10 0.000476702
65 *3203:D *3202:CLK 4.97918e-05
66 *3203:D *3203:CLK 1.64343e-05
67 *3203:D *595:97 9.69119e-06
68 *3206:D *595:65 0.000185118
69 *3206:D *595:82 0.000117263
70 *3207:D *595:82 2.46282e-05
71 *211:10 *595:10 7.45011e-05
72 *211:10 *595:23 6.76272e-05
73 *211:10 *595:36 4.38148e-05
74 *211:10 *595:55 6.26559e-05
75 *317:38 *595:10 1.98839e-05
76 *318:10 *3138:CLK 2.89114e-05
77 *318:117 *3138:CLK 4.87854e-05
78 *340:10 *595:10 2.94103e-05
79 *340:27 *595:10 0.000330055
80 *430:155 *595:97 0.000236509
81 *432:81 *595:82 1.29901e-05
82 *468:12 *595:97 9.15842e-06
*RES
1 *3300:X *595:10 25.4786 
2 *595:10 *3138:CLK 15.5857 
3 *595:10 *595:23 2.55357 
4 *595:23 *3139:CLK 14.3357 
5 *595:23 *595:36 7.35714 
6 *595:36 *595:38 2.58929 
7 *595:38 *3275:CLK 10.2643 
8 *595:38 *595:55 13.8036 
9 *595:55 *595:65 24.0536 
10 *595:65 *3206:CLK 9.3 
11 *595:65 *595:82 20.75 
12 *595:82 *3207:CLK 9.3 
13 *595:82 *595:97 15.0893 
14 *595:97 *3203:CLK 16.3893 
15 *595:97 *3202:CLK 16.8893 
16 *595:55 *3273:CLK 10.6571 
17 *595:36 *3140:CLK 11.4964 
*END

*D_NET *596 0.0110853
*CONN
*I *3137:CLK I *D sky130_fd_sc_hd__dfrtp_1
*I *3285:CLK I *D sky130_fd_sc_hd__dfrtp_1
*I *3144:CLK I *D sky130_fd_sc_hd__dfrtp_1
*I *3278:CLK I *D sky130_fd_sc_hd__dfrtp_1
*I *3277:CLK I *D sky130_fd_sc_hd__dfrtp_1
*I *3292:CLK I *D sky130_fd_sc_hd__dfrtp_1
*I *3136:CLK I *D sky130_fd_sc_hd__dfstp_1
*I *3238:CLK I *D sky130_fd_sc_hd__dfxtp_1
*I *3301:X O *D sky130_fd_sc_hd__clkbuf_8
*CAP
1 *3137:CLK 0.000449723
2 *3285:CLK 3.73289e-05
3 *3144:CLK 0
4 *3278:CLK 0
5 *3277:CLK 0.000132719
6 *3292:CLK 0.00019279
7 *3136:CLK 0
8 *3238:CLK 0.00109477
9 *3301:X 0.000119532
10 *596:63 0.000241777
11 *596:61 0.000624593
12 *596:46 0.000850139
13 *596:44 0.000545169
14 *596:40 0.00113641
15 *596:14 0.00114899
16 *596:12 0.000494409
17 *3137:CLK *3137:RESET_B 5.89097e-05
18 *3238:CLK *2780:A 0.00031876
19 *3238:CLK *2987:A1 5.33005e-05
20 *3238:CLK *3380:A 0.000437762
21 *3238:CLK *3383:A 0
22 *3277:CLK *3277:D 0
23 *3277:CLK *3278:D 1.19309e-05
24 *3277:CLK *3278:RESET_B 0
25 *3277:CLK *652:63 6.42242e-05
26 *3292:CLK *641:18 0
27 *3292:CLK *641:20 0
28 *596:12 *3278:D 3.97677e-05
29 *596:40 *3136:SET_B 2.72654e-05
30 *596:40 *3137:RESET_B 0.000253727
31 *596:40 *674:33 4.54494e-05
32 *596:44 *2824:B2 7.83659e-05
33 *596:44 *3318:A 0.000150625
34 *596:61 *3144:RESET_B 0.000305287
35 *596:61 *3313:A 0.000181264
36 *596:61 *641:18 5.80008e-05
37 *596:63 *3278:D 7.77751e-05
38 *596:63 *3313:A 2.95726e-05
39 *2643:A2 *3137:CLK 9.41642e-05
40 *2643:A2 *596:40 0.000185118
41 *2643:A2 *596:44 5.49257e-05
42 *2643:B1 *596:44 6.62911e-05
43 *2643:B2 *596:44 8.55987e-05
44 *2780:C *3238:CLK 6.2337e-05
45 *2781:C *3238:CLK 1.52978e-05
46 *2783:C *3238:CLK 7.61656e-05
47 *2823:D *596:12 5.30637e-06
48 *2848:B1_N *596:12 6.65302e-05
49 *3068:A0 *3238:CLK 2.97074e-05
50 *3136:D *596:12 3.17163e-05
51 *3136:D *596:14 9.90431e-05
52 *3136:D *596:40 4.18895e-05
53 *3144:D *596:61 7.48091e-05
54 *8:10 *596:14 2.89016e-05
55 *8:10 *596:40 0.000453563
56 *191:18 *3238:CLK 2.59004e-05
57 *191:35 *3238:CLK 4.78056e-05
58 *313:10 *596:12 5.52302e-05
59 *590:138 *596:12 0.000224676
*RES
1 *3301:X *596:12 21.9071 
2 *596:12 *596:14 1.35714 
3 *596:14 *3238:CLK 37.7821 
4 *596:14 *3136:CLK 9.3 
5 *596:12 *596:40 9.98214 
6 *596:40 *596:44 11.9107 
7 *596:44 *596:46 2.55357 
8 *596:46 *3292:CLK 16.8893 
9 *596:46 *596:61 15.3036 
10 *596:61 *596:63 2.17857 
11 *596:63 *3277:CLK 20.8536 
12 *596:63 *3278:CLK 9.3 
13 *596:61 *3144:CLK 9.3 
14 *596:44 *3285:CLK 14.3357 
15 *596:40 *3137:CLK 17.2286 
*END

*D_NET *597 0.00730935
*CONN
*I *3274:CLK I *D sky130_fd_sc_hd__dfrtp_4
*I *3143:CLK I *D sky130_fd_sc_hd__dfrtp_4
*I *3142:CLK I *D sky130_fd_sc_hd__dfrtp_4
*I *3181:CLK I *D sky130_fd_sc_hd__dfxtp_1
*I *3239:CLK I *D sky130_fd_sc_hd__dfxtp_1
*I *3211:CLK I *D sky130_fd_sc_hd__dfxtp_1
*I *3302:X O *D sky130_fd_sc_hd__clkbuf_8
*CAP
1 *3274:CLK 0.000800693
2 *3143:CLK 0.000121334
3 *3142:CLK 5.20195e-05
4 *3181:CLK 0.000282696
5 *3239:CLK 0.000627277
6 *3211:CLK 0
7 *3302:X 4.66031e-05
8 *597:56 0.00104665
9 *597:45 0.000266302
10 *597:16 0.00066136
11 *597:14 0.000698717
12 *597:8 0.0005182
13 *3239:CLK *850:8 9.90367e-05
14 *3274:CLK *3385:A 0.000180398
15 *3274:CLK *770:38 8.91726e-05
16 *3274:CLK *773:14 0
17 *597:8 *774:76 9.84729e-05
18 *597:45 *775:49 2.28776e-05
19 *2554:A *3239:CLK 9.51506e-05
20 *2848:B1_N *597:14 0
21 *2849:A2 *3274:CLK 3.69865e-05
22 *2850:B1 *3274:CLK 8.39e-05
23 *2853:A *3142:CLK 0.000269747
24 *2853:B *3142:CLK 0.000140243
25 *2854:B2 *3274:CLK 0.000120655
26 *2869:B1 *3143:CLK 9.44309e-06
27 *2988:A *3181:CLK 0
28 *3142:D *3142:CLK 0.000100165
29 *3143:D *3143:CLK 7.4854e-05
30 *3181:D *3181:CLK 0
31 *3211:D *3239:CLK 1.64343e-05
32 *3211:D *597:14 0
33 *3239:D *3239:CLK 6.75704e-05
34 *211:14 *3239:CLK 9.99644e-06
35 *312:10 *3274:CLK 0
36 *323:54 *3181:CLK 0
37 *330:28 *3274:CLK 9.33561e-05
38 *330:28 *597:14 7.9321e-05
39 *330:28 *597:45 5.20476e-05
40 *330:28 *597:56 6.07797e-05
41 *334:10 *597:14 0.000104331
42 *334:10 *597:45 1.06172e-05
43 *334:21 *597:45 2.59197e-05
44 *334:21 *597:56 1.48252e-05
45 *334:40 *3274:CLK 4.68089e-05
46 *334:40 *597:56 5.13026e-05
47 *334:55 *3274:CLK 0.000133089
*RES
1 *3302:X *597:8 14.7464 
2 *597:8 *597:14 12.375 
3 *597:14 *597:16 0.535714 
4 *597:16 *3211:CLK 9.3 
5 *597:16 *3239:CLK 19.7286 
6 *597:14 *3181:CLK 23.2821 
7 *597:8 *597:45 2.25 
8 *597:45 *3142:CLK 16.3893 
9 *597:45 *597:56 2.85714 
10 *597:56 *3143:CLK 15.9964 
11 *597:56 *3274:CLK 32.7464 
*END

*D_NET *598 0.014393
*CONN
*I *3189:CLK I *D sky130_fd_sc_hd__dfxtp_1
*I *3267:CLK I *D sky130_fd_sc_hd__dfxtp_1
*I *3252:CLK I *D sky130_fd_sc_hd__dfxtp_1
*I *3250:CLK I *D sky130_fd_sc_hd__dfxtp_1
*I *3251:CLK I *D sky130_fd_sc_hd__dfxtp_1
*I *3242:CLK I *D sky130_fd_sc_hd__dfxtp_1
*I *3253:CLK I *D sky130_fd_sc_hd__dfxtp_1
*I *3266:CLK I *D sky130_fd_sc_hd__dfxtp_1
*I *3249:CLK I *D sky130_fd_sc_hd__dfxtp_1
*I *3243:CLK I *D sky130_fd_sc_hd__dfxtp_1
*I *3303:X O *D sky130_fd_sc_hd__clkbuf_8
*CAP
1 *3189:CLK 0.000176204
2 *3267:CLK 0.000475599
3 *3252:CLK 0.000115462
4 *3250:CLK 0
5 *3251:CLK 0
6 *3242:CLK 0.000154095
7 *3253:CLK 0
8 *3266:CLK 0
9 *3249:CLK 0.000492028
10 *3243:CLK 0.000682491
11 *3303:X 2.61562e-05
12 *598:122 0.00120607
13 *598:82 0.000571695
14 *598:72 0.000948946
15 *598:66 0.00122589
16 *598:62 0.00115334
17 *598:55 0.000175501
18 *598:44 0.000335266
19 *598:29 0.000839865
20 *598:6 0.000876733
21 *3189:CLK *2721:A1 0
22 *3189:CLK *2802:A2 0.000112521
23 *3243:CLK *2580:A0 0.000226513
24 *3243:CLK *2807:A1 0.000295271
25 *3243:CLK *814:8 2.78576e-05
26 *3249:CLK *2565:A1 1.32056e-05
27 *3249:CLK *808:6 3.46801e-05
28 *3252:CLK *2583:A1 0.000124083
29 *3267:CLK *2721:A1 0
30 *3267:CLK *2802:A1 5.36422e-05
31 *3267:CLK *2802:A2 0.000261311
32 *3267:CLK *3452:A 0.000117257
33 *598:6 *2807:A1 2.44318e-05
34 *598:29 *2580:A0 0.000264265
35 *598:29 *2801:B2 5.74309e-05
36 *598:44 *2801:B2 0.000172285
37 *598:122 *2590:A1 4.88515e-05
38 *598:122 *2801:A1 8.93488e-05
39 *598:122 *3454:A 6.5694e-05
40 *2581:A *3243:CLK 0.000101545
41 *2582:A *3267:CLK 9.98137e-05
42 *2622:A *598:44 0.000219548
43 *2622:A *598:55 0.000369993
44 *2623:A0 *3267:CLK 1.84776e-05
45 *2729:B1 *3267:CLK 0
46 *2802:B1 *3267:CLK 0.00017403
47 *3008:A *3189:CLK 0.000105163
48 *3243:D *3243:CLK 0.00013001
49 *3249:D *3249:CLK 0.000144085
50 *3250:D *598:72 1.64343e-05
51 *3250:D *598:82 4.1331e-06
52 *3251:D *598:82 7.1607e-05
53 *3253:D *598:62 1.04232e-05
54 *3253:D *598:66 2.77143e-05
55 *3253:D *598:122 0.000109968
56 *3267:D *3267:CLK 4.27842e-06
57 *174:112 *3267:CLK 5.33005e-05
58 *197:134 *3243:CLK 0.000126446
59 *212:91 *3189:CLK 0.000169866
60 *215:108 *598:29 0
61 *358:57 *598:29 0.00010732
62 *358:57 *598:44 0.000104643
63 *358:57 *598:55 0.000192592
64 *399:73 *3189:CLK 0
65 *511:79 *598:72 0.00031614
66 *511:96 *598:66 0.000186815
67 *511:96 *598:72 1.32056e-05
68 *544:22 *598:66 5.8785e-05
69 *544:22 *598:122 1.79531e-06
70 *591:10 *598:29 1.08359e-05
*RES
1 *3303:X *598:6 9.83571 
2 *598:6 *3243:CLK 32.2464 
3 *598:6 *598:29 9.17857 
4 *598:29 *3249:CLK 21.7643 
5 *598:29 *598:44 4.98214 
6 *598:44 *3266:CLK 13.8 
7 *598:44 *598:55 9.48214 
8 *598:55 *3253:CLK 9.3 
9 *598:55 *598:62 0.428571 
10 *598:62 *598:66 7.53571 
11 *598:66 *598:72 9.19643 
12 *598:72 *598:82 15.0893 
13 *598:82 *3242:CLK 20.9786 
14 *598:82 *3251:CLK 9.3 
15 *598:72 *3250:CLK 9.3 
16 *598:66 *3252:CLK 20.4786 
17 *598:62 *598:122 13.6607 
18 *598:122 *3267:CLK 24.4786 
19 *598:122 *3189:CLK 18.6393 
*END

*D_NET *599 0.0150122
*CONN
*I *3261:CLK I *D sky130_fd_sc_hd__dfxtp_1
*I *3263:CLK I *D sky130_fd_sc_hd__dfxtp_1
*I *3151:CLK I *D sky130_fd_sc_hd__dfxtp_1
*I *3162:CLK I *D sky130_fd_sc_hd__dfxtp_1
*I *3135:CLK I *D sky130_fd_sc_hd__dfxtp_1
*I *3134:CLK I *D sky130_fd_sc_hd__dfxtp_1
*I *3264:CLK I *D sky130_fd_sc_hd__dfxtp_1
*I *3165:CLK I *D sky130_fd_sc_hd__dfxtp_1
*I *3164:CLK I *D sky130_fd_sc_hd__dfxtp_1
*I *3158:CLK I *D sky130_fd_sc_hd__dfxtp_1
*I *3159:CLK I *D sky130_fd_sc_hd__dfxtp_1
*I *3258:CLK I *D sky130_fd_sc_hd__dfxtp_1
*I *3259:CLK I *D sky130_fd_sc_hd__dfxtp_1
*I *3265:CLK I *D sky130_fd_sc_hd__dfxtp_1
*I *3304:X O *D sky130_fd_sc_hd__clkbuf_8
*CAP
1 *3261:CLK 1.50312e-05
2 *3263:CLK 0.000332656
3 *3151:CLK 0.000395659
4 *3162:CLK 0
5 *3135:CLK 0
6 *3134:CLK 0
7 *3264:CLK 0.000324438
8 *3165:CLK 0
9 *3164:CLK 0
10 *3158:CLK 0.000273144
11 *3159:CLK 0
12 *3258:CLK 0
13 *3259:CLK 0
14 *3265:CLK 0.000465933
15 *3304:X 0.000362217
16 *599:138 0.000605914
17 *599:88 0.00043958
18 *599:75 0.000348011
19 *599:65 0.000306855
20 *599:63 0.000581083
21 *599:61 0.000276607
22 *599:59 0.000532288
23 *599:53 0.00114367
24 *599:42 0.000560088
25 *599:16 0.000533791
26 *599:14 0.000253833
27 *599:12 0.000680145
28 *599:10 0.000552476
29 *3151:CLK *2797:B2 0
30 *3151:CLK *2842:A0 2.49942e-05
31 *3263:CLK *2804:A1 3.48705e-05
32 *3263:CLK *748:24 6.05161e-06
33 *3263:CLK *892:8 3.23989e-05
34 *3265:CLK *2805:B2 0
35 *3265:CLK *693:32 2.11336e-05
36 *3265:CLK *693:36 8.0567e-05
37 *3265:CLK *870:10 0
38 *599:10 *748:24 0.00035838
39 *599:12 *748:24 0.000168939
40 *599:14 *2605:A1 0
41 *599:14 *2805:B2 0
42 *599:53 *925:10 0.000314139
43 *599:59 *2797:B2 0
44 *599:59 *2839:A0 0
45 *2606:A *599:53 0
46 *2609:A *3261:CLK 1.33343e-05
47 *2609:A *599:10 0.000386358
48 *2611:A *3263:CLK 7.48301e-06
49 *2611:A *599:10 1.27784e-05
50 *2611:A *599:12 3.93986e-05
51 *2617:A *3265:CLK 0
52 *2620:A0 *3265:CLK 0.000406477
53 *2620:A0 *599:14 0.000142797
54 *2620:A0 *599:16 0.000191877
55 *2620:S *3265:CLK 0.000170654
56 *2621:A *3265:CLK 0.000286017
57 *2804:B1 *3263:CLK 4.43256e-05
58 *2805:B1 *599:10 0
59 *2805:B1 *599:12 0
60 *2805:B1 *599:14 0
61 *2808:A2 *3263:CLK 0.000322848
62 *2838:A *3151:CLK 0.000131472
63 *2840:A *599:59 3.94572e-05
64 *2842:S *3151:CLK 0.000100823
65 *2922:A *3158:CLK 5.65955e-05
66 *2939:A *3264:CLK 1.58163e-05
67 *2939:A *599:65 0.000142417
68 *2939:A *599:75 0.000186067
69 *3134:D *599:61 7.89362e-05
70 *3135:D *599:59 0.000137824
71 *3135:D *599:61 1.00887e-05
72 *3159:D *3158:CLK 0.000111509
73 *3159:D *599:88 6.65398e-05
74 *3162:D *3151:CLK 0.000157532
75 *3165:D *599:65 0
76 *3165:D *599:75 2.07878e-05
77 *3165:D *599:88 3.77053e-05
78 *3258:D *599:42 5.52302e-05
79 *3258:D *599:53 0.000115912
80 *3259:D *3265:CLK 1.41706e-05
81 *3259:D *599:14 1.97381e-05
82 *3259:D *599:16 7.26841e-05
83 *3259:D *599:42 2.14757e-05
84 *3259:D *599:53 9.90367e-05
85 *3260:D *3261:CLK 1.39726e-05
86 *3265:D *3265:CLK 0.000124795
87 *208:58 *3151:CLK 1.76352e-05
88 *299:22 *599:10 0.000528337
89 *316:78 *599:12 0
90 *328:44 *3263:CLK 3.57366e-05
91 *328:44 *599:12 1.02504e-05
92 *328:44 *599:14 0.00017309
93 *359:18 *3151:CLK 0
94 *371:79 *3261:CLK 5.52238e-05
95 *399:73 *599:10 2.8266e-06
96 *528:72 *599:59 0.000309243
*RES
1 *3304:X *599:10 23.5321 
2 *599:10 *599:12 3.16071 
3 *599:12 *599:14 4.07143 
4 *599:14 *599:16 2.55357 
5 *599:16 *3265:CLK 26.1036 
6 *599:16 *3259:CLK 13.8 
7 *599:14 *599:42 5.03571 
8 *599:42 *3258:CLK 9.3 
9 *599:42 *599:53 10.3214 
10 *599:53 *599:59 12.0357 
11 *599:59 *599:61 2.55357 
12 *599:61 *599:63 2.25 
13 *599:63 *599:65 2.85714 
14 *599:65 *599:75 8.66071 
15 *599:75 *3159:CLK 9.3 
16 *599:75 *599:88 7.82143 
17 *599:88 *3158:CLK 18.9429 
18 *599:88 *3164:CLK 13.8 
19 *599:65 *3165:CLK 13.8 
20 *599:63 *3264:CLK 19.2643 
21 *599:61 *3134:CLK 13.8 
22 *599:59 *3135:CLK 13.8 
23 *599:53 *599:138 3.41071 
24 *599:138 *3162:CLK 9.3 
25 *599:138 *3151:CLK 26.4964 
26 *599:12 *3263:CLK 20.5321 
27 *599:10 *3261:CLK 14.3357 
*END

*D_NET *600 0.0140022
*CONN
*I *3220:CLK I *D sky130_fd_sc_hd__dfxtp_1
*I *3155:CLK I *D sky130_fd_sc_hd__dfxtp_1
*I *3188:CLK I *D sky130_fd_sc_hd__dfxtp_1
*I *3154:CLK I *D sky130_fd_sc_hd__dfxtp_1
*I *3156:CLK I *D sky130_fd_sc_hd__dfxtp_1
*I *3157:CLK I *D sky130_fd_sc_hd__dfxtp_1
*I *3149:CLK I *D sky130_fd_sc_hd__dfxtp_1
*I *3163:CLK I *D sky130_fd_sc_hd__dfxtp_1
*I *3260:CLK I *D sky130_fd_sc_hd__dfxtp_1
*I *3305:X O *D sky130_fd_sc_hd__clkbuf_8
*CAP
1 *3220:CLK 0.000557247
2 *3155:CLK 0
3 *3188:CLK 0.000476917
4 *3154:CLK 2.6246e-05
5 *3156:CLK 0
6 *3157:CLK 0
7 *3149:CLK 0.000101604
8 *3163:CLK 0.000172917
9 *3260:CLK 0.000256229
10 *3305:X 0.00025539
11 *600:109 0.000614575
12 *600:94 0.000619689
13 *600:81 0.000552501
14 *600:66 0.000616451
15 *600:37 0.000470871
16 *600:26 0.000827673
17 *600:18 0.000479946
18 *600:12 0.000535882
19 *3149:CLK *893:35 0.000400023
20 *3188:CLK *3375:A 2.14658e-05
21 *3188:CLK *875:6 0.000137437
22 *3220:CLK *2744:A 0
23 *3220:CLK *3375:A 0.000141734
24 *3260:CLK *893:35 0.000657852
25 *3260:CLK *915:10 5.30637e-06
26 *600:18 *2798:A1 1.92789e-05
27 *600:26 *2608:A1 0
28 *600:26 *2805:B2 0
29 *600:37 *893:35 0.000817931
30 *600:37 *915:10 3.98547e-05
31 *600:66 *2798:A1 9.88016e-05
32 *600:81 *2798:A1 1.47872e-05
33 *600:109 *3375:A 4.22142e-05
34 *2572:A *600:18 7.45147e-05
35 *2572:A *600:26 9.46929e-05
36 *2587:A *3188:CLK 0.000478626
37 *2587:A *600:109 8.17274e-05
38 *2607:A *600:37 3.97677e-05
39 *2607:B *600:37 0.000135028
40 *2608:S *600:26 0.000171368
41 *2744:B *3220:CLK 4.96957e-05
42 *2744:B *600:109 7.03295e-05
43 *2744:C *600:109 0.000125693
44 *2747:B1 *3163:CLK 0
45 *2747:B1 *600:12 0
46 *2747:B1 *600:66 0
47 *2748:A1 *600:94 6.04162e-05
48 *2748:B1 *600:81 4.26608e-05
49 *2748:C1 *3154:CLK 2.85234e-05
50 *2798:A2 *600:81 9.76767e-05
51 *2798:A3 *600:66 3.47641e-06
52 *2798:A3 *600:81 0.000105091
53 *2798:B1 *600:26 0.000104788
54 *2799:C1 *600:81 5.50052e-05
55 *2910:A *3220:CLK 0.000136951
56 *2914:A *600:66 3.75903e-05
57 *2914:A *600:81 6.13772e-05
58 *2916:A *600:66 9.55323e-06
59 *2935:B *3149:CLK 0.00021592
60 *2935:B *600:37 0.000255109
61 *3155:D *3220:CLK 0.000401697
62 *3156:D *600:81 2.81539e-05
63 *3157:D *600:12 3.81876e-05
64 *3157:D *600:18 1.64343e-05
65 *3157:D *600:66 8.6229e-06
66 *3188:D *3188:CLK 8.82363e-05
67 *3260:D *3260:CLK 1.64343e-05
68 *3261:D *3260:CLK 1.90303e-05
69 *181:50 *600:26 0
70 *181:56 *3163:CLK 0
71 *207:90 *600:81 0.000169191
72 *207:90 *600:94 0.000223592
73 *215:108 *600:26 0.000107672
74 *221:16 *600:94 0
75 *231:44 *600:81 9.03038e-05
76 *316:70 *600:26 6.84743e-05
77 *374:105 *3220:CLK 5.58941e-05
78 *374:113 *3220:CLK 6.37237e-05
79 *374:141 *3220:CLK 0.000306179
80 *376:84 *3220:CLK 0.000350644
81 *395:53 *600:18 2.79421e-05
82 *395:53 *600:26 1.92789e-05
83 *395:53 *600:81 0
84 *395:57 *600:66 4.16786e-05
85 *527:26 *600:81 1.94945e-05
86 *528:18 *600:12 0.000313198
87 *528:62 *600:12 3.17148e-05
*RES
1 *3305:X *600:12 18.9786 
2 *600:12 *600:18 6.69643 
3 *600:18 *600:26 17.5714 
4 *600:26 *3260:CLK 16.0143 
5 *600:26 *600:37 7.92857 
6 *600:37 *3163:CLK 21.1571 
7 *600:37 *3149:CLK 13.55 
8 *600:18 *3157:CLK 9.3 
9 *600:12 *600:66 7.66071 
10 *600:66 *3156:CLK 9.3 
11 *600:66 *600:81 14.0357 
12 *600:81 *3154:CLK 14.3357 
13 *600:81 *600:94 7.35714 
14 *600:94 *3188:CLK 19.4429 
15 *600:94 *600:109 2.17857 
16 *600:109 *3155:CLK 9.3 
17 *600:109 *3220:CLK 31.3536 
*END

*D_NET *601 0.0107553
*CONN
*I *3235:CLK I *D sky130_fd_sc_hd__dfxtp_1
*I *3234:CLK I *D sky130_fd_sc_hd__dfxtp_1
*I *3225:CLK I *D sky130_fd_sc_hd__dfxtp_1
*I *3224:CLK I *D sky130_fd_sc_hd__dfxtp_1
*I *3227:CLK I *D sky130_fd_sc_hd__dfxtp_1
*I *3228:CLK I *D sky130_fd_sc_hd__dfxtp_1
*I *3229:CLK I *D sky130_fd_sc_hd__dfxtp_1
*I *3230:CLK I *D sky130_fd_sc_hd__dfxtp_1
*I *3231:CLK I *D sky130_fd_sc_hd__dfxtp_1
*I *3306:X O *D sky130_fd_sc_hd__clkbuf_8
*CAP
1 *3235:CLK 0
2 *3234:CLK 0.000261543
3 *3225:CLK 0
4 *3224:CLK 0.00011458
5 *3227:CLK 0.000330513
6 *3228:CLK 2.23854e-05
7 *3229:CLK 8.02459e-05
8 *3230:CLK 0
9 *3231:CLK 0.000151562
10 *3306:X 0.000848318
11 *601:99 0.000825078
12 *601:88 0.000590201
13 *601:55 0.000381561
14 *601:42 0.000493193
15 *601:22 0.000421694
16 *601:14 0.000812988
17 *601:12 0.000377573
18 *601:10 0.000979405
19 *3227:CLK *2773:A 3.38875e-05
20 *3229:CLK *726:38 3.14219e-05
21 *601:10 *822:12 0.000148449
22 *601:12 *823:14 0
23 *601:14 *3128:A1 0
24 *601:14 *3130:A1 0
25 *601:42 *2773:A 6.42095e-05
26 *601:42 *3120:A1 0.000318107
27 *601:55 *2773:A 2.14658e-05
28 *601:88 *2714:A1 1.77658e-05
29 *601:99 *2714:A1 1.02911e-05
30 *601:99 *822:12 0.000401481
31 *601:99 *823:14 4.32721e-05
32 *3115:A *3229:CLK 3.17148e-05
33 *3115:A *601:42 5.33005e-05
34 *3115:A *601:55 4.08637e-05
35 *3119:A *601:42 0.000228784
36 *3120:A0 *601:42 5.33005e-05
37 *3121:A *601:22 5.01883e-05
38 *3128:A0 *601:42 6.59531e-05
39 *3128:S *601:14 0
40 *3128:S *601:22 0
41 *3129:A *3234:CLK 0
42 *3130:A0 *3224:CLK 2.42054e-05
43 *3130:S *3224:CLK 0
44 *3224:D *601:10 0.000124083
45 *3224:D *601:12 0.000146208
46 *3224:D *601:14 8.14787e-05
47 *3228:D *3227:CLK 1.64343e-05
48 *3229:D *3229:CLK 0.00012465
49 *3230:D *601:22 7.54868e-05
50 *3231:D *3231:CLK 7.85137e-05
51 *3234:D *3234:CLK 5.71472e-05
52 *3235:D *3234:CLK 0
53 *3235:D *601:99 1.64343e-05
54 *445:8 *3229:CLK 0.000217155
55 *500:12 *601:42 0.000478999
56 *500:131 *3227:CLK 0.000620127
57 *500:131 *601:42 0.000294913
58 *500:131 *601:55 9.41642e-05
*RES
1 *3306:X *601:10 27.3 
2 *601:10 *601:12 1.94643 
3 *601:12 *601:14 2.85714 
4 *601:14 *601:22 8.83929 
5 *601:22 *3231:CLK 20.8536 
6 *601:22 *3230:CLK 9.3 
7 *601:14 *601:42 15.7143 
8 *601:42 *3229:CLK 21.1571 
9 *601:42 *601:55 0.946429 
10 *601:55 *3228:CLK 9.72857 
11 *601:55 *3227:CLK 17.3714 
12 *601:12 *3224:CLK 15.4786 
13 *601:10 *601:88 5.03571 
14 *601:88 *3225:CLK 9.3 
15 *601:88 *601:99 10.8393 
16 *601:99 *3234:CLK 23.05 
17 *601:99 *3235:CLK 9.3 
*END

*D_NET *602 0.0121902
*CONN
*I *3192:CLK I *D sky130_fd_sc_hd__dfxtp_1
*I *3215:CLK I *D sky130_fd_sc_hd__dfxtp_1
*I *3213:CLK I *D sky130_fd_sc_hd__dfxtp_1
*I *3212:CLK I *D sky130_fd_sc_hd__dfxtp_1
*I *3214:CLK I *D sky130_fd_sc_hd__dfxtp_1
*I *3217:CLK I *D sky130_fd_sc_hd__dfxtp_1
*I *3209:CLK I *D sky130_fd_sc_hd__dfxtp_1
*I *3208:CLK I *D sky130_fd_sc_hd__dfxtp_1
*I *3216:CLK I *D sky130_fd_sc_hd__dfxtp_1
*I *3218:CLK I *D sky130_fd_sc_hd__dfxtp_1
*I *3219:CLK I *D sky130_fd_sc_hd__dfxtp_1
*I *3307:X O *D sky130_fd_sc_hd__clkbuf_8
*CAP
1 *3192:CLK 0.000186255
2 *3215:CLK 0
3 *3213:CLK 0.000166161
4 *3212:CLK 0.000174712
5 *3214:CLK 0
6 *3217:CLK 0
7 *3209:CLK 0.000144379
8 *3208:CLK 3.72884e-05
9 *3216:CLK 0.000461169
10 *3218:CLK 0
11 *3219:CLK 0.000158152
12 *3307:X 0
13 *602:107 0.000510422
14 *602:101 0.00065537
15 *602:86 0.00094332
16 *602:59 0.000626154
17 *602:53 0.000842248
18 *602:31 0.000583139
19 *602:25 0.000610753
20 *602:14 0.000614302
21 *602:10 0.000954102
22 *602:4 0.000317731
23 *3213:CLK *2741:A1 3.17163e-05
24 *3216:CLK *843:18 5.65955e-05
25 *602:14 *3088:A0 0.000229456
26 *602:14 *840:16 0.000560241
27 *602:31 *843:18 3.79877e-06
28 *602:53 *843:18 0.000124083
29 *602:86 *2742:B2 0
30 *602:86 *2793:A1 0
31 *602:86 *2794:A1 0
32 *602:86 *3081:A0 0.000265385
33 *602:86 *841:12 0
34 *602:101 *2741:A1 0.000113362
35 *602:101 *2792:A1 0
36 *602:101 *2794:A1 0
37 *602:101 *3431:A 1.97695e-05
38 *602:107 *2741:A1 0.000107503
39 *602:107 *3431:A 1.33343e-05
40 *2741:B1 *602:101 0
41 *2794:B1 *602:101 0.000148911
42 *2794:C1 *602:86 0.000114819
43 *3063:A1 *602:25 0.000146208
44 *3063:A1 *602:53 0.000245778
45 *3070:A *602:10 0
46 *3072:A *3212:CLK 0.000106455
47 *3074:A *3213:CLK 1.84776e-05
48 *3078:S *602:86 0
49 *3078:S *602:101 0
50 *3082:A *3219:CLK 0.000135335
51 *3082:A *602:14 5.85026e-05
52 *3084:A *602:53 7.15846e-05
53 *3084:A *602:59 1.92905e-05
54 *3086:S *602:86 0
55 *3088:S *602:14 5.71472e-05
56 *3208:D *3209:CLK 5.5782e-05
57 *3209:D *3209:CLK 0
58 *3209:D *602:59 0
59 *3212:D *3212:CLK 8.42801e-05
60 *3212:D *3213:CLK 0
61 *3213:D *3213:CLK 5.49995e-05
62 *3215:D *602:101 7.99653e-05
63 *3216:D *3216:CLK 0.000190948
64 *3217:D *602:53 0.000116676
65 *3217:D *602:59 5.71472e-05
66 *3219:D *3219:CLK 2.62061e-05
67 *3219:D *602:25 0
68 *3219:D *602:53 0
69 *3219:D *602:59 0
70 *3295:A *602:59 0.000134186
71 *3307:A *3192:CLK 4.18895e-05
72 *3307:A *602:10 0.00010096
73 *430:64 *3192:CLK 9.90431e-05
74 *430:64 *602:10 0
75 *442:58 *602:10 0.000149419
76 *442:58 *602:86 0.000187019
77 *445:23 *3192:CLK 8.25843e-06
78 *445:70 *3192:CLK 7.53317e-05
79 *477:8 *602:86 0
80 *489:8 *602:14 9.46929e-05
*RES
1 *3307:X *602:4 9.3 
2 *602:4 *602:10 7.39286 
3 *602:10 *602:14 13.6607 
4 *602:14 *3219:CLK 12.7107 
5 *602:14 *602:25 6.44643 
6 *602:25 *602:31 6.17857 
7 *602:31 *3218:CLK 9.3 
8 *602:31 *3216:CLK 17.1571 
9 *602:25 *602:53 12.7143 
10 *602:53 *602:59 12.75 
11 *602:59 *3208:CLK 14.3357 
12 *602:59 *3209:CLK 16.5857 
13 *602:53 *3217:CLK 9.3 
14 *602:10 *602:86 9.83929 
15 *602:86 *3214:CLK 13.8 
16 *602:86 *602:101 13.3929 
17 *602:101 *602:107 8 
18 *602:107 *3212:CLK 17.6214 
19 *602:107 *3213:CLK 17.1929 
20 *602:101 *3215:CLK 9.3 
21 *602:4 *3192:CLK 13.1393 
*END

*D_NET *603 0.0175711
*CONN
*I *3176:CLK I *D sky130_fd_sc_hd__dfxtp_1
*I *3177:CLK I *D sky130_fd_sc_hd__dfxtp_1
*I *3193:CLK I *D sky130_fd_sc_hd__dfxtp_1
*I *3222:CLK I *D sky130_fd_sc_hd__dfxtp_1
*I *3221:CLK I *D sky130_fd_sc_hd__dfxtp_1
*I *3191:CLK I *D sky130_fd_sc_hd__dfxtp_1
*I *3190:CLK I *D sky130_fd_sc_hd__dfxtp_1
*I *3223:CLK I *D sky130_fd_sc_hd__dfxtp_1
*I *3226:CLK I *D sky130_fd_sc_hd__dfxtp_1
*I *3186:CLK I *D sky130_fd_sc_hd__dfxtp_1
*I *3308:X O *D sky130_fd_sc_hd__clkbuf_8
*CAP
1 *3176:CLK 8.77884e-05
2 *3177:CLK 0
3 *3193:CLK 0
4 *3222:CLK 0
5 *3221:CLK 0.000338193
6 *3191:CLK 0.000318072
7 *3190:CLK 0.000372305
8 *3223:CLK 0
9 *3226:CLK 0.000132977
10 *3186:CLK 0.000232819
11 *3308:X 0.000641325
12 *603:91 0.000923929
13 *603:82 0.000672865
14 *603:70 0.000777505
15 *603:68 0.000820353
16 *603:39 0.00141612
17 *603:31 0.000692806
18 *603:25 0.00036409
19 *603:21 0.000300975
20 *603:8 0.000953257
21 *3176:CLK *2775:A1 1.98839e-05
22 *3221:CLK *3091:A0 0.000136958
23 *3226:CLK *2706:A 0.000241199
24 *603:8 *2717:A1 3.00145e-05
25 *603:8 *3360:A 4.69463e-05
26 *603:21 *2775:B2 3.24771e-05
27 *603:31 *2707:A1 2.03618e-05
28 *603:68 *2704:A1 0.000198559
29 *2704:A2 *603:68 5.06945e-05
30 *2704:B1 *3221:CLK 1.28715e-05
31 *2704:B1 *603:82 9.54798e-06
32 *2730:A1 *603:68 5.49544e-05
33 *2730:A2 *603:68 0.000100037
34 *2775:A2 *3176:CLK 5.56093e-05
35 *2777:A2 *3176:CLK 2.59355e-05
36 *2777:A2 *603:25 5.29944e-05
37 *2777:A2 *603:31 0.000201685
38 *2911:A *3190:CLK 5.71472e-05
39 *2911:D_N *3190:CLK 1.58163e-05
40 *2934:A *3190:CLK 1.21289e-05
41 *2973:B *603:31 0.000227532
42 *2973:B *603:39 1.39841e-05
43 *2975:A *603:31 1.83318e-05
44 *2990:B *603:25 9.26683e-05
45 *2990:B *603:31 2.87506e-05
46 *3091:S *3221:CLK 0.000138606
47 *3186:D *3186:CLK 0.000103041
48 *3193:D *603:39 1.15797e-05
49 *3308:A *603:8 5.52238e-05
50 *3309:A *603:8 8.31492e-05
51 *177:100 *603:82 6.47358e-05
52 *177:100 *603:91 0.000143795
53 *181:32 *3226:CLK 0.000123333
54 *181:32 *603:21 0
55 *181:32 *603:39 0.000615467
56 *181:34 *3226:CLK 0.00014571
57 *183:56 *603:68 6.05161e-06
58 *183:69 *3221:CLK 0.000367495
59 *183:75 *3221:CLK 0.00031275
60 *190:18 *603:68 4.15526e-05
61 *193:60 *603:82 7.62903e-05
62 *193:76 *603:68 0.000194655
63 *197:60 *603:68 9.01038e-05
64 *197:60 *603:82 0.000388316
65 *202:52 *603:68 0.000132043
66 *202:52 *603:82 9.25559e-05
67 *207:12 *3176:CLK 0.000128496
68 *207:39 *3186:CLK 9.00415e-05
69 *207:39 *603:8 4.58194e-05
70 *207:47 *3186:CLK 1.3701e-05
71 *208:10 *3191:CLK 4.22135e-06
72 *208:18 *3191:CLK 0.000224191
73 *208:18 *603:91 0.000183894
74 *208:106 *603:21 7.69776e-06
75 *235:20 *3226:CLK 1.55857e-05
76 *235:20 *603:39 6.93567e-05
77 *267:44 *603:68 0.000318431
78 *321:28 *3190:CLK 8.32332e-05
79 *336:25 *3190:CLK 2.89016e-05
80 *365:22 *3191:CLK 1.03196e-05
81 *365:22 *603:82 6.32065e-05
82 *365:22 *603:91 0.000334729
83 *365:64 *3191:CLK 0.000136485
84 *369:74 *603:82 6.56808e-05
85 *374:141 *3221:CLK 0.000724714
86 *374:141 *603:82 6.00981e-05
87 *376:80 *603:82 0.000281658
88 *399:34 *603:39 0.00046993
89 *421:32 *603:31 0
90 *424:22 *3176:CLK 2.59355e-05
91 *424:22 *603:21 0.000142044
92 *424:22 *603:25 5.37664e-05
*RES
1 *3308:X *603:8 17.2464 
2 *603:8 *3186:CLK 12.6214 
3 *603:8 *603:21 6.44643 
4 *603:21 *603:25 2.78571 
5 *603:25 *603:31 9.53571 
6 *603:31 *603:39 15.1696 
7 *603:39 *3226:CLK 17.4161 
8 *603:39 *603:68 18.6559 
9 *603:68 *603:70 4.5 
10 *603:70 *603:82 11.0182 
11 *603:82 *3223:CLK 13.8 
12 *603:82 *603:91 6.80357 
13 *603:91 *3190:CLK 19.3 
14 *603:91 *3191:CLK 20.9607 
15 *603:70 *3221:CLK 25.3536 
16 *603:68 *3222:CLK 9.3 
17 *603:31 *3193:CLK 9.3 
18 *603:25 *3177:CLK 13.8 
19 *603:21 *3176:CLK 15.9786 
*END

*D_NET *604 0.0153463
*CONN
*I *3187:CLK I *D sky130_fd_sc_hd__dfxtp_1
*I *3204:CLK I *D sky130_fd_sc_hd__dfxtp_1
*I *3205:CLK I *D sky130_fd_sc_hd__dfxtp_1
*I *3201:CLK I *D sky130_fd_sc_hd__dfxtp_1
*I *3200:CLK I *D sky130_fd_sc_hd__dfxtp_1
*I *3196:CLK I *D sky130_fd_sc_hd__dfxtp_1
*I *3197:CLK I *D sky130_fd_sc_hd__dfxtp_1
*I *3195:CLK I *D sky130_fd_sc_hd__dfxtp_1
*I *3198:CLK I *D sky130_fd_sc_hd__dfxtp_1
*I *3194:CLK I *D sky130_fd_sc_hd__dfxtp_1
*I *3199:CLK I *D sky130_fd_sc_hd__dfxtp_1
*I *3183:CLK I *D sky130_fd_sc_hd__dfxtp_1
*I *3182:CLK I *D sky130_fd_sc_hd__dfxtp_1
*I *3309:X O *D sky130_fd_sc_hd__clkbuf_8
*CAP
1 *3187:CLK 0.000175864
2 *3204:CLK 0
3 *3205:CLK 0.000153174
4 *3201:CLK 0
5 *3200:CLK 0.000215817
6 *3196:CLK 0.000150435
7 *3197:CLK 0.0001657
8 *3195:CLK 0.000204236
9 *3198:CLK 3.64069e-05
10 *3194:CLK 0.00028217
11 *3199:CLK 0
12 *3183:CLK 0.000176223
13 *3182:CLK 6.6166e-05
14 *3309:X 8.8309e-05
15 *604:156 0.000566715
16 *604:143 0.000542693
17 *604:126 0.000463314
18 *604:98 0.000428596
19 *604:92 0.000321884
20 *604:55 0.000458671
21 *604:53 0.00114479
22 *604:49 0.00103318
23 *604:40 0.000679605
24 *604:14 0.000544753
25 *604:12 0.000867285
26 *604:10 0.00029113
27 *3187:CLK *3319:A 7.44547e-05
28 *3196:CLK *2764:B2 2.04825e-05
29 *3196:CLK *3458:A 0.000236806
30 *3197:CLK *866:8 1.92789e-05
31 *3200:CLK *3030:A0 0.000149904
32 *3200:CLK *864:8 5.07121e-05
33 *3205:CLK *3461:A 5.66157e-05
34 *604:10 *2775:A1 4.43898e-05
35 *604:12 *3319:A 3.17684e-05
36 *604:14 *2993:A1 5.52302e-05
37 *604:14 *3319:A 1.58163e-05
38 *604:40 *2764:A1 0
39 *604:40 *2764:B2 0.000193849
40 *604:40 *2775:A1 8.15095e-05
41 *604:49 *2764:B2 0.000249497
42 *604:49 *3035:A1 4.79864e-05
43 *604:92 *2764:A1 0
44 *604:92 *2764:B2 0.000136498
45 *604:98 *2764:B2 0.000109392
46 *604:126 *3028:A0 2.84109e-05
47 *604:143 *3028:A0 0.000125524
48 *604:156 *2765:B2 2.59355e-05
49 *2692:A2 *604:98 1.62025e-05
50 *2692:A2 *604:143 3.09985e-05
51 *2692:A2 *604:156 2.10974e-05
52 *2692:B1 *604:98 5.7616e-05
53 *2698:B1 *604:98 4.87854e-05
54 *2698:B1 *604:126 0.00015432
55 *2698:B1 *604:143 0.00015432
56 *2993:S *604:14 0.000209526
57 *3003:A1 *604:10 4.05607e-05
58 *3003:A1 *604:40 0
59 *3023:S *604:53 8.88686e-05
60 *3026:A *3195:CLK 0
61 *3029:A *3196:CLK 9.41642e-05
62 *3029:A *604:98 2.59355e-05
63 *3029:A *604:126 5.20751e-05
64 *3031:A *3197:CLK 3.71343e-05
65 *3031:A *604:53 0.000303698
66 *3031:A *604:98 0
67 *3041:A *3205:CLK 3.57844e-05
68 *3182:D *3182:CLK 0.00013001
69 *3187:D *3187:CLK 0.000126512
70 *3194:D *3194:CLK 4.46186e-06
71 *3194:D *3195:CLK 0
72 *3195:D *3195:CLK 4.1331e-06
73 *3196:D *3196:CLK 2.28598e-05
74 *3197:D *3196:CLK 0.000201127
75 *3197:D *3197:CLK 4.09103e-05
76 *3198:D *604:53 9.44309e-06
77 *3198:D *604:55 1.63414e-05
78 *3201:D *604:156 0.000404114
79 *3204:D *3205:CLK 2.8266e-06
80 *3205:D *3205:CLK 0
81 *181:134 *604:40 0.000248012
82 *190:18 *604:40 0
83 *197:108 *3182:CLK 0.000101157
84 *197:108 *604:14 7.1271e-05
85 *215:20 *3187:CLK 3.4968e-05
86 *215:38 *3182:CLK 9.90431e-05
87 *215:38 *3183:CLK 0.000110754
88 *215:38 *3187:CLK 0.000319507
89 *215:38 *604:12 8.52803e-05
90 *215:38 *604:14 0.000928538
91 *430:74 *3183:CLK 2.92863e-05
92 *432:143 *3183:CLK 7.6021e-05
93 *453:12 *604:53 9.7497e-05
94 *456:10 *604:40 0
*RES
1 *3309:X *604:10 20.2464 
2 *604:10 *604:12 0.946429 
3 *604:12 *604:14 9.16071 
4 *604:14 *3182:CLK 11.8893 
5 *604:14 *3183:CLK 21.925 
6 *604:12 *604:40 16.7679 
7 *604:40 *3199:CLK 13.8 
8 *604:40 *604:49 3.46429 
9 *604:49 *604:53 14.4821 
10 *604:53 *604:55 1.76786 
11 *604:55 *3194:CLK 22.55 
12 *604:55 *3198:CLK 10.0321 
13 *604:53 *3195:CLK 22.3714 
14 *604:49 *604:92 6.44643 
15 *604:92 *604:98 7.34821 
16 *604:98 *3197:CLK 16.5946 
17 *604:98 *3196:CLK 18.4696 
18 *604:92 *604:126 3 
19 *604:126 *3200:CLK 22.4429 
20 *604:126 *604:143 3.82143 
21 *604:143 *3201:CLK 9.3 
22 *604:143 *604:156 7.67857 
23 *604:156 *3205:CLK 21.2107 
24 *604:156 *3204:CLK 9.3 
25 *604:10 *3187:CLK 14.3536 
*END

*D_NET *605 0.0141017
*CONN
*I *3172:CLK I *D sky130_fd_sc_hd__dfxtp_1
*I *3150:CLK I *D sky130_fd_sc_hd__dfxtp_1
*I *3169:CLK I *D sky130_fd_sc_hd__dfxtp_1
*I *3174:CLK I *D sky130_fd_sc_hd__dfxtp_1
*I *3146:CLK I *D sky130_fd_sc_hd__dfxtp_1
*I *3152:CLK I *D sky130_fd_sc_hd__dfxtp_1
*I *3160:CLK I *D sky130_fd_sc_hd__dfxtp_1
*I *3153:CLK I *D sky130_fd_sc_hd__dfxtp_1
*I *3161:CLK I *D sky130_fd_sc_hd__dfxtp_1
*I *3168:CLK I *D sky130_fd_sc_hd__dfxtp_1
*I *3310:X O *D sky130_fd_sc_hd__clkbuf_8
*CAP
1 *3172:CLK 0
2 *3150:CLK 0.00057839
3 *3169:CLK 0
4 *3174:CLK 0.000105439
5 *3146:CLK 0.000764299
6 *3152:CLK 0
7 *3160:CLK 0.00015381
8 *3153:CLK 0
9 *3161:CLK 0.000330868
10 *3168:CLK 0.000172105
11 *3310:X 0.000294182
12 *605:73 0.00110198
13 *605:60 0.000253173
14 *605:51 0.000174745
15 *605:37 0.000594601
16 *605:31 0.000457581
17 *605:29 0.000520588
18 *605:27 0.000905131
19 *605:18 0.000564962
20 *605:8 0.000687039
21 *3146:CLK *2815:B2 0
22 *3150:CLK *2737:B2 0
23 *3150:CLK *917:8 0.00022403
24 *3160:CLK *3353:A 0.000142856
25 *3161:CLK *904:12 2.27416e-05
26 *3161:CLK *907:8 0.00012389
27 *605:8 *2736:A1 0.000103267
28 *605:8 *899:10 0.000197977
29 *605:18 *3395:A 0.000209326
30 *605:29 *2812:B2 0
31 *605:31 *2812:B2 0
32 *605:37 *904:12 5.30637e-06
33 *2740:A1 *605:18 0
34 *2740:A3 *605:8 0
35 *2815:A2 *3150:CLK 0.000188963
36 *2815:A2 *605:29 0.000211457
37 *2816:A *3150:CLK 1.08192e-05
38 *2816:B *3168:CLK 0.000106147
39 *2881:A *605:8 1.78447e-05
40 *2904:A *605:31 5.97719e-05
41 *2904:A *605:37 0.000121606
42 *2919:A0 *3160:CLK 0.000207844
43 *2919:A0 *3174:CLK 0.000278306
44 *2919:A0 *605:60 2.14757e-05
45 *2919:A0 *605:73 0.000366106
46 *2926:A1 *3146:CLK 0
47 *2926:A1 *605:37 8.08376e-05
48 *2947:B *3150:CLK 0.00015789
49 *2950:S *3150:CLK 3.57844e-05
50 *2950:S *605:29 8.91505e-05
51 *2951:A *605:29 0
52 *3150:D *3150:CLK 0.000124214
53 *3152:D *605:31 0.000115082
54 *3152:D *605:37 4.46186e-06
55 *3152:D *605:73 8.65694e-05
56 *3153:D *605:37 1.64343e-05
57 *3160:D *3160:CLK 5.71472e-05
58 *3161:D *3161:CLK 0.00013001
59 *3168:D *3168:CLK 1.64343e-05
60 *3172:D *605:8 1.02504e-05
61 *3172:D *605:18 0.000152333
62 *3174:D *3146:CLK 0
63 *218:124 *605:8 0.000543676
64 *218:126 *605:8 9.77615e-05
65 *218:126 *605:18 1.18064e-05
66 *226:22 *3150:CLK 8.30677e-05
67 *226:22 *605:18 0.000493701
68 *226:22 *605:29 0.000168496
69 *307:18 *3150:CLK 1.17968e-05
70 *325:16 *605:8 0.000123752
71 *325:28 *3150:CLK 0.00015656
72 *328:20 *3150:CLK 7.35213e-06
73 *358:22 *3150:CLK 0.000226267
74 *369:132 *3168:CLK 0.000266595
75 *369:132 *605:18 0.000436265
76 *374:40 *605:29 5.63791e-05
77 *374:40 *605:31 6.30023e-05
*RES
1 *3310:X *605:8 23.3357 
2 *605:8 *605:18 15.5357 
3 *605:18 *3168:CLK 13.9429 
4 *605:18 *605:27 4.5 
5 *605:27 *605:29 7.10714 
6 *605:29 *605:31 4.98214 
7 *605:31 *605:37 10.3571 
8 *605:37 *3161:CLK 15.9964 
9 *605:37 *3153:CLK 9.3 
10 *605:31 *605:51 4.5 
11 *605:51 *3160:CLK 13.5321 
12 *605:51 *605:60 0.535714 
13 *605:60 *3152:CLK 9.3 
14 *605:60 *605:73 6.03571 
15 *605:73 *3146:CLK 30.8 
16 *605:73 *3174:CLK 12.3 
17 *605:29 *3169:CLK 13.8 
18 *605:27 *3150:CLK 27.1214 
19 *605:8 *3172:CLK 13.8 
*END

*D_NET *606 0.0150454
*CONN
*I *3185:CLK I *D sky130_fd_sc_hd__dfxtp_1
*I *3184:CLK I *D sky130_fd_sc_hd__dfxtp_1
*I *3269:CLK I *D sky130_fd_sc_hd__dfxtp_1
*I *3166:CLK I *D sky130_fd_sc_hd__dfxtp_1
*I *3255:CLK I *D sky130_fd_sc_hd__dfxtp_1
*I *3254:CLK I *D sky130_fd_sc_hd__dfxtp_1
*I *3148:CLK I *D sky130_fd_sc_hd__dfxtp_1
*I *3167:CLK I *D sky130_fd_sc_hd__dfxtp_1
*I *3311:X O *D sky130_fd_sc_hd__clkbuf_8
*CAP
1 *3185:CLK 7.54837e-05
2 *3184:CLK 3.31844e-05
3 *3269:CLK 0.000202224
4 *3166:CLK 0.000116051
5 *3255:CLK 0.000191293
6 *3254:CLK 0
7 *3148:CLK 0
8 *3167:CLK 0
9 *3311:X 2.93262e-05
10 *606:102 0.000554619
11 *606:81 0.00134156
12 *606:42 0.000667802
13 *606:27 0.00105807
14 *606:10 0.000602488
15 *606:8 0.000716192
16 *606:6 0.00130193
17 *3166:CLK *737:34 4.25809e-05
18 *3166:CLK *759:34 0.000168939
19 *606:27 *2811:A1 0.000160372
20 *606:27 *902:8 0.0001827
21 *606:42 *2888:A1 1.21258e-05
22 *2556:B *606:81 1.95763e-05
23 *2595:A0 *3184:CLK 2.03181e-05
24 *2595:A0 *3269:CLK 3.58424e-05
25 *2595:A0 *606:102 0.00030516
26 *2596:A *3255:CLK 0.00026454
27 *2631:A *3269:CLK 5.49489e-05
28 *2755:A2 *606:102 0.000303698
29 *2761:C *3185:CLK 3.18908e-05
30 *2762:C *606:102 0.000166973
31 *2811:A2 *606:27 0.000223112
32 *2812:C1 *3166:CLK 0
33 *2886:A0 *606:27 0.000353366
34 *2889:A *606:42 0.000147332
35 *2941:B *606:81 8.55307e-05
36 *2945:A *3166:CLK 9.41642e-05
37 *2959:B *606:8 9.41642e-05
38 *2978:A *3269:CLK 0.000555256
39 *3148:D *606:27 0.000273426
40 *3149:D *606:42 1.00375e-05
41 *3166:D *3166:CLK 9.58126e-05
42 *3167:D *606:8 1.64343e-05
43 *3184:D *606:102 1.64343e-05
44 *3185:D *3185:CLK 3.51442e-05
45 *3254:D *3255:CLK 1.64343e-05
46 *3269:D *3269:CLK 1.21258e-05
47 *208:18 *3255:CLK 6.97076e-05
48 *218:124 *606:81 0.00104778
49 *254:28 *3269:CLK 0.000348743
50 *291:28 *606:42 0.000515928
51 *299:22 *606:42 6.05161e-06
52 *322:61 *3255:CLK 8.91725e-05
53 *350:42 *606:81 0
54 *355:38 *606:81 2.19502e-05
55 *355:38 *606:102 9.77732e-05
56 *355:42 *606:81 0.000120764
57 *359:12 *606:27 5.77065e-05
58 *359:12 *606:42 5.74499e-06
59 *365:22 *606:42 0.00056243
60 *370:54 *3185:CLK 7.5102e-05
61 *371:61 *606:42 7.92596e-06
62 *371:79 *606:42 0.000181091
63 *374:76 *606:8 0.000156728
64 *374:76 *606:10 5.52238e-05
65 *374:76 *606:27 0.000122753
66 *385:10 *606:27 0.000113714
67 *391:43 *606:42 0
68 *419:57 *3184:CLK 5.49489e-05
69 *419:57 *606:102 0.000475705
70 *419:61 *3255:CLK 0.000144719
71 *532:18 *606:81 9.02649e-06
72 *532:18 *606:102 1.60861e-05
*RES
1 *3311:X *606:6 9.83571 
2 *606:6 *606:8 9.16071 
3 *606:8 *606:10 0.535714 
4 *606:10 *3167:CLK 9.3 
5 *606:10 *606:27 24.2143 
6 *606:27 *3148:CLK 9.3 
7 *606:27 *606:42 22.3393 
8 *606:42 *3254:CLK 9.3 
9 *606:42 *3255:CLK 23.5679 
10 *606:8 *3166:CLK 21.4964 
11 *606:6 *606:81 19.0179 
12 *606:81 *3269:CLK 20.1036 
13 *606:81 *606:102 16.5536 
14 *606:102 *3184:CLK 10.2643 
15 *606:102 *3185:CLK 20.2464 
*END

*D_NET *607 0.0186768
*CONN
*I *3315:A I *D sky130_fd_sc_hd__buf_4
*I *3316:A I *D sky130_fd_sc_hd__clkbuf_2
*I *3314:A I *D sky130_fd_sc_hd__clkbuf_4
*I *3462:X O *D sky130_fd_sc_hd__clkbuf_2
*CAP
1 *3315:A 2.27214e-05
2 *3316:A 0.000924858
3 *3314:A 0
4 *3462:X 0.000549135
5 *607:46 0.00130839
6 *607:22 0.0028329
7 *607:12 0.00190382
8 *607:8 0.00183059
9 *3315:A *3276:D 2.59355e-05
10 *3316:A *2865:B1 0.000184503
11 *607:12 *2719:B 0.000133437
12 *607:12 *2723:A_N 0.000100823
13 *607:12 *3273:RESET_B 0
14 *607:12 *3433:A 0
15 *607:12 *799:20 0.000654691
16 *607:22 *2873:A 0.000100802
17 *607:22 *2964:C 0
18 *607:22 *3276:D 7.02611e-05
19 *607:46 *2780:A 0.000425073
20 *607:46 *2834:B 5.41794e-05
21 *607:46 *3387:A 0.000113564
22 *607:46 *652:6 9.60939e-05
23 *607:46 *652:23 0.000297958
24 *607:46 *775:61 0.00118363
25 *2791:A *607:46 0.000102435
26 *2851:B_N *3316:A 6.69271e-05
27 *2854:A1_N *3316:A 0.000235459
28 *2862:A *607:22 4.00228e-05
29 *2865:A1 *3316:A 0.000141935
30 *2865:A2 *3316:A 0.000141941
31 *2866:B *3316:A 5.49995e-05
32 *2867:A *3316:A 8.67634e-05
33 *2875:A *3316:A 0.00107444
34 *2953:B *607:46 0.000113806
35 *3054:A *607:12 7.97214e-05
36 *3070:A *607:22 0.000133813
37 *3210:CLK *607:46 0.000146991
38 *3276:CLK *607:12 0.000388139
39 *215:8 *607:22 5.33005e-05
40 *215:68 *3315:A 1.21258e-05
41 *215:68 *607:22 2.95726e-05
42 *336:12 *3316:A 0.000109448
43 *361:30 *607:22 0.000234121
44 *361:30 *607:46 0.000354911
45 *361:36 *607:46 0.000375565
46 *407:14 *607:22 0.000334916
47 *407:14 *607:46 0.000621888
48 *407:93 *607:12 1.18064e-05
49 *407:93 *607:22 0.000633764
50 *415:50 *607:46 0.000130583
51 *430:30 *607:46 1.21258e-05
52 *480:14 *607:46 7.95153e-05
53 *527:12 *607:46 6.24269e-05
54 *595:65 *607:12 0
*RES
1 *3462:X *607:8 22.1393 
2 *607:8 *607:12 33.1607 
3 *607:12 *607:22 19.5 
4 *607:22 *607:46 47.5179 
5 *607:46 *3314:A 9.3 
6 *607:22 *3316:A 36.2464 
7 *607:12 *3315:A 9.83571 
*END

*D_NET *608 0.0159053
*CONN
*I *2780:B I *D sky130_fd_sc_hd__and3_1
*I *2683:A I *D sky130_fd_sc_hd__nand2_1
*I *2809:A2 I *D sky130_fd_sc_hd__a22o_1
*I *2732:A2 I *D sky130_fd_sc_hd__a221o_1
*I *2758:A I *D sky130_fd_sc_hd__and2_1
*I *3465:X O *D sky130_fd_sc_hd__clkbuf_2
*CAP
1 *2780:B 0
2 *2683:A 4.21531e-05
3 *2809:A2 2.35447e-05
4 *2732:A2 0.000590011
5 *2758:A 0.000411033
6 *3465:X 0.000153802
7 *608:37 0.00154034
8 *608:18 0.00153467
9 *608:16 0.00113091
10 *608:10 0.00104571
11 *2683:A *2763:C1 6.10501e-05
12 *2732:A2 *2732:A1 7.8076e-05
13 *2732:A2 *2732:B2 1.40065e-05
14 *2732:A2 *2809:B2 0.000113627
15 *2732:A2 *920:8 9.25014e-06
16 *2809:A2 *2809:A1 0.000141729
17 *2809:A2 *2809:B2 0.000141729
18 *608:10 *3465:A 1.58163e-05
19 *608:16 *2763:C1 0.000265453
20 *608:37 *2809:B2 3.14003e-05
21 *608:37 *796:30 7.83659e-05
22 *2632:B *608:37 0.000362472
23 *2636:A *608:37 0.000680675
24 *2683:B *2683:A 0
25 *2683:B *608:18 3.04394e-05
26 *2683:B *608:37 3.34295e-05
27 *2732:C1 *2732:A2 0.000400661
28 *2754:B *608:16 0.000262948
29 *2819:A3 *608:37 5.3254e-05
30 *2836:A *2758:A 9.91224e-05
31 *2836:B *2758:A 6.8646e-06
32 *2837:A *2758:A 4.48188e-06
33 *2953:B *608:37 0.000155521
34 *2960:S *608:37 0.000130133
35 *3271:D *608:37 3.90513e-05
36 *174:35 *2758:A 0.000776458
37 *175:8 *608:16 5.74499e-06
38 *175:8 *608:18 1.07719e-05
39 *176:23 *608:16 0.00022117
40 *191:10 *608:10 0
41 *191:18 *608:10 4.21543e-05
42 *191:35 *608:10 8.98585e-05
43 *211:41 *608:10 1.02504e-05
44 *211:41 *608:16 0.00107979
45 *211:43 *608:16 0.000338693
46 *211:47 *608:16 0.000538082
47 *215:68 *608:10 9.22797e-05
48 *215:68 *608:16 0.000100969
49 *215:72 *608:16 0.000143672
50 *215:86 *608:16 0.00065809
51 *254:28 *608:16 0.000182285
52 *322:10 *2758:A 8.18233e-06
53 *322:12 *2758:A 5.33005e-05
54 *322:16 *2758:A 0.000733068
55 *328:133 *608:37 0.000382739
56 *328:149 *608:37 0
57 *351:18 *608:37 0.000221623
58 *351:20 *608:37 0.000170994
59 *351:95 *608:37 6.14499e-05
60 *511:10 *608:37 0.000173083
61 *511:150 *608:37 0.000128921
*RES
1 *3465:X *608:10 16.8893 
2 *608:10 *608:16 32.8214 
3 *608:16 *608:18 2.17857 
4 *608:18 *2758:A 29.2286 
5 *608:18 *608:37 29.8214 
6 *608:37 *2732:A2 23.0187 
7 *608:37 *2809:A2 15.1571 
8 *608:16 *2683:A 10.3357 
9 *608:10 *2780:B 13.8 
*END

*D_NET *609 0.000376902
*CONN
*I *2960:A1 I *D sky130_fd_sc_hd__mux2_1
*I *3445:X O *D sky130_fd_sc_hd__dlygate4sd3_1
*CAP
1 *2960:A1 0.000142526
2 *3445:X 0.000142526
3 *2960:A0 *2960:A1 9.18507e-05
*RES
1 *3445:X *2960:A1 20.3679 
*END

*D_NET *610 0.000497248
*CONN
*I *3053:A1 I *D sky130_fd_sc_hd__mux2_1
*I *3446:X O *D sky130_fd_sc_hd__dlygate4sd3_1
*CAP
1 *3053:A1 0.000110407
2 *3446:X 0.000110407
3 *3053:A1 *3433:A 0.000131534
4 *3053:A0 *3053:A1 1.93007e-05
5 *3206:D *3053:A1 0.000125599
*RES
1 *3446:X *3053:A1 30.6 
*END

*D_NET *611 0.000371433
*CONN
*I *2944:A1 I *D sky130_fd_sc_hd__mux2_1
*I *3447:X O *D sky130_fd_sc_hd__dlygate4sd3_1
*CAP
1 *2944:A1 4.43968e-05
2 *3447:X 4.43968e-05
3 *2819:A1 *2944:A1 0.000185643
4 *2819:A2 *2944:A1 4.21497e-05
5 *2944:S *2944:A1 2.59355e-05
6 *400:6 *2944:A1 2.89114e-05
*RES
1 *3447:X *2944:A1 20.3679 
*END

*D_NET *612 0.00189827
*CONN
*I *2888:A1 I *D sky130_fd_sc_hd__mux2_1
*I *3448:X O *D sky130_fd_sc_hd__dlygate4sd3_1
*CAP
1 *2888:A1 0.000354898
2 *3448:X 0.000354898
3 *2888:A1 *893:35 0.000306311
4 *299:22 *2888:A1 0.000407917
5 *359:12 *2888:A1 0.000308844
6 *359:18 *2888:A1 5.52302e-05
7 *371:79 *2888:A1 9.80405e-05
8 *606:42 *2888:A1 1.21258e-05
*RES
1 *3448:X *2888:A1 35.35 
*END

*D_NET *613 0.000502887
*CONN
*I *3020:A0 I *D sky130_fd_sc_hd__mux2_1
*I *3449:X O *D sky130_fd_sc_hd__dlygate4sd3_1
*CAP
1 *3020:A0 6.824e-05
2 *3449:X 6.824e-05
3 *3020:A1 *3020:A0 0.0001399
4 *376:44 *3020:A0 0.000226507
*RES
1 *3449:X *3020:A0 20.7786 
*END

*D_NET *614 0.000392774
*CONN
*I *2966:A1 I *D sky130_fd_sc_hd__mux2_1
*I *3450:X O *D sky130_fd_sc_hd__dlygate4sd3_1
*CAP
1 *2966:A1 0.000103668
2 *3450:X 0.000103668
3 *2966:A1 *889:14 7.85137e-05
4 *2879:A *2966:A1 7.85137e-05
5 *2966:A0 *2966:A1 2.84109e-05
*RES
1 *3450:X *2966:A1 30.0286 
*END

*D_NET *615 0.0012876
*CONN
*I *2625:A1 I *D sky130_fd_sc_hd__mux2_1
*I *3452:X O *D sky130_fd_sc_hd__dlygate4sd3_1
*CAP
1 *2625:A1 0.00016724
2 *3452:X 0.00016724
3 *2622:B *2625:A1 0.000178503
4 *2623:A0 *2625:A1 0.000195993
5 *2727:B1 *2625:A1 2.25741e-05
6 *2729:B1 *2625:A1 9.10894e-05
7 *2807:A2 *2625:A1 5.2732e-05
8 *2808:B1 *2625:A1 0.000217239
9 *211:85 *2625:A1 1.90936e-05
10 *215:108 *2625:A1 0.000175892
*RES
1 *3452:X *2625:A1 33.4393 
*END

*D_NET *616 0.000722282
*CONN
*I *3043:A1 I *D sky130_fd_sc_hd__mux2_1
*I *3453:X O *D sky130_fd_sc_hd__dlygate4sd3_1
*CAP
1 *3043:A1 0.000271478
2 *3453:X 0.000271478
3 *3043:A1 *3045:A1 0.000179326
4 *3044:A *3043:A1 0
*RES
1 *3453:X *3043:A1 32.0107 
*END

*D_NET *617 0.0010512
*CONN
*I *2590:A1 I *D sky130_fd_sc_hd__mux2_1
*I *3454:X O *D sky130_fd_sc_hd__dlygate4sd3_1
*CAP
1 *2590:A1 0.000159455
2 *3454:X 0.000159455
3 *2590:A1 *2801:A1 9.60939e-05
4 *2590:A1 *3454:A 5.71472e-05
5 *2588:S *2590:A1 0.000147474
6 *2722:C1 *2590:A1 0
7 *2729:A1 *2590:A1 8.20684e-05
8 *220:18 *2590:A1 0.000144647
9 *350:118 *2590:A1 0.000145753
10 *547:14 *2590:A1 1.02504e-05
11 *598:122 *2590:A1 4.88515e-05
*RES
1 *3454:X *2590:A1 32.6893 
*END

*D_NET *618 0.00127149
*CONN
*I *2615:A1 I *D sky130_fd_sc_hd__mux2_1
*I *3455:X O *D sky130_fd_sc_hd__dlygate4sd3_1
*CAP
1 *2615:A1 0.000406539
2 *3455:X 0.000406539
3 *2557:B *2615:A1 2.05938e-05
4 *2615:A0 *2615:A1 5.52302e-05
5 *2804:B1 *2615:A1 0
6 *3263:D *2615:A1 6.42338e-05
7 *328:48 *2615:A1 0.00029551
8 *538:22 *2615:A1 2.28499e-05
*RES
1 *3455:X *2615:A1 33.975 
*END

*D_NET *619 0.0183083
*CONN
*I *2779:B I *D sky130_fd_sc_hd__and3_1
*I *2810:A2 I *D sky130_fd_sc_hd__a221o_1
*I *2737:A2 I *D sky130_fd_sc_hd__a22o_1
*I *2750:A2 I *D sky130_fd_sc_hd__a31o_1
*I *2787:B I *D sky130_fd_sc_hd__and3_1
*I *3466:X O *D sky130_fd_sc_hd__clkbuf_2
*CAP
1 *2779:B 0
2 *2810:A2 1.04544e-05
3 *2737:A2 0.00144746
4 *2750:A2 4.03516e-05
5 *2787:B 2.23854e-05
6 *3466:X 0.000516451
7 *619:62 0.00249949
8 *619:54 0.00143299
9 *619:39 0.00142108
10 *619:14 0.00152815
11 *2737:A2 *2737:A1 0.000364166
12 *2750:A2 *2750:A1 1.02504e-05
13 *2810:A2 *2810:A1 3.28686e-05
14 *619:14 *759:22 0.000615908
15 *619:39 *2751:A 0.000337651
16 *619:39 *2782:A 2.97074e-05
17 *619:39 *2787:A 4.58096e-05
18 *619:39 *3408:A 0.000107617
19 *619:39 *3414:A 0.000231349
20 *619:62 *2779:A 0.000347209
21 *619:62 *2818:A1 0
22 *619:62 *2818:B1 0
23 *619:62 *3361:A 3.48235e-05
24 *619:62 *737:46 0.000502438
25 *619:62 *826:8 0.000103437
26 *2708:B *619:14 7.62712e-05
27 *2737:B1 *2737:A2 0
28 *2752:B1 *619:39 0.000437014
29 *2817:A1 *619:62 0.000125724
30 *2818:A2 *619:62 0
31 *2948:S *2737:A2 4.10304e-05
32 *2962:A0 *2810:A2 3.28686e-05
33 *2982:A *619:62 0.000126958
34 *2983:A *619:54 0.000223102
35 *2996:S *619:39 0.000465272
36 *3122:B *619:14 0.000112995
37 *3172:D *2737:A2 2.64791e-05
38 *3173:CLK *2737:A2 5.30637e-06
39 *3173:D *2737:A2 8.36293e-05
40 *3271:CLK *619:62 0
41 *174:14 *2750:A2 5.83233e-05
42 *174:14 *619:39 5.33005e-05
43 *176:44 *619:39 0
44 *177:28 *619:39 0.000200406
45 *187:58 *619:14 0
46 *187:98 *2737:A2 9.90367e-05
47 *192:10 *619:14 7.23555e-06
48 *192:10 *619:39 8.25843e-06
49 *192:12 *619:14 1.15986e-05
50 *192:22 *619:14 0.000189485
51 *211:41 *619:62 0.000332796
52 *211:43 *619:62 0.00034771
53 *211:47 *2737:A2 8.14438e-05
54 *211:47 *619:62 0.00156618
55 *212:20 *619:39 0.000292708
56 *212:42 *619:39 0.000449369
57 *218:108 *619:39 1.09026e-05
58 *241:32 *619:39 0.000348775
59 *350:42 *2737:A2 0.000295148
60 *359:111 *2737:A2 0.000218012
61 *359:111 *619:62 5.59013e-05
62 *411:14 *619:39 0
63 *415:50 *2750:A2 3.67356e-05
64 *415:50 *619:54 3.69697e-05
65 *527:12 *619:39 0.000169252
*RES
1 *3466:X *619:14 28.8536 
2 *619:14 *2787:B 9.72857 
3 *619:14 *619:39 40.2143 
4 *619:39 *2750:A2 14.8357 
5 *619:39 *619:54 9.76786 
6 *619:54 *619:62 36.25 
7 *619:62 *2737:A2 36.2821 
8 *619:62 *2810:A2 14.1304 
9 *619:54 *2779:B 9.3 
*END

*D_NET *620 0.000671695
*CONN
*I *2623:A1 I *D sky130_fd_sc_hd__mux2_1
*I *3456:X O *D sky130_fd_sc_hd__dlygate4sd3_1
*CAP
1 *2623:A1 0.0001386
2 *3456:X 0.0001386
3 *2623:A0 *2623:A1 6.57032e-05
4 *2623:S *2623:A1 5.33005e-05
5 *2729:B1 *2623:A1 0.000118992
6 *2802:B1 *2623:A1 4.23643e-05
7 *218:42 *2623:A1 0.000107398
8 *350:118 *2623:A1 6.73707e-06
*RES
1 *3456:X *2623:A1 31.0286 
*END

*D_NET *621 0.000788962
*CONN
*I *3099:A1 I *D sky130_fd_sc_hd__mux2_1
*I *3457:X O *D sky130_fd_sc_hd__dlygate4sd3_1
*CAP
1 *3099:A1 0.000288511
2 *3457:X 0.000288511
3 *3099:A1 *3096:A1 3.90477e-05
4 *3099:A1 *726:20 0.000172892
*RES
1 *3457:X *3099:A1 23.6536 
*END

*D_NET *622 0.00119517
*CONN
*I *3025:A0 I *D sky130_fd_sc_hd__mux2_1
*I *3458:X O *D sky130_fd_sc_hd__dlygate4sd3_1
*CAP
1 *3025:A0 0.000306592
2 *3458:X 0.000306592
3 *3025:A0 *2692:B2 3.18676e-05
4 *3025:A0 *3023:A0 0.000170532
5 *3025:A0 *3434:A 0.000320031
6 *3025:A0 *3458:A 0
7 *3025:A0 *867:10 5.17614e-05
8 *3026:A *3025:A0 0
9 *3031:A *3025:A0 7.79781e-06
*RES
1 *3458:X *3025:A0 34.85 
*END

*D_NET *623 0.000834885
*CONN
*I *2583:A1 I *D sky130_fd_sc_hd__mux2_1
*I *3459:X O *D sky130_fd_sc_hd__dlygate4sd3_1
*CAP
1 *2583:A1 0.000283043
2 *3459:X 0.000283043
3 *2583:A1 *3459:A 0.000144716
4 *3252:CLK *2583:A1 0.000124083
*RES
1 *3459:X *2583:A1 32.725 
*END

*D_NET *624 0.000599103
*CONN
*I *3120:A1 I *D sky130_fd_sc_hd__mux2_1
*I *3460:X O *D sky130_fd_sc_hd__dlygate4sd3_1
*CAP
1 *3120:A1 5.50158e-05
2 *3460:X 5.50158e-05
3 *3128:A0 *3120:A1 0.000170964
4 *601:42 *3120:A1 0.000318107
*RES
1 *3460:X *3120:A1 21.6 
*END

*D_NET *625 0.000474953
*CONN
*I *3040:A0 I *D sky130_fd_sc_hd__mux2_1
*I *3461:X O *D sky130_fd_sc_hd__dlygate4sd3_1
*CAP
1 *3040:A0 0.000144565
2 *3461:X 0.000144565
3 *3040:A0 *3336:A 2.09722e-05
4 *430:116 *3040:A0 0.000141941
5 *462:10 *3040:A0 2.29112e-05
*RES
1 *3461:X *3040:A0 29.9929 
*END

*D_NET *626 0.000512878
*CONN
*I *3003:A0 I *D sky130_fd_sc_hd__mux2_1
*I *3319:X O *D sky130_fd_sc_hd__dlygate4sd3_1
*CAP
1 *3003:A0 0.000161714
2 *3319:X 0.000161714
3 *3002:A *3003:A0 0.000189451
*RES
1 *3319:X *3003:A0 21.3321 
*END

*D_NET *627 0.00231681
*CONN
*I *3030:A0 I *D sky130_fd_sc_hd__mux2_1
*I *3320:X O *D sky130_fd_sc_hd__dlygate4sd3_1
*CAP
1 *3030:A0 0.000404175
2 *3320:X 0.000404175
3 *3030:A0 *2698:A1 0
4 *3030:A0 *2764:A1 0.000333952
5 *3030:A0 *3028:A0 0
6 *3030:A0 *3035:A1 5.50052e-05
7 *3030:A0 *3320:A 0.000719063
8 *3030:A0 *865:8 5.33433e-05
9 *3028:A1 *3030:A0 0.000122477
10 *3028:S *3030:A0 2.5967e-05
11 *3200:CLK *3030:A0 0.000149904
12 *442:119 *3030:A0 1.58163e-05
13 *456:10 *3030:A0 3.29297e-05
*RES
1 *3320:X *3030:A0 40.0821 
*END

*D_NET *628 0.000471588
*CONN
*I *2936:A0 I *D sky130_fd_sc_hd__mux2_1
*I *3321:X O *D sky130_fd_sc_hd__dlygate4sd3_1
*CAP
1 *2936:A0 0.000179556
2 *3321:X 0.000179556
3 *2936:A0 *2733:B2 0
4 *2936:S *2936:A0 0.000107277
5 *369:104 *2936:A0 5.19842e-06
*RES
1 *3321:X *2936:A0 30.6179 
*END

*D_NET *629 0.000922088
*CONN
*I *2974:A0 I *D sky130_fd_sc_hd__mux2_1
*I *3322:X O *D sky130_fd_sc_hd__dlygate4sd3_1
*CAP
1 *2974:A0 0.000264985
2 *3322:X 0.000264985
3 *2974:A0 *2707:A1 0.000315114
4 *2974:A0 *2770:A1 7.70035e-05
*RES
1 *3322:X *2974:A0 31.6357 
*END

*D_NET *630 0.0105686
*CONN
*I *3284:RESET_B I *D sky130_fd_sc_hd__dfrtp_1
*I *3286:RESET_B I *D sky130_fd_sc_hd__dfrtp_1
*I *3287:RESET_B I *D sky130_fd_sc_hd__dfrtp_1
*I *3293:SET_B I *D sky130_fd_sc_hd__dfstp_1
*I *3272:RESET_B I *D sky130_fd_sc_hd__dfrtp_1
*I *3290:RESET_B I *D sky130_fd_sc_hd__dfrtp_1
*I *3279:RESET_B I *D sky130_fd_sc_hd__dfrtp_1
*I *3282:RESET_B I *D sky130_fd_sc_hd__dfrtp_4
*I *3294:RESET_B I *D sky130_fd_sc_hd__dfrtp_1
*I *3283:RESET_B I *D sky130_fd_sc_hd__dfrtp_1
*I *3312:X O *D sky130_fd_sc_hd__clkbuf_4
*CAP
1 *3284:RESET_B 5.60818e-06
2 *3286:RESET_B 1.25902e-05
3 *3287:RESET_B 3.0784e-05
4 *3293:SET_B 0.000235042
5 *3272:RESET_B 9.06811e-05
6 *3290:RESET_B 2.7542e-05
7 *3279:RESET_B 0
8 *3282:RESET_B 0
9 *3294:RESET_B 0.000255362
10 *3283:RESET_B 3.45808e-05
11 *3312:X 8.85319e-05
12 *630:83 0.000575302
13 *630:81 0.000573369
14 *630:73 0.000726868
15 *630:54 0.00120744
16 *630:42 0.00103983
17 *630:16 0.000461771
18 *630:12 0.000917597
19 *630:10 0.000819139
20 *630:8 0.000437495
21 *3272:RESET_B *3440:A 0
22 *3283:RESET_B *693:20 5.73002e-05
23 *3287:RESET_B *3287:D 0.000180002
24 *3293:SET_B *783:12 3.71723e-05
25 *3294:RESET_B *693:20 0.000608548
26 *3294:RESET_B *797:10 0.000102146
27 *630:8 *3280:RESET_B 2.59093e-05
28 *630:8 *3374:A 0
29 *630:10 *3280:RESET_B 6.74911e-05
30 *630:10 *3374:A 0
31 *630:12 *2650:A 0
32 *630:12 *2651:B 7.08001e-05
33 *630:12 *3280:RESET_B 0.000134748
34 *630:12 *3281:RESET_B 0
35 *630:12 *796:16 0
36 *630:16 *796:16 0
37 *630:16 *797:10 0
38 *630:42 *3284:D 1.00073e-05
39 *630:54 *2664:A2 0.00010332
40 *630:54 *792:19 8.36861e-05
41 *630:54 *794:10 0
42 *630:54 *794:29 0
43 *630:54 *794:33 0
44 *630:73 *2654:S 2.90719e-05
45 *630:73 *3286:D 8.25843e-06
46 *630:73 *782:8 6.91157e-05
47 *630:81 *2654:S 0
48 *630:83 *783:12 0
49 *2638:A *3293:SET_B 5.52238e-05
50 *2639:B *630:12 0
51 *2640:A0 *630:12 0
52 *2641:A *630:16 0
53 *2646:A2 *3287:RESET_B 9.84891e-05
54 *2646:A2 *630:83 0
55 *2653:A2 *630:12 0.000148196
56 *2655:A *3272:RESET_B 0
57 *2655:A *630:83 0
58 *2676:A *630:54 0
59 *2676:A *630:73 0
60 *2677:B *3284:RESET_B 1.52723e-05
61 *2677:B *630:42 4.0342e-06
62 *2677:B *630:54 0.000211263
63 *3272:D *3272:RESET_B 2.56694e-05
64 *3286:CLK *630:73 8.1401e-05
65 *3286:CLK *630:81 0
66 *3294:D *3294:RESET_B 2.46559e-06
67 *11:43 *630:54 0.000353015
68 *156:10 *630:54 5.01117e-05
69 *584:12 *630:12 7.83659e-05
70 *590:108 *630:12 2.11419e-05
71 *590:121 *630:12 0
72 *592:113 *3293:SET_B 3.02581e-06
73 *592:115 *3272:RESET_B 0
74 *593:34 *630:42 9.02232e-05
75 *593:40 *630:8 0.000127439
76 *593:40 *630:42 7.61932e-05
*RES
1 *3312:X *630:8 16.05 
2 *630:8 *630:10 1.64286 
3 *630:10 *630:12 14.6964 
4 *630:12 *630:16 7.66071 
5 *630:16 *3283:RESET_B 0.883929 
6 *630:16 *3294:RESET_B 7.45536 
7 *630:12 *3282:RESET_B 4.5 
8 *630:10 *3279:RESET_B 4.5 
9 *630:8 *630:42 9.14286 
10 *630:42 *630:54 18.6518 
11 *630:54 *3290:RESET_B 5.3125 
12 *630:54 *630:73 12.4732 
13 *630:73 *630:81 8.44643 
14 *630:81 *630:83 3.46429 
15 *630:83 *3272:RESET_B 6.14286 
16 *630:83 *3293:SET_B 8.25893 
17 *630:81 *3287:RESET_B 6.20536 
18 *630:73 *3286:RESET_B 0.473214 
19 *630:42 *3284:RESET_B 0.473214 
*END

*D_NET *631 0.00067209
*CONN
*I *3130:A1 I *D sky130_fd_sc_hd__mux2_1
*I *3323:X O *D sky130_fd_sc_hd__dlygate4sd3_1
*CAP
1 *3130:A1 0.000210396
2 *3323:X 0.000210396
3 *3130:A1 *3128:A1 0.000126874
4 *3130:A1 *823:14 6.72769e-05
5 *3130:S *3130:A1 5.71472e-05
6 *601:14 *3130:A1 0
*RES
1 *3323:X *3130:A1 32.2071 
*END

*D_NET *632 0.00127792
*CONN
*I *3071:A1 I *D sky130_fd_sc_hd__mux2_1
*I *3324:X O *D sky130_fd_sc_hd__dlygate4sd3_1
*CAP
1 *3071:A1 0.000279984
2 *3324:X 0.000279984
3 *3071:A0 *3071:A1 0.000662718
4 *3073:A0 *3071:A1 5.52302e-05
*RES
1 *3324:X *3071:A1 24.8857 
*END

*D_NET *633 0.00123521
*CONN
*I *3091:A0 I *D sky130_fd_sc_hd__mux2_1
*I *3325:X O *D sky130_fd_sc_hd__dlygate4sd3_1
*CAP
1 *3091:A0 0.000395532
2 *3325:X 0.000395532
3 *3091:S *3091:A0 0.000113854
4 *3092:A *3091:A0 5.52302e-05
5 *3221:CLK *3091:A0 0.000136958
6 *3221:D *3091:A0 1.64343e-05
7 *208:18 *3091:A0 4.15914e-05
8 *365:22 *3091:A0 8.00806e-05
*RES
1 *3325:X *3091:A0 34.5286 
*END

*D_NET *634 0.000969943
*CONN
*I *3081:A0 I *D sky130_fd_sc_hd__mux2_1
*I *3326:X O *D sky130_fd_sc_hd__dlygate4sd3_1
*CAP
1 *3081:A0 0.000203522
2 *3326:X 0.000203522
3 *3081:A0 *2793:A1 2.84009e-05
4 *2793:A2 *3081:A0 4.89167e-05
5 *2794:C1 *3081:A0 7.83659e-05
6 *492:8 *3081:A0 0.00014183
7 *602:86 *3081:A0 0.000265385
*RES
1 *3326:X *3081:A0 32.4214 
*END

*D_NET *635 0.000485027
*CONN
*I *2919:A1 I *D sky130_fd_sc_hd__mux2_1
*I *3327:X O *D sky130_fd_sc_hd__dlygate4sd3_1
*CAP
1 *2919:A1 0.000212714
2 *3327:X 0.000212714
3 *2919:A1 *901:16 5.80706e-06
4 *2919:S *2919:A1 5.80706e-06
5 *2927:A *2919:A1 4.79842e-05
6 *3158:D *2919:A1 0
*RES
1 *3327:X *2919:A1 31.6714 
*END

*D_NET *636 0.000703054
*CONN
*I *2894:A1 I *D sky130_fd_sc_hd__mux2_1
*I *3328:X O *D sky130_fd_sc_hd__dlygate4sd3_1
*CAP
1 *2894:A1 0.000203402
2 *3328:X 0.000203402
3 *2838:B *2894:A1 0.00024295
4 *2894:A0 *2894:A1 5.33005e-05
*RES
1 *3328:X *2894:A1 22.1536 
*END

*D_NET *637 0.000651566
*CONN
*I *2608:A1 I *D sky130_fd_sc_hd__mux2_1
*I *3330:X O *D sky130_fd_sc_hd__dlygate4sd3_1
*CAP
1 *2608:A1 0.000213867
2 *3330:X 0.000213867
3 *2608:S *2608:A1 2.14757e-05
4 *2613:A0 *2608:A1 3.57366e-05
5 *181:50 *2608:A1 0.000133596
6 *299:22 *2608:A1 3.30237e-05
7 *600:26 *2608:A1 0
*RES
1 *3330:X *2608:A1 31.1357 
*END

*D_NET *638 0.000338579
*CONN
*I *2979:A1 I *D sky130_fd_sc_hd__mux2_1
*I *3331:X O *D sky130_fd_sc_hd__dlygate4sd3_1
*CAP
1 *2979:A1 0.00015195
2 *3331:X 0.00015195
3 *425:6 *2979:A1 3.46801e-05
*RES
1 *3331:X *2979:A1 20.3679 
*END

*D_NET *639 0.000867408
*CONN
*I *2610:A1 I *D sky130_fd_sc_hd__mux2_1
*I *3332:X O *D sky130_fd_sc_hd__dlygate4sd3_1
*CAP
1 *2610:A1 0.000297619
2 *3332:X 0.000297619
3 *2610:A1 *2805:B2 0
4 *2610:S *2610:A1 7.83659e-05
5 *328:30 *2610:A1 0.000193804
*RES
1 *3332:X *2610:A1 32.0464 
*END

*D_NET *640 0.00045366
*CONN
*I *2962:A1 I *D sky130_fd_sc_hd__mux2_1
*I *3333:X O *D sky130_fd_sc_hd__dlygate4sd3_1
*CAP
1 *2962:A1 0.000129564
2 *3333:X 0.000129564
3 *2962:A1 *796:30 1.92813e-05
4 *2962:A0 *2962:A1 0.00012002
5 *2963:A *2962:A1 5.52302e-05
*RES
1 *3333:X *2962:A1 21.1893 
*END

*D_NET *641 0.00489827
*CONN
*I *3292:RESET_B I *D sky130_fd_sc_hd__dfrtp_1
*I *3288:RESET_B I *D sky130_fd_sc_hd__dfrtp_1
*I *3145:RESET_B I *D sky130_fd_sc_hd__dfrtp_1
*I *3291:RESET_B I *D sky130_fd_sc_hd__dfrtp_4
*I *3289:RESET_B I *D sky130_fd_sc_hd__dfrtp_2
*I *3144:RESET_B I *D sky130_fd_sc_hd__dfrtp_1
*I *3313:X O *D sky130_fd_sc_hd__clkbuf_2
*CAP
1 *3292:RESET_B 0
2 *3288:RESET_B 0.000110631
3 *3145:RESET_B 0.000308238
4 *3291:RESET_B 0
5 *3289:RESET_B 4.12058e-05
6 *3144:RESET_B 0.000106134
7 *3313:X 0
8 *641:36 0.000418869
9 *641:22 0.000406892
10 *641:20 0.000555018
11 *641:18 0.000735371
12 *641:4 0.000652173
13 *3144:RESET_B *3313:A 0.000173019
14 *641:22 *2657:B 5.93997e-05
15 *2649:A *641:22 7.70717e-05
16 *3288:CLK *3145:RESET_B 0.000109702
17 *3288:D *641:22 0.000288962
18 *3292:CLK *641:18 0
19 *3292:CLK *641:20 0
20 *3292:D *641:20 0
21 *11:29 *3289:RESET_B 4.79842e-05
22 *11:29 *641:22 0.000137226
23 *157:18 *3289:RESET_B 0.000129868
24 *157:18 *641:22 0.000174194
25 *593:91 *3145:RESET_B 3.02581e-06
26 *596:61 *3144:RESET_B 0.000305287
27 *596:61 *641:18 5.80008e-05
*RES
1 *3313:X *641:4 9.3 
2 *641:4 *3144:RESET_B 3.66964 
3 *641:4 *641:18 11.3036 
4 *641:18 *641:20 3.46429 
5 *641:20 *641:22 9.83929 
6 *641:22 *3289:RESET_B 6.14286 
7 *641:22 *3291:RESET_B 4.5 
8 *641:20 *641:36 4.5 
9 *641:36 *3145:RESET_B 4.74107 
10 *641:36 *3288:RESET_B 1.70536 
11 *641:18 *3292:RESET_B 4.5 
*END

*D_NET *642 0.000661546
*CONN
*I *2573:A1 I *D sky130_fd_sc_hd__mux2_1
*I *3334:X O *D sky130_fd_sc_hd__dlygate4sd3_1
*CAP
1 *2573:A1 0.000254995
2 *3334:X 0.000254995
3 *2573:S *2573:A1 7.31907e-05
4 *358:36 *2573:A1 7.83659e-05
*RES
1 *3334:X *2573:A1 31.225 
*END

*D_NET *643 0.00144139
*CONN
*I *3050:A1 I *D sky130_fd_sc_hd__mux2_1
*I *3335:X O *D sky130_fd_sc_hd__dlygate4sd3_1
*CAP
1 *3050:A1 0.00048756
2 *3335:X 0.00048756
3 *3050:A1 *2766:B2 0
4 *3050:A1 *3335:A 7.45454e-05
5 *3050:A1 *3416:A 5.33005e-05
6 *2766:A2 *3050:A1 1.70057e-05
7 *2767:C1 *3050:A1 9.15842e-06
8 *3046:A *3050:A1 0.00010326
9 *3050:S *3050:A1 3.11088e-05
10 *430:155 *3050:A1 7.66774e-05
11 *595:97 *3050:A1 0.000101216
*RES
1 *3335:X *3050:A1 37.2429 
*END

*D_NET *644 0.00186254
*CONN
*I *3035:A1 I *D sky130_fd_sc_hd__mux2_1
*I *3336:X O *D sky130_fd_sc_hd__dlygate4sd3_1
*CAP
1 *3035:A1 0.000437707
2 *3336:X 0.000437707
3 *3035:A1 *2764:A1 2.55698e-05
4 *3030:A0 *3035:A1 5.50052e-05
5 *3038:A1 *3035:A1 3.67461e-05
6 *3040:A1 *3035:A1 0.000183299
7 *430:95 *3035:A1 5.50052e-05
8 *430:116 *3035:A1 0.000350441
9 *442:119 *3035:A1 5.04164e-05
10 *445:106 *3035:A1 0.000182656
11 *604:49 *3035:A1 4.79864e-05
*RES
1 *3336:X *3035:A1 36.1714 
*END

*D_NET *645 0.000576022
*CONN
*I *2628:A1 I *D sky130_fd_sc_hd__mux2_1
*I *3337:X O *D sky130_fd_sc_hd__dlygate4sd3_1
*CAP
1 *2628:A1 6.51162e-05
2 *3337:X 6.51162e-05
3 *2628:A0 *2628:A1 5.65955e-05
4 *2628:S *2628:A1 0.000139202
5 *2630:S *2628:A1 0.000139208
6 *2755:A2 *2628:A1 0.000110784
*RES
1 *3337:X *2628:A1 21.1893 
*END

*D_NET *646 0.000653637
*CONN
*I *2563:A1 I *D sky130_fd_sc_hd__mux2_1
*I *3338:X O *D sky130_fd_sc_hd__dlygate4sd3_1
*CAP
1 *2563:A1 0.000115416
2 *3338:X 0.000115416
3 *2563:A1 *815:8 7.22574e-05
4 *500:37 *2563:A1 0.000175274
5 *511:79 *2563:A1 0.000175274
*RES
1 *3338:X *2563:A1 31.2071 
*END

*D_NET *647 0.000498224
*CONN
*I *3088:A0 I *D sky130_fd_sc_hd__mux2_1
*I *3339:X O *D sky130_fd_sc_hd__dlygate4sd3_1
*CAP
1 *3088:A0 6.3918e-05
2 *3339:X 6.3918e-05
3 *3088:A1 *3088:A0 0.000140933
4 *602:14 *3088:A0 0.000229456
*RES
1 *3339:X *3088:A0 20.7786 
*END

*D_NET *648 0.00151013
*CONN
*I *3083:A0 I *D sky130_fd_sc_hd__mux2_1
*I *3341:X O *D sky130_fd_sc_hd__dlygate4sd3_1
*CAP
1 *3083:A0 0.000366156
2 *3341:X 0.000366156
3 *3063:A1 *3083:A0 0.00065399
4 *3082:A *3083:A0 0.000106542
5 *197:128 *3083:A0 0
6 *445:42 *3083:A0 1.72894e-05
*RES
1 *3341:X *3083:A0 36.8679 
*END

*D_NET *649 0.00179904
*CONN
*I *2954:A1 I *D sky130_fd_sc_hd__mux2_1
*I *3342:X O *D sky130_fd_sc_hd__dlygate4sd3_1
*CAP
1 *2954:A1 0.000687576
2 *3342:X 0.000687576
3 *2954:A1 *894:10 2.11336e-05
4 *2954:A0 *2954:A1 2.67758e-05
5 *3171:CLK *2954:A1 0.000159538
6 *3171:D *2954:A1 0.00010182
7 *300:20 *2954:A1 0.000114622
*RES
1 *3342:X *2954:A1 30.0286 
*END

*D_NET *650 0.00165131
*CONN
*I *2839:A0 I *D sky130_fd_sc_hd__mux2_1
*I *3343:X O *D sky130_fd_sc_hd__dlygate4sd3_1
*CAP
1 *2839:A0 0.000751662
2 *3343:X 0.000751662
3 *2839:A0 *2842:A0 0
4 *2839:A0 *693:32 3.41142e-05
5 *2839:A0 *923:8 1.52013e-05
6 *2839:A1 *2839:A0 3.4796e-05
7 *208:58 *2839:A0 5.47223e-05
8 *328:20 *2839:A0 9.14771e-06
9 *599:59 *2839:A0 0
*RES
1 *3343:X *2839:A0 38.1536 
*END

*D_NET *651 0.000392711
*CONN
*I *3038:A0 I *D sky130_fd_sc_hd__mux2_1
*I *3344:X O *D sky130_fd_sc_hd__dlygate4sd3_1
*CAP
1 *3038:A0 0.000118224
2 *3344:X 0.000118224
3 *3038:A0 *3461:A 0.000132413
4 *3038:A0 *861:14 2.38501e-05
*RES
1 *3344:X *3038:A0 29.5821 
*END

*D_NET *652 0.0121739
*CONN
*I *3313:A I *D sky130_fd_sc_hd__clkbuf_2
*I *3312:A I *D sky130_fd_sc_hd__clkbuf_4
*I *3281:RESET_B I *D sky130_fd_sc_hd__dfrtp_1
*I *3280:RESET_B I *D sky130_fd_sc_hd__dfrtp_1
*I *3278:RESET_B I *D sky130_fd_sc_hd__dfrtp_1
*I *3277:RESET_B I *D sky130_fd_sc_hd__dfrtp_1
*I *2834:C I *D sky130_fd_sc_hd__nand3_4
*I *2555:C_N I *D sky130_fd_sc_hd__or3b_4
*I *3314:X O *D sky130_fd_sc_hd__clkbuf_4
*CAP
1 *3313:A 0.000758742
2 *3312:A 2.89229e-05
3 *3281:RESET_B 0.000113242
4 *3280:RESET_B 0.000578399
5 *3278:RESET_B 0.00047736
6 *3277:RESET_B 0.000852367
7 *2834:C 0
8 *2555:C_N 2.2335e-05
9 *3314:X 2.97081e-05
10 *652:63 0.00113099
11 *652:59 0.0017385
12 *652:23 0.00109204
13 *652:6 0.000426233
14 *3277:RESET_B *2779:A 5.52302e-05
15 *3280:RESET_B *3279:D 0.00010241
16 *3281:RESET_B *2650:A 0
17 *3313:A *3278:D 5.52302e-05
18 *652:23 *2555:A 6.59107e-05
19 *652:23 *2555:B 9.41642e-05
20 *652:23 *774:92 0.000132967
21 *652:59 *3278:D 0.000227532
22 *652:63 *3277:D 5.10822e-05
23 *2779:C *3277:RESET_B 4.85647e-05
24 *2783:A *3277:RESET_B 2.59355e-05
25 *2783:A *652:23 4.58194e-05
26 *2983:A *3277:RESET_B 0.000358165
27 *2983:A *652:23 9.60875e-05
28 *2983:B *3277:RESET_B 9.90431e-05
29 *3144:D *3313:A 0.000142856
30 *3144:RESET_B *3313:A 0.000173019
31 *3277:CLK *3278:RESET_B 0
32 *3277:CLK *652:63 6.42242e-05
33 *3280:CLK *3280:RESET_B 0.000438461
34 *173:12 *3277:RESET_B 0.00024488
35 *215:72 *652:23 0.000148911
36 *231:14 *652:23 4.29615e-05
37 *316:22 *3281:RESET_B 0
38 *323:10 *3312:A 5.33005e-05
39 *323:54 *3278:RESET_B 0
40 *415:50 *652:23 5.26091e-05
41 *527:12 *652:6 4.87953e-05
42 *527:12 *652:23 5.50313e-05
43 *590:138 *3280:RESET_B 0
44 *590:138 *652:63 0
45 *593:14 *3280:RESET_B 0
46 *593:34 *3280:RESET_B 0
47 *593:40 *3280:RESET_B 0.000223592
48 *593:40 *652:63 0.000139653
49 *593:51 *652:63 0.000224513
50 *593:77 *652:63 0.000581101
51 *596:61 *3313:A 0.000181264
52 *596:63 *3313:A 2.95726e-05
53 *607:46 *652:6 9.60939e-05
54 *607:46 *652:23 0.000297958
55 *630:8 *3280:RESET_B 2.59093e-05
56 *630:10 *3280:RESET_B 6.74911e-05
57 *630:12 *3280:RESET_B 0.000134748
58 *630:12 *3281:RESET_B 0
*RES
1 *3314:X *652:6 10.2464 
2 *652:6 *2555:C_N 9.72857 
3 *652:6 *652:23 18.5893 
4 *652:23 *2834:C 9.3 
5 *652:23 *3277:RESET_B 13.2232 
6 *3277:RESET_B *3278:RESET_B 10.6429 
7 *3278:RESET_B *652:59 4.72321 
8 *652:59 *652:63 20.4107 
9 *652:63 *3280:RESET_B 16.6875 
10 *3280:RESET_B *3281:RESET_B 10.9464 
11 *652:63 *3312:A 14.3357 
12 *652:59 *3313:A 19.7107 
*END

*D_NET *653 0.000759784
*CONN
*I *2568:A1 I *D sky130_fd_sc_hd__mux2_1
*I *3345:X O *D sky130_fd_sc_hd__dlygate4sd3_1
*CAP
1 *2568:A1 0.000294671
2 *3345:X 0.000294671
3 *2568:A1 *3345:A 0
4 *2568:A1 *813:10 0.000144773
5 *2571:A *2568:A1 2.56694e-05
6 *3245:D *2568:A1 0
*RES
1 *3345:X *2568:A1 32.4214 
*END

*D_NET *654 0.000649847
*CONN
*I *3073:A1 I *D sky130_fd_sc_hd__mux2_1
*I *3346:X O *D sky130_fd_sc_hd__dlygate4sd3_1
*CAP
1 *3073:A1 0.000322693
2 *3346:X 0.000322693
3 *3073:A1 *2792:B2 0
4 *3073:A0 *3073:A1 4.46186e-06
5 *483:18 *3073:A1 0
*RES
1 *3346:X *3073:A1 31.9214 
*END

*D_NET *655 0.000586077
*CONN
*I *2565:A1 I *D sky130_fd_sc_hd__mux2_1
*I *3347:X O *D sky130_fd_sc_hd__dlygate4sd3_1
*CAP
1 *2565:A1 0.00027259
2 *3347:X 0.00027259
3 *2565:A1 *3347:A 2.16394e-05
4 *2565:A0 *2565:A1 6.05161e-06
5 *3249:CLK *2565:A1 1.32056e-05
*RES
1 *3347:X *2565:A1 30.8143 
*END

*D_NET *656 0.000654153
*CONN
*I *2921:A1 I *D sky130_fd_sc_hd__mux2_1
*I *3348:X O *D sky130_fd_sc_hd__dlygate4sd3_1
*CAP
1 *2921:A1 0.000259994
2 *3348:X 0.000259994
3 *2921:A1 *2733:A1 1.33343e-05
4 *2921:A1 *901:16 7.03393e-05
5 *2921:A1 *906:10 0
6 *2921:S *2921:A1 1.21258e-05
7 *369:104 *2921:A1 3.83655e-05
*RES
1 *3348:X *2921:A1 31.225 
*END

*D_NET *657 0.00132121
*CONN
*I *2878:A1 I *D sky130_fd_sc_hd__mux2_1
*I *3349:X O *D sky130_fd_sc_hd__dlygate4sd3_1
*CAP
1 *2878:A1 0.000408015
2 *3349:X 0.000408015
3 *2878:A1 *2731:B2 0.00010326
4 *2878:A1 *3352:A 1.15281e-05
5 *2732:C1 *2878:A1 1.55885e-05
6 *2878:S *2878:A1 9.71197e-05
7 *2955:A *2878:A1 0.000173921
8 *3170:CLK *2878:A1 5.03772e-05
9 *592:32 *2878:A1 5.33882e-05
*RES
1 *3349:X *2878:A1 35.6536 
*END

*D_NET *658 0.00107606
*CONN
*I *2956:A1 I *D sky130_fd_sc_hd__mux2_1
*I *3350:X O *D sky130_fd_sc_hd__dlygate4sd3_1
*CAP
1 *2956:A1 0.000220208
2 *3350:X 0.000220208
3 *2956:A1 *2731:A1 0.000100165
4 *2956:A1 *693:20 2.29112e-05
5 *2956:A0 *2956:A1 9.67754e-05
6 *2957:A *2956:A1 5.33005e-05
7 *2963:A *2956:A1 0.000262841
8 *592:28 *2956:A1 9.96487e-05
*RES
1 *3350:X *2956:A1 32.475 
*END

*D_NET *659 0.000424133
*CONN
*I *2882:A1 I *D sky130_fd_sc_hd__mux2_1
*I *3352:X O *D sky130_fd_sc_hd__dlygate4sd3_1
*CAP
1 *2882:A1 0.000123618
2 *3352:X 0.000123618
3 *2968:A0 *2882:A1 5.52238e-05
4 *359:119 *2882:A1 8.00806e-05
5 *592:32 *2882:A1 4.15914e-05
*RES
1 *3352:X *2882:A1 30.3143 
*END

*D_NET *660 0.000620978
*CONN
*I *2926:A0 I *D sky130_fd_sc_hd__mux2_1
*I *3353:X O *D sky130_fd_sc_hd__dlygate4sd3_1
*CAP
1 *2926:A0 0.000255745
2 *3353:X 0.000255745
3 *2926:A0 *904:12 2.79092e-05
4 *2904:A *2926:A0 0
5 *2926:A1 *2926:A0 5.71472e-05
6 *2926:S *2926:A0 2.44318e-05
7 *3153:D *2926:A0 0
*RES
1 *3353:X *2926:A0 32.0107 
*END

*D_NET *661 0.000414186
*CONN
*I *2603:A1 I *D sky130_fd_sc_hd__mux2_1
*I *3354:X O *D sky130_fd_sc_hd__dlygate4sd3_1
*CAP
1 *2603:A1 0.000123854
2 *3354:X 0.000123854
3 *2605:S *2603:A1 1.02936e-05
4 *316:89 *2603:A1 5.52238e-05
5 *556:8 *2603:A1 0.00010096
*RES
1 *3354:X *2603:A1 20.3679 
*END

*D_NET *662 0.000777819
*CONN
*I *3128:A1 I *D sky130_fd_sc_hd__mux2_1
*I *3355:X O *D sky130_fd_sc_hd__dlygate4sd3_1
*CAP
1 *3128:A1 0.000271878
2 *3355:X 0.000271878
3 *3128:A0 *3128:A1 3.05446e-05
4 *3128:S *3128:A1 7.6644e-05
5 *3130:A1 *3128:A1 0.000126874
6 *601:14 *3128:A1 0
*RES
1 *3355:X *3128:A1 32.0107 
*END

*D_NET *663 0.00928461
*CONN
*I *3273:RESET_B I *D sky130_fd_sc_hd__dfrtp_4
*I *3276:RESET_B I *D sky130_fd_sc_hd__dfrtp_4
*I *3140:RESET_B I *D sky130_fd_sc_hd__dfrtp_2
*I *3274:RESET_B I *D sky130_fd_sc_hd__dfrtp_4
*I *3139:RESET_B I *D sky130_fd_sc_hd__dfrtp_1
*I *3138:RESET_B I *D sky130_fd_sc_hd__dfrtp_1
*I *3141:RESET_B I *D sky130_fd_sc_hd__dfrtp_4
*I *2970:C I *D sky130_fd_sc_hd__nand3b_4
*I *3057:B I *D sky130_fd_sc_hd__nand3b_4
*I *3275:RESET_B I *D sky130_fd_sc_hd__dfrtp_4
*I *3315:X O *D sky130_fd_sc_hd__buf_4
*CAP
1 *3273:RESET_B 0.0001859
2 *3276:RESET_B 0.000540612
3 *3140:RESET_B 0.000109994
4 *3274:RESET_B 0.000158686
5 *3139:RESET_B 2.31073e-05
6 *3138:RESET_B 8.54625e-05
7 *3141:RESET_B 0
8 *2970:C 1.98239e-05
9 *3057:B 0.000342587
10 *3275:RESET_B 4.4143e-05
11 *3315:X 7.68459e-05
12 *663:92 0.000805835
13 *663:40 0.000824471
14 *663:34 0.000647192
15 *663:32 0.000480031
16 *663:30 0.000372511
17 *663:26 0.000298653
18 *663:24 0.000708107
19 *663:10 0.000642256
20 *663:8 0.000156169
21 *2970:C *775:92 3.49456e-06
22 *3057:B *3057:C 0.000185403
23 *3057:B *774:124 9.67754e-05
24 *3057:B *775:51 7.88091e-05
25 *3057:B *775:57 0.000164586
26 *3139:RESET_B *2831:A 8.94268e-05
27 *3139:RESET_B *773:18 4.96254e-05
28 *3273:RESET_B *2719:B 0.000123295
29 *3273:RESET_B *2719:D 6.42145e-05
30 *3273:RESET_B *3275:D 0
31 *3274:RESET_B *3418:A 0
32 *3274:RESET_B *799:12 0
33 *3276:RESET_B *2723:D 3.6337e-05
34 *3276:RESET_B *798:69 2.63426e-05
35 *3276:RESET_B *799:45 2.47989e-05
36 *3276:RESET_B *800:75 8.75782e-05
37 *3276:RESET_B *801:57 4.49358e-05
38 *663:30 *3418:A 0
39 *663:30 *772:12 0
40 *663:40 *775:51 2.38501e-05
41 *663:92 *3275:D 0
42 *2854:A1_N *663:40 0
43 *2854:B1 *663:34 0.00021262
44 *2854:B1 *663:40 0.000127439
45 *2855:A1 *663:34 0.000103256
46 *2855:A1 *663:40 7.50601e-05
47 *2855:B1 *663:40 0
48 *2859:A *3138:RESET_B 9.84891e-05
49 *2859:A *663:30 0
50 *2859:A *663:32 0
51 *2859:A *663:34 0
52 *3138:D *663:34 0.00010326
53 *3139:D *663:32 0
54 *3140:CLK *663:24 6.25963e-05
55 *3140:D *3274:RESET_B 4.90803e-05
56 *3140:D *663:24 0.000186662
57 *3140:D *663:30 3.17148e-05
58 *3275:CLK *663:24 1.92789e-05
59 *3276:CLK *3273:RESET_B 4.43698e-05
60 *3276:CLK *663:8 3.47737e-05
61 *3276:CLK *663:92 4.79479e-05
62 *211:10 *663:40 0
63 *211:10 *663:92 0
64 *318:117 *663:34 0
65 *319:10 *663:8 0
66 *319:10 *663:92 0
67 *323:54 *663:40 0.000311174
68 *334:76 *663:34 0
69 *338:29 *663:40 0
70 *340:10 *663:40 0
71 *419:8 *3057:B 9.84729e-05
72 *419:136 *663:40 0
73 *595:36 *3274:RESET_B 0
74 *595:38 *663:24 5.65558e-05
75 *595:55 *3273:RESET_B 0
76 *607:12 *3273:RESET_B 0
*RES
1 *3315:X *663:8 15.1393 
2 *663:8 *663:10 4.5 
3 *663:10 *3275:RESET_B 0.901786 
4 *663:10 *663:24 8.89286 
5 *663:24 *663:26 4.5 
6 *663:26 *663:30 2.17857 
7 *663:30 *663:32 3.46429 
8 *663:32 *663:34 4.98214 
9 *663:34 *663:40 14.2679 
10 *663:40 *3057:B 17.2464 
11 *663:40 *2970:C 9.72857 
12 *663:34 *3141:RESET_B 4.5 
13 *663:32 *3138:RESET_B 6.20536 
14 *663:30 *3139:RESET_B 5.38393 
15 *663:26 *3274:RESET_B 7.66071 
16 *663:24 *3140:RESET_B 1.70536 
17 *663:8 *663:92 1.64286 
18 *663:92 *3276:RESET_B 20.8036 
19 *663:92 *3273:RESET_B 8.26786 
*END

*D_NET *664 0.00175497
*CONN
*I *2605:A1 I *D sky130_fd_sc_hd__mux2_1
*I *3356:X O *D sky130_fd_sc_hd__dlygate4sd3_1
*CAP
1 *2605:A1 0.000586869
2 *3356:X 0.000586869
3 *2605:A1 *2805:B2 0.000268521
4 *2605:A1 *924:8 5.71472e-05
5 *2604:A *2605:A1 2.65105e-05
6 *2605:S *2605:A1 3.48705e-05
7 *2839:A1 *2605:A1 4.88546e-05
8 *3259:D *2605:A1 0
9 *208:58 *2605:A1 4.62969e-05
10 *316:78 *2605:A1 9.90367e-05
11 *599:14 *2605:A1 0
*RES
1 *3356:X *2605:A1 37.0643 
*END

*D_NET *665 0.00109289
*CONN
*I *2968:A1 I *D sky130_fd_sc_hd__mux2_1
*I *3357:X O *D sky130_fd_sc_hd__dlygate4sd3_1
*CAP
1 *2968:A1 0.000338023
2 *3357:X 0.000338023
3 *2968:A1 *2809:A1 0
4 *2968:A0 *2968:A1 0.000375248
5 *2969:A *2968:A1 4.15914e-05
6 *3175:CLK *2968:A1 0
7 *3175:D *2968:A1 0
8 *592:32 *2968:A1 0
*RES
1 *3357:X *2968:A1 34.3679 
*END

*D_NET *666 0.000673737
*CONN
*I *2618:A1 I *D sky130_fd_sc_hd__mux2_1
*I *3358:X O *D sky130_fd_sc_hd__dlygate4sd3_1
*CAP
1 *2618:A1 0.000212097
2 *3358:X 0.000212097
3 *2618:A1 *2727:A1 0
4 *2619:A *2618:A1 0
5 *2620:A0 *2618:A1 6.09572e-05
6 *345:79 *2618:A1 0.000188586
*RES
1 *3358:X *2618:A1 31.0107 
*END

*D_NET *667 0.00171706
*CONN
*I *2976:A0 I *D sky130_fd_sc_hd__mux2_1
*I *3359:X O *D sky130_fd_sc_hd__dlygate4sd3_1
*CAP
1 *2976:A0 0.000598915
2 *3359:X 0.000598915
3 *3001:A1 *2976:A0 1.9774e-05
4 *3002:A *2976:A0 8.22018e-05
5 *3309:A *2976:A0 0.000130526
6 *190:18 *2976:A0 0
7 *197:108 *2976:A0 0.000103288
8 *365:64 *2976:A0 0.000183438
9 *374:141 *2976:A0 0
*RES
1 *3359:X *2976:A0 36.7786 
*END

*D_NET *668 0.00059288
*CONN
*I *3001:A0 I *D sky130_fd_sc_hd__mux2_1
*I *3360:X O *D sky130_fd_sc_hd__dlygate4sd3_1
*CAP
1 *3001:A0 0.000199327
2 *3360:X 0.000199327
3 *3001:A0 *3360:A 0.000113067
4 *3001:A1 *3001:A0 5.52238e-05
5 *3001:S *3001:A0 2.59355e-05
*RES
1 *3360:X *3001:A0 22.4393 
*END

*D_NET *669 0.00234268
*CONN
*I *2818:A1 I *D sky130_fd_sc_hd__o21a_1
*I *2635:A1 I *D sky130_fd_sc_hd__mux2_1
*I *3361:X O *D sky130_fd_sc_hd__dlygate4sd3_1
*CAP
1 *2818:A1 0.000557571
2 *2635:A1 0.000231341
3 *3361:X 0
4 *669:4 0.000788912
5 *2818:A1 *3361:A 5.03772e-05
6 *2634:A *2635:A1 5.30637e-06
7 *2634:A *2818:A1 6.41179e-05
8 *2819:B1 *2818:A1 5.33433e-05
9 *3270:D *2818:A1 0.000171199
10 *3271:CLK *2818:A1 0.00017121
11 *3280:D *2818:A1 0
12 *3281:D *2818:A1 9.90431e-05
13 *592:24 *2818:A1 0.000150257
14 *619:62 *2818:A1 0
*RES
1 *3361:X *669:4 9.3 
2 *669:4 *2635:A1 12.2107 
3 *669:4 *2818:A1 28.7464 
*END

*D_NET *670 0.000486488
*CONN
*I *2981:A1 I *D sky130_fd_sc_hd__mux2_1
*I *3363:X O *D sky130_fd_sc_hd__dlygate4sd3_1
*CAP
1 *2981:A1 0.00019555
2 *3363:X 0.00019555
3 *2982:A *2981:A1 0
4 *351:150 *2981:A1 3.92854e-05
5 *359:70 *2981:A1 3.88139e-05
6 *359:83 *2981:A1 1.72894e-05
*RES
1 *3363:X *2981:A1 30.4036 
*END

*D_NET *671 0.000348924
*CONN
*I *2585:A1 I *D sky130_fd_sc_hd__mux2_1
*I *3364:X O *D sky130_fd_sc_hd__dlygate4sd3_1
*CAP
1 *2585:A1 0.000128809
2 *3364:X 0.000128809
3 *2585:A1 *806:10 8.52545e-05
4 *2585:A0 *2585:A1 6.05161e-06
*RES
1 *3364:X *2585:A1 20.3679 
*END

*D_NET *672 0.000345911
*CONN
*I *2668:B I *D sky130_fd_sc_hd__or2_1
*I *3365:X O *D sky130_fd_sc_hd__dlygate4sd3_1
*CAP
1 *2668:B 0.000157022
2 *3365:X 0.000157022
3 *2668:B *2820:A 3.18676e-05
4 *310:12 *2668:B 0
*RES
1 *3365:X *2668:B 30.0821 
*END

*D_NET *673 0.00034532
*CONN
*I *2613:A1 I *D sky130_fd_sc_hd__mux2_1
*I *3366:X O *D sky130_fd_sc_hd__dlygate4sd3_1
*CAP
1 *2613:A1 6.68799e-05
2 *3366:X 6.68799e-05
3 *2613:A0 *2613:A1 5.57989e-05
4 *2615:S *2613:A1 5.71472e-05
5 *562:14 *2613:A1 9.86146e-05
*RES
1 *3366:X *2613:A1 20.3679 
*END

*D_NET *674 0.00604375
*CONN
*I *3143:RESET_B I *D sky130_fd_sc_hd__dfrtp_4
*I *3142:RESET_B I *D sky130_fd_sc_hd__dfrtp_4
*I *3137:RESET_B I *D sky130_fd_sc_hd__dfrtp_1
*I *3136:SET_B I *D sky130_fd_sc_hd__dfstp_1
*I *3285:RESET_B I *D sky130_fd_sc_hd__dfrtp_1
*I *3316:X O *D sky130_fd_sc_hd__clkbuf_2
*CAP
1 *3143:RESET_B 9.74933e-05
2 *3142:RESET_B 0
3 *3137:RESET_B 0.000310777
4 *3136:SET_B 6.33683e-06
5 *3285:RESET_B 0.000219827
6 *3316:X 0.000149901
7 *674:33 0.000474877
8 *674:20 0.000797641
9 *674:16 0.000516407
10 *674:10 0.00034375
11 *3137:RESET_B *779:10 0.00011713
12 *3285:RESET_B *2824:A2 6.07232e-05
13 *674:10 *2865:B1 0.000211061
14 *674:10 *775:8 1.6815e-05
15 *674:16 *2865:B1 0.000164538
16 *674:16 *775:8 0.000133982
17 *674:20 *2865:B1 7.06453e-05
18 *674:20 *775:8 3.57139e-05
19 *674:20 *775:14 0.000486635
20 *2823:D *674:20 0
21 *2824:A1 *3285:RESET_B 0.000197977
22 *2847:B1 *674:20 0.000150618
23 *2848:B1_N *674:20 0
24 *2866:A *3143:RESET_B 0.000178503
25 *2866:B *3143:RESET_B 0.000122101
26 *2867:A *674:10 0.000104617
27 *2869:B1 *3143:RESET_B 5.49995e-05
28 *3137:CLK *3137:RESET_B 5.89097e-05
29 *159:20 *3285:RESET_B 0.000477276
30 *159:20 *674:20 0.000133019
31 *312:27 *674:20 2.50403e-05
32 *313:10 *3285:RESET_B 0
33 *313:10 *674:20 0
34 *590:138 *674:20 0
35 *596:40 *3136:SET_B 2.72654e-05
36 *596:40 *3137:RESET_B 0.000253727
37 *596:40 *674:33 4.54494e-05
*RES
1 *3316:X *674:10 17.8 
2 *674:10 *674:16 3.21429 
3 *674:16 *674:20 10.6786 
4 *674:20 *3285:RESET_B 10.6964 
5 *674:20 *674:33 6.69643 
6 *674:33 *3136:SET_B 0.473214 
7 *674:33 *3137:RESET_B 5.8125 
8 *674:16 *3142:RESET_B 4.5 
9 *674:10 *3143:RESET_B 7.34821 
*END

*D_NET *675 0.000424587
*CONN
*I *2620:A1 I *D sky130_fd_sc_hd__mux2_1
*I *3367:X O *D sky130_fd_sc_hd__dlygate4sd3_1
*CAP
1 *2620:A1 0.000119589
2 *3367:X 0.000119589
3 *2896:A *2620:A1 0.000185408
*RES
1 *3367:X *2620:A1 20.3679 
*END

*D_NET *676 0.000536758
*CONN
*I *2648:A0 I *D sky130_fd_sc_hd__mux2_1
*I *3368:X O *D sky130_fd_sc_hd__dlygate4sd3_1
*CAP
1 *2648:A0 0.00018606
2 *3368:X 0.00018606
3 *2648:A1 *2648:A0 0.000126416
4 *11:29 *2648:A0 3.82216e-05
*RES
1 *3368:X *2648:A0 30.9036 
*END

*D_NET *677 0.00826508
*CONN
*I *3465:A I *D sky130_fd_sc_hd__clkbuf_2
*I *2749:B I *D sky130_fd_sc_hd__and3_1
*I *3464:X O *D sky130_fd_sc_hd__buf_1
*CAP
1 *3465:A 0.000383346
2 *2749:B 0.000380451
3 *3464:X 0.000562045
4 *677:20 0.00164287
5 *677:18 0.00144112
6 *2749:B *2749:A 3.79877e-06
7 *2749:B *2786:A 2.51343e-06
8 *3465:A *3383:A 0.000258972
9 *2551:S *3465:A 0.000137561
10 *2552:A *3465:A 9.03409e-05
11 *2749:C *2749:B 1.2104e-05
12 *2749:C *3465:A 3.21345e-05
13 *2786:C *2749:B 0.000125724
14 *2875:B *677:18 0.000262467
15 *2940:A *677:18 0.000194698
16 *2940:B *677:18 0.000161765
17 *2946:C *677:18 1.51745e-05
18 *2989:A *677:20 0
19 *3047:A *677:18 0.000361696
20 *3059:A *677:20 0.000122933
21 *3468:A *677:20 1.68854e-05
22 *191:35 *3465:A 0.000957384
23 *218:12 *677:18 0
24 *317:113 *677:18 1.01075e-05
25 *318:62 *677:18 5.59013e-05
26 *319:88 *677:18 4.46689e-05
27 *336:23 *677:18 6.57032e-05
28 *340:41 *677:20 0
29 *343:10 *677:18 3.15739e-05
30 *355:10 *677:20 0
31 *355:34 *2749:B 9.1235e-05
32 *355:34 *677:20 0.000276869
33 *361:30 *3465:A 0.0001717
34 *365:14 *677:20 1.15281e-05
35 *384:14 *677:20 0.000167269
36 *411:10 *677:20 0.000156726
37 *415:27 *677:20 0
38 *608:10 *3465:A 1.58163e-05
*RES
1 *3464:X *677:18 36.5857 
2 *677:18 *677:20 16.8214 
3 *677:20 *2749:B 19.7464 
4 *677:20 *3465:A 26.4071 
*END

*D_NET *678 0.00632014
*CONN
*I *2709:A2 I *D sky130_fd_sc_hd__a31o_1
*I *3466:A I *D sky130_fd_sc_hd__clkbuf_2
*I *3467:X O *D sky130_fd_sc_hd__buf_1
*CAP
1 *2709:A2 7.03098e-05
2 *3466:A 0.000202066
3 *3467:X 0.00113837
4 *678:12 0.00141075
5 *3466:A *3457:A 9.15842e-06
6 *3466:A *737:24 1.94945e-05
7 *3466:A *737:34 0.000121645
8 *3466:A *759:12 2.50936e-05
9 *678:12 *2720:A_N 0
10 *678:12 *2720:B_N 4.97918e-05
11 *678:12 *3457:A 0.000114861
12 *678:12 *800:19 4.43698e-05
13 *2709:A3 *2709:A2 2.59355e-05
14 *2709:A3 *3466:A 1.03904e-05
15 *2928:A *678:12 6.31898e-05
16 *3096:A0 *3466:A 5.50052e-05
17 *3190:D *678:12 7.73675e-05
18 *172:14 *678:12 0
19 *180:138 *678:12 7.83659e-05
20 *194:26 *3466:A 0.000305397
21 *317:66 *678:12 0.00036417
22 *391:16 *678:12 0.000543995
23 *403:28 *678:12 7.6299e-05
24 *432:14 *3466:A 0.000251304
25 *432:29 *3466:A 0.000192666
26 *432:29 *678:12 0.000265296
27 *432:46 *678:12 0.000308986
28 *432:73 *678:12 0.00046795
29 *468:12 *678:12 2.79092e-05
*RES
1 *3467:X *678:12 42.2107 
2 *678:12 *3466:A 19.6571 
3 *678:12 *2709:A2 15.0679 
*END

*D_NET *679 0.000963815
*CONN
*I *3274:D I *D sky130_fd_sc_hd__dfrtp_4
*I *3317:X O *D sky130_fd_sc_hd__dlygate4sd3_1
*CAP
1 *3274:D 0.0003761
2 *3317:X 0.0003761
3 *3274:D *3385:A 0.000128154
4 *3274:D *3418:A 6.97972e-05
5 *3274:D *772:8 1.36635e-05
*RES
1 *3317:X *3274:D 33.0643 
*END

*D_NET *680 0.00429783
*CONN
*I *3284:D I *D sky130_fd_sc_hd__dfrtp_1
*I *2818:B1 I *D sky130_fd_sc_hd__o21a_1
*I *2763:C1 I *D sky130_fd_sc_hd__o221a_1
*I *3374:X O *D sky130_fd_sc_hd__buf_1
*CAP
1 *3284:D 0.000333295
2 *2818:B1 0.000112263
3 *2763:C1 0.000315394
4 *3374:X 0
5 *680:8 0.0011256
6 *680:4 0.00103124
7 *2683:A *2763:C1 6.10501e-05
8 *2818:A2 *2763:C1 0.00053128
9 *2818:A2 *2818:B1 9.14882e-05
10 *3280:D *2763:C1 2.35097e-05
11 *3280:D *2818:B1 0.000156688
12 *3280:D *680:8 8.25843e-06
13 *175:8 *2763:C1 6.09804e-05
14 *351:150 *2818:B1 2.6949e-05
15 *593:34 *3284:D 7.11475e-05
16 *593:40 *3284:D 7.32272e-05
17 *608:16 *2763:C1 0.000265453
18 *619:62 *2818:B1 0
19 *630:42 *3284:D 1.00073e-05
*RES
1 *3374:X *680:4 9.3 
2 *680:4 *680:8 8.15179 
3 *680:8 *2763:C1 17.3446 
4 *680:8 *2818:B1 21.4875 
5 *680:4 *3284:D 13.4473 
*END

*D_NET *681 0.00145257
*CONN
*I *3273:D I *D sky130_fd_sc_hd__dfrtp_4
*I *3385:X O *D sky130_fd_sc_hd__dlygate4sd3_1
*CAP
1 *3273:D 0.000369801
2 *3385:X 0.000369801
3 *3273:D *3275:D 0.000578042
4 *3273:D *3418:A 5.71472e-05
5 *3273:CLK *3273:D 7.17235e-05
6 *595:65 *3273:D 6.05161e-06
*RES
1 *3385:X *3273:D 27.35 
*END

*D_NET *682 0.00936617
*CONN
*I *2660:A_N I *D sky130_fd_sc_hd__and4bb_1
*I *2670:B I *D sky130_fd_sc_hd__and3b_1
*I *3463:X O *D sky130_fd_sc_hd__buf_1
*CAP
1 *2660:A_N 0.000485485
2 *2670:B 0.00108053
3 *3463:X 0.0003841
4 *682:14 0.00329274
5 *682:12 0.00211082
6 *2660:A_N *2664:A1 4.25523e-05
7 *2660:A_N *2664:A2 4.06782e-05
8 *2660:A_N *2664:C1 0.000142023
9 *2660:A_N *2835:D_N 0.000197362
10 *2660:A_N *793:24 0
11 *2660:A_N *795:62 0
12 *2660:A_N *795:81 2.59355e-05
13 *2670:B *2665:B 9.90431e-05
14 *2670:B *2674:A2 0
15 *2670:B *3290:D 1.27093e-05
16 *2670:B *794:10 5.52238e-05
17 *682:14 *2640:A1 0
18 *682:14 *796:16 0
19 *682:14 *797:10 0
20 *2645:A *2670:B 8.07313e-05
21 *2648:A1 *2670:B 0
22 *2666:B *2660:A_N 0.000364967
23 *2667:A *2660:A_N 7.83659e-05
24 *2667:A *682:14 7.90803e-05
25 *2673:B1 *2660:A_N 0.000293753
26 *2676:A *2670:B 0
27 *3290:CLK *2670:B 9.26203e-05
28 *3294:D *2660:A_N 1.69115e-05
29 *3294:D *682:14 0.000390545
30 *11:43 *2660:A_N 0
31 *315:22 *682:14 0
32 *590:121 *2660:A_N 0
33 *590:121 *682:14 0
*RES
1 *3463:X *682:12 18.5054 
2 *682:12 *682:14 33.4911 
3 *682:14 *2670:B 36.8536 
4 *682:14 *2660:A_N 26.3357 
*END

*D_NET *683 0.00229739
*CONN
*I *2824:A2 I *D sky130_fd_sc_hd__a32o_1
*I *2870:B1_N I *D sky130_fd_sc_hd__o21bai_1
*I *3396:X O *D sky130_fd_sc_hd__dlygate4sd3_1
*CAP
1 *2824:A2 0.00022994
2 *2870:B1_N 0.000258823
3 *3396:X 0.000354028
4 *683:8 0.000842791
5 *2824:A2 *2835:D_N 0.000136744
6 *2870:B1_N *2835:D_N 0.000235541
7 *2824:A1 *2824:A2 1.02504e-05
8 *3144:D *2824:A2 0.000133456
9 *3285:RESET_B *2824:A2 6.07232e-05
10 *159:20 *2824:A2 3.50931e-05
11 *590:138 *2824:A2 0
12 *590:138 *2870:B1_N 0
*RES
1 *3396:X *683:8 17.6214 
2 *683:8 *2870:B1_N 19.925 
3 *683:8 *2824:A2 19.9964 
*END

*D_NET *684 0.000541786
*CONN
*I *3145:D I *D sky130_fd_sc_hd__dfrtp_1
*I *3407:X O *D sky130_fd_sc_hd__dlygate4sd3_1
*CAP
1 *3145:D 0.000147322
2 *3407:X 0.000147322
3 *3145:D *2677:A 0
4 *2870:A2 *3145:D 0.000143427
5 *159:20 *3145:D 0.000103716
*RES
1 *3407:X *3145:D 30.2964 
*END

*D_NET *685 0.00202182
*CONN
*I *3275:D I *D sky130_fd_sc_hd__dfrtp_4
*I *3418:X O *D sky130_fd_sc_hd__dlygate4sd3_1
*CAP
1 *3275:D 0.000603352
2 *3418:X 0.000603352
3 *3275:D *2719:D 6.5185e-05
4 *3273:D *3275:D 0.000578042
5 *3273:RESET_B *3275:D 0
6 *211:10 *3275:D 0
7 *595:55 *3275:D 0.000142317
8 *595:65 *3275:D 2.95726e-05
9 *663:92 *3275:D 0
*RES
1 *3418:X *3275:D 37.9571 
*END

*D_NET *686 0.00168389
*CONN
*I *3276:D I *D sky130_fd_sc_hd__dfrtp_4
*I *3429:X O *D sky130_fd_sc_hd__dlygate4sd3_1
*CAP
1 *3276:D 0.000453585
2 *3429:X 0.000453585
3 *3276:D *773:24 3.67257e-05
4 *3276:D *801:93 0.000315165
5 *3315:A *3276:D 2.59355e-05
6 *215:68 *3276:D 1.34703e-05
7 *407:93 *3276:D 0.000315165
8 *607:22 *3276:D 7.02611e-05
*RES
1 *3429:X *3276:D 35.9036 
*END

*D_NET *687 0.00187467
*CONN
*I *2646:C1 I *D sky130_fd_sc_hd__a221o_1
*I *2637:A I *D sky130_fd_sc_hd__clkbuf_1
*I *3440:X O *D sky130_fd_sc_hd__dlygate4sd3_1
*CAP
1 *2646:C1 0.00037372
2 *2637:A 0.000407641
3 *3440:X 0
4 *687:4 0.000781361
5 *2646:C1 *787:16 0.000287714
6 *2638:A *2637:A 1.97695e-05
7 *2646:A2 *2646:C1 0
8 *2646:B2 *2646:C1 4.46186e-06
*RES
1 *3440:X *687:4 9.3 
2 *687:4 *2637:A 16.3357 
3 *687:4 *2646:C1 25.6393 
*END

*D_NET *688 0.000998261
*CONN
*I *3287:D I *D sky130_fd_sc_hd__dfrtp_1
*I *3451:X O *D sky130_fd_sc_hd__dlygate4sd3_1
*CAP
1 *3287:D 0.000345496
2 *3451:X 0.000345496
3 *3287:D *2654:S 0
4 *2646:A2 *3287:D 0.000127268
5 *3287:RESET_B *3287:D 0.000180002
*RES
1 *3451:X *3287:D 32.8857 
*END

*D_NET *689 0.00231136
*CONN
*I *3277:D I *D sky130_fd_sc_hd__dfrtp_1
*I *3318:X O *D sky130_fd_sc_hd__dlygate4sd3_1
*CAP
1 *3277:D 0.000732971
2 *3318:X 0.000732971
3 *3277:D *2642:A1 1.90111e-05
4 *3277:D *3278:D 0.000565832
5 *2642:A2 *3277:D 5.33005e-05
6 *2642:B1 *3277:D 5.71472e-05
7 *2643:B1 *3277:D 9.90431e-05
8 *3277:CLK *3277:D 0
9 *590:138 *3277:D 0
10 *652:63 *3277:D 5.10822e-05
*RES
1 *3318:X *3277:D 42.5286 
*END

*D_NET *690 0.0031297
*CONN
*I *3278:D I *D sky130_fd_sc_hd__dfrtp_1
*I *3329:X O *D sky130_fd_sc_hd__dlygate4sd3_1
*CAP
1 *3278:D 0.000912115
2 *3329:X 0.000912115
3 *2848:B1_N *3278:D 3.34687e-05
4 *3136:D *3278:D 4.81157e-05
5 *3277:CLK *3278:D 1.19309e-05
6 *3277:D *3278:D 0.000565832
7 *3313:A *3278:D 5.52302e-05
8 *313:10 *3278:D 0.000186669
9 *590:138 *3278:D 5.91452e-05
10 *596:12 *3278:D 3.97677e-05
11 *596:63 *3278:D 7.77751e-05
12 *652:59 *3278:D 0.000227532
*RES
1 *3329:X *3278:D 46.5107 
*END

*D_NET *691 0.00092543
*CONN
*I *2674:A2 I *D sky130_fd_sc_hd__a31o_1
*I *3340:X O *D sky130_fd_sc_hd__dlygate4sd3_1
*CAP
1 *2674:A2 0.000209178
2 *3340:X 0.000209178
3 *2674:A2 *795:12 3.34366e-05
4 *2674:A2 *795:16 0.000146474
5 *2645:A *2674:A2 1.92789e-05
6 *2648:A1 *2674:A2 0.000307885
7 *2670:B *2674:A2 0
8 *2676:A *2674:A2 0
*RES
1 *3340:X *2674:A2 32.2071 
*END

*D_NET *692 0.000913501
*CONN
*I *2763:A1 I *D sky130_fd_sc_hd__o221a_1
*I *2633:A1 I *D sky130_fd_sc_hd__mux2_1
*I *3351:X O *D sky130_fd_sc_hd__dlygate4sd3_1
*CAP
1 *2763:A1 7.57176e-05
2 *2633:A1 0.000181283
3 *3351:X 0
4 *692:4 0.000257001
5 *2819:B1 *2633:A1 0.000271345
6 *211:47 *2763:A1 0.000128154
7 *222:26 *2763:A1 0
8 *356:14 *2763:A1 0
*RES
1 *3351:X *692:4 9.3 
2 *692:4 *2633:A1 11.8893 
3 *692:4 *2763:A1 19.9429 
*END

*D_NET *693 0.0219327
*CONN
*I *3473:A I *D sky130_fd_sc_hd__clkbuf_4
*I *3294:Q O *D sky130_fd_sc_hd__dfrtp_1
*CAP
1 *3473:A 0.00115857
2 *3294:Q 0.00116464
3 *693:36 0.00350411
4 *693:32 0.00509068
5 *693:24 0.00385806
6 *693:20 0.00227757
7 *693:20 *2731:B2 4.51633e-05
8 *693:24 *2731:A1 4.08545e-05
9 *693:24 *2731:B2 0.000268049
10 *693:32 *2813:A1 2.93632e-05
11 *693:32 *2813:B1 0.000374975
12 *693:32 *870:10 3.25229e-05
13 *693:32 *923:8 0.000314907
14 *693:36 *2598:A0 4.3304e-06
15 *693:36 *809:12 9.31523e-05
16 *2598:A1 *693:36 0.000271439
17 *2621:A *693:36 7.4057e-06
18 *2732:C1 *693:24 9.58689e-05
19 *2809:B1 *693:24 0.000780661
20 *2815:A2 *693:32 0.000139338
21 *2815:B1 *693:24 0.000651454
22 *2815:B1 *693:32 4.63219e-05
23 *2839:A0 *693:32 3.41142e-05
24 *2949:A *693:32 5.64704e-06
25 *2956:A1 *693:20 2.29112e-05
26 *3134:D *693:32 3.96997e-05
27 *3257:CLK *693:36 0.000174277
28 *3257:D *693:36 4.68707e-06
29 *3265:CLK *693:32 2.11336e-05
30 *3265:CLK *693:36 8.0567e-05
31 *3265:D *693:36 8.38416e-05
32 *3283:RESET_B *693:20 5.73002e-05
33 *3294:RESET_B *693:20 0.000608548
34 *226:22 *693:32 0.000275714
35 *325:118 *693:24 6.99879e-05
36 *592:76 *693:20 9.54364e-05
37 *592:87 *693:20 0.000109355
*RES
1 *3294:Q *693:20 36.9786 
2 *693:20 *693:24 21.5 
3 *693:24 *693:32 36.4286 
4 *693:32 *693:36 34.1964 
5 *693:36 *3473:A 34.55 
*END

*D_NET *694 0.00135694
*CONN
*I *2824:B2 I *D sky130_fd_sc_hd__a32o_1
*I *3362:X O *D sky130_fd_sc_hd__dlygate4sd3_1
*CAP
1 *2824:B2 0.000461973
2 *3362:X 0.000461973
3 *2824:B2 *2643:A1 2.50047e-05
4 *2643:A2 *2824:B2 0.000131267
5 *2824:A3 *2824:B2 0.000198355
6 *596:44 *2824:B2 7.83659e-05
*RES
1 *3362:X *2824:B2 35.3679 
*END

*D_NET *695 0.00475562
*CONN
*I *2643:A1 I *D sky130_fd_sc_hd__a22o_1
*I *2677:A I *D sky130_fd_sc_hd__and2_1
*I *3369:X O *D sky130_fd_sc_hd__dlygate4sd3_1
*CAP
1 *2643:A1 0.000108066
2 *2677:A 0.00130108
3 *3369:X 0
4 *695:4 0.00140914
5 *2677:A *2664:A2 0
6 *2677:A *2664:C1 5.33005e-05
7 *2677:A *2835:D_N 8.10394e-05
8 *2677:A *3396:A 0.000215611
9 *2677:A *793:32 0.000147725
10 *2677:A *795:62 0.000225387
11 *2643:A2 *2643:A1 7.57716e-05
12 *2643:B2 *2643:A1 5.47564e-05
13 *2659:C *2677:A 0.000208404
14 *2661:B1 *2677:A 6.70346e-05
15 *2664:B1 *2677:A 0.00029025
16 *2824:A3 *2643:A1 1.25866e-05
17 *2824:A3 *2677:A 8.06561e-05
18 *2824:B2 *2643:A1 2.50047e-05
19 *2870:A1 *2677:A 4.43106e-05
20 *3145:D *2677:A 0
21 *3285:D *2677:A 2.52113e-05
22 *159:12 *2677:A 0.00021917
23 *159:20 *2677:A 0
24 *323:10 *2677:A 0.000111118
*RES
1 *3369:X *695:4 9.3 
2 *695:4 *2677:A 46.4786 
3 *695:4 *2643:A1 11.4964 
*END

*D_NET *696 0.000414588
*CONN
*I *2998:A0 I *D sky130_fd_sc_hd__mux2_1
*I *3370:X O *D sky130_fd_sc_hd__dlygate4sd3_1
*CAP
1 *2998:A0 0.000102016
2 *3370:X 0.000102016
3 *2752:C1 *2998:A0 0.00014183
4 *2998:A1 *2998:A0 5.33005e-05
5 *177:24 *2998:A0 1.5424e-05
*RES
1 *3370:X *2998:A0 20.7786 
*END

*D_NET *697 0.000293851
*CONN
*I *3010:A0 I *D sky130_fd_sc_hd__mux2_1
*I *3371:X O *D sky130_fd_sc_hd__dlygate4sd3_1
*CAP
1 *3010:A0 0.000120254
2 *3371:X 0.000120254
3 *3010:S *3010:A0 5.33433e-05
*RES
1 *3371:X *3010:A0 20.7786 
*END

*D_NET *698 0.000400388
*CONN
*I *2663:A1 I *D sky130_fd_sc_hd__a221o_1
*I *3372:X O *D sky130_fd_sc_hd__dlygate4sd3_1
*CAP
1 *2663:A1 3.94719e-05
2 *3372:X 3.94719e-05
3 *2663:A1 *2675:B 1.41106e-05
4 *2663:A2 *2663:A1 0.000119924
5 *2676:A *2663:A1 3.69047e-06
6 *11:43 *2663:A1 0.00018372
*RES
1 *3372:X *2663:A1 20.3679 
*END

*D_NET *699 0.000369467
*CONN
*I *2593:A1 I *D sky130_fd_sc_hd__mux2_1
*I *3373:X O *D sky130_fd_sc_hd__dlygate4sd3_1
*CAP
1 *2593:A1 0.000144471
2 *3373:X 0.000144471
3 *2784:B *2593:A1 7.2266e-05
4 *174:83 *2593:A1 8.25843e-06
*RES
1 *3373:X *2593:A1 20.3679 
*END

*D_NET *700 0.000452208
*CONN
*I *3007:A0 I *D sky130_fd_sc_hd__mux2_1
*I *3375:X O *D sky130_fd_sc_hd__dlygate4sd3_1
*CAP
1 *3007:A0 0.0001133
2 *3375:X 0.0001133
3 *3007:A0 *2795:A 0.000126566
4 *3007:A0 *874:8 9.90431e-05
*RES
1 *3375:X *3007:A0 20.7786 
*END

*D_NET *701 0.000513501
*CONN
*I *3068:A1 I *D sky130_fd_sc_hd__mux2_1
*I *3376:X O *D sky130_fd_sc_hd__dlygate4sd3_1
*CAP
1 *3068:A1 0.000101953
2 *3376:X 0.000101953
3 *3068:A1 *3066:A1 0.000226513
4 *3068:A0 *3068:A1 2.59355e-05
5 *3069:A *3068:A1 5.71472e-05
*RES
1 *3376:X *3068:A1 21.1893 
*END

*D_NET *702 0.000843456
*CONN
*I *2548:A1 I *D sky130_fd_sc_hd__mux2_1
*I *3377:X O *D sky130_fd_sc_hd__dlygate4sd3_1
*CAP
1 *2548:A1 0.00023309
2 *3377:X 0.00023309
3 *2548:A1 *2787:A 7.83659e-05
4 *2553:A0 *2548:A1 3.97677e-05
5 *2753:C *2548:A1 0.000180777
6 *176:44 *2548:A1 7.83659e-05
*RES
1 *3377:X *2548:A1 31.225 
*END

*D_NET *703 0.00103815
*CONN
*I *3125:A0 I *D sky130_fd_sc_hd__mux2_1
*I *3378:X O *D sky130_fd_sc_hd__dlygate4sd3_1
*CAP
1 *3125:A0 0.000166674
2 *3378:X 0.000166674
3 *3125:A0 *3123:A0 5.49489e-05
4 *3125:A0 *759:22 0.000349772
5 *2791:C *3125:A0 0.000123288
6 *3125:S *3125:A0 5.49489e-05
7 *187:64 *3125:A0 0.000101224
8 *590:14 *3125:A0 2.06178e-05
*RES
1 *3378:X *3125:A0 32.8143 
*END

*D_NET *704 0.0032657
*CONN
*I *3474:A I *D sky130_fd_sc_hd__buf_2
*I *3368:A I *D sky130_fd_sc_hd__dlygate4sd3_1
*I *3288:Q O *D sky130_fd_sc_hd__dfrtp_1
*CAP
1 *3474:A 0.00128076
2 *3368:A 0.000301825
3 *3288:Q 5.02616e-05
4 *704:8 0.00163285
5 *3474:A *778:10 0
6 *3137:D *3474:A 0
*RES
1 *3288:Q *704:8 14.3357 
2 *704:8 *3368:A 19.3893 
3 *704:8 *3474:A 37.3 
*END

*D_NET *705 0.000815748
*CONN
*I *2595:A1 I *D sky130_fd_sc_hd__mux2_1
*I *3379:X O *D sky130_fd_sc_hd__dlygate4sd3_1
*CAP
1 *2595:A1 0.0001633
2 *3379:X 0.0001633
3 *2595:A1 *2784:A 5.99125e-05
4 *2595:A1 *3379:A 3.48235e-05
5 *2595:A1 *737:34 2.57438e-05
6 *231:98 *2595:A1 0.000268505
7 *419:57 *2595:A1 0.000100165
*RES
1 *3379:X *2595:A1 32.0107 
*END

*D_NET *706 0.000798368
*CONN
*I *2987:A1 I *D sky130_fd_sc_hd__mux2_1
*I *3380:X O *D sky130_fd_sc_hd__dlygate4sd3_1
*CAP
1 *2987:A1 0.000167563
2 *3380:X 0.000167563
3 *2987:A1 *2781:A 0.000101545
4 *2987:A1 *774:92 0.000127019
5 *3238:CLK *2987:A1 5.33005e-05
6 *419:14 *2987:A1 0.000181378
*RES
1 *3380:X *2987:A1 32.5107 
*END

*D_NET *707 0.000588188
*CONN
*I *2886:A1 I *D sky130_fd_sc_hd__mux2_1
*I *3381:X O *D sky130_fd_sc_hd__dlygate4sd3_1
*CAP
1 *2886:A1 5.50542e-05
2 *3381:X 5.50542e-05
3 *2886:A0 *2886:A1 0.00014285
4 *322:31 *2886:A1 6.58013e-05
5 *362:6 *2886:A1 0.000269428
*RES
1 *3381:X *2886:A1 21.1893 
*END

*D_NET *708 0.000705688
*CONN
*I *3093:A0 I *D sky130_fd_sc_hd__mux2_1
*I *3382:X O *D sky130_fd_sc_hd__dlygate4sd3_1
*CAP
1 *3093:A0 0.000152959
2 *3382:X 0.000152959
3 *3093:A0 *3325:A 1.01241e-05
4 *3093:A1 *3093:A0 5.33005e-05
5 *3093:S *3093:A0 0.00012501
6 *282:22 *3093:A0 6.42095e-05
7 *384:43 *3093:A0 0.000147125
*RES
1 *3382:X *3093:A0 31.3143 
*END

*D_NET *709 0.000456839
*CONN
*I *2551:A1 I *D sky130_fd_sc_hd__mux2_1
*I *3383:X O *D sky130_fd_sc_hd__dlygate4sd3_1
*CAP
1 *2551:A1 0.000139509
2 *3383:X 0.000139509
3 *2551:A1 *3383:A 0.000177821
*RES
1 *3383:X *2551:A1 20.3679 
*END

*D_NET *710 0.000436901
*CONN
*I *3109:A0 I *D sky130_fd_sc_hd__mux2_1
*I *3384:X O *D sky130_fd_sc_hd__dlygate4sd3_1
*CAP
1 *3109:A0 0.000124426
2 *3384:X 0.000124426
3 *2730:D1 *3109:A0 6.46783e-05
4 *2770:C1 *3109:A0 5.65955e-05
5 *358:114 *3109:A0 6.67763e-05
*RES
1 *3384:X *3109:A0 30.0821 
*END

*D_NET *711 0.00178189
*CONN
*I *3112:A0 I *D sky130_fd_sc_hd__mux2_1
*I *3386:X O *D sky130_fd_sc_hd__dlygate4sd3_1
*CAP
1 *3112:A0 0.000245991
2 *3386:X 0.000245991
3 *3112:A0 *830:8 7.84156e-05
4 *2768:C *3112:A0 8.15251e-05
5 *3107:S *3112:A0 0
6 *3108:A *3112:A0 2.97829e-05
7 *192:57 *3112:A0 6.98302e-05
8 *350:85 *3112:A0 0.000610077
9 *395:53 *3112:A0 0.000148926
10 *399:34 *3112:A0 0.000271352
*RES
1 *3386:X *3112:A0 36.2607 
*END

*D_NET *712 0.000491733
*CONN
*I *2553:A1 I *D sky130_fd_sc_hd__mux2_1
*I *3387:X O *D sky130_fd_sc_hd__dlygate4sd3_1
*CAP
1 *2553:A1 0.00020661
2 *3387:X 0.00020661
3 *2554:A *2553:A1 0
4 *2989:A *2553:A1 7.85137e-05
5 *524:10 *2553:A1 0
*RES
1 *3387:X *2553:A1 30.4036 
*END

*D_NET *713 0.000560043
*CONN
*I *2932:A0 I *D sky130_fd_sc_hd__mux2_1
*I *3388:X O *D sky130_fd_sc_hd__dlygate4sd3_1
*CAP
1 *2932:A0 4.92132e-05
2 *3388:X 4.92132e-05
3 *2932:A0 *902:8 0.00022459
4 *374:76 *2932:A0 0.000183726
5 *374:90 *2932:A0 5.33005e-05
*RES
1 *3388:X *2932:A0 20.7786 
*END

*D_NET *714 0.000382785
*CONN
*I *3104:A0 I *D sky130_fd_sc_hd__mux2_1
*I *3389:X O *D sky130_fd_sc_hd__dlygate4sd3_1
*CAP
1 *3104:A0 0.000108282
2 *3389:X 0.000108282
3 *3104:A0 *2714:A1 0.000100165
4 *3102:S *3104:A0 5.54817e-06
5 *3104:S *3104:A0 3.75959e-05
6 *442:16 *3104:A0 2.29112e-05
*RES
1 *3389:X *3104:A0 29.5821 
*END

*D_NET *715 0.017716
*CONN
*I *2708:C I *D sky130_fd_sc_hd__and3_1
*I *2813:B1 I *D sky130_fd_sc_hd__a22o_1
*I *2733:B1 I *D sky130_fd_sc_hd__a22o_1
*I *2756:C I *D sky130_fd_sc_hd__and3_1
*I *2784:C I *D sky130_fd_sc_hd__and3_1
*I *3468:X O *D sky130_fd_sc_hd__clkbuf_2
*CAP
1 *2708:C 0.000251834
2 *2813:B1 0.000368022
3 *2733:B1 0.000350683
4 *2756:C 0
5 *2784:C 2.29127e-05
6 *3468:X 0.000528029
7 *715:58 0.00233396
8 *715:47 0.00211167
9 *715:30 0.00138992
10 *715:20 0.00165045
11 *2733:B1 *2733:A1 0.00010096
12 *2733:B1 *2733:B2 1.74352e-05
13 *2733:B1 *2812:B2 0
14 *2813:B1 *2813:A1 3.46034e-05
15 *715:30 *3419:A 0.000126416
16 *715:30 *737:34 0.00171992
17 *715:30 *759:22 0.00034875
18 *715:47 *737:34 0.000163943
19 *715:58 *2811:B2 0.000170654
20 *715:58 *2812:B2 0
21 *2595:S *715:47 9.87489e-05
22 *2708:B *2708:C 1.72099e-05
23 *2708:B *715:30 0.000254339
24 *2709:A3 *715:30 0.000389559
25 *2734:A2 *2813:B1 0.00010072
26 *2734:A2 *715:58 0
27 *2784:B *715:30 5.22029e-05
28 *2784:B *715:47 0.000347775
29 *2788:A *715:30 0.000169608
30 *2811:B1 *715:58 0.000215562
31 *2812:C1 *715:58 0
32 *2813:A2 *2813:B1 0.000137639
33 *2816:B *715:58 4.61259e-05
34 *2951:A *2733:B1 1.97695e-05
35 *2996:A1 *2784:C 6.21062e-05
36 *3059:A *715:20 7.70035e-05
37 *3148:D *715:58 4.84319e-05
38 *3168:D *715:58 5.01234e-05
39 *3299:A *715:20 6.05161e-06
40 *3468:A *715:20 2.84109e-05
41 *187:58 *715:30 1.03904e-05
42 *193:14 *715:30 0.000247026
43 *194:26 *2708:C 8.63378e-05
44 *194:26 *715:30 0.000707413
45 *202:14 *715:58 0
46 *226:22 *2813:B1 0.000140243
47 *231:98 *715:58 0.000606892
48 *231:116 *715:58 9.16262e-05
49 *316:46 *715:47 0.000140734
50 *350:62 *715:30 0.000110341
51 *350:83 *715:30 0.000141375
52 *351:114 *715:58 0
53 *355:10 *715:20 1.9774e-05
54 *361:54 *715:47 5.51885e-05
55 *370:54 *715:30 1.41231e-05
56 *370:64 *715:20 0.000522664
57 *388:8 *2733:B1 0.000114412
58 *388:8 *715:58 3.0089e-05
59 *403:49 *2708:C 9.60337e-06
60 *432:14 *715:30 2.12647e-05
61 *436:14 *2784:C 1.79251e-05
62 *447:12 *2708:C 0.000291854
63 *476:12 *715:20 0.000150254
64 *693:32 *2813:B1 0.000374975
*RES
1 *3468:X *715:20 33.2643 
2 *715:20 *715:30 40.2857 
3 *715:30 *2784:C 14.4071 
4 *715:30 *715:47 13.8929 
5 *715:47 *2756:C 9.3 
6 *715:47 *715:58 34.0714 
7 *715:58 *2733:B1 20.2643 
8 *715:58 *2813:B1 23.55 
9 *715:20 *2708:C 18.425 
*END

*D_NET *716 0.00126974
*CONN
*I *3114:A0 I *D sky130_fd_sc_hd__mux2_1
*I *3390:X O *D sky130_fd_sc_hd__dlygate4sd3_1
*CAP
1 *3114:A0 0.000241213
2 *3390:X 0.000241213
3 *3114:A0 *830:8 5.52238e-05
4 *3112:S *3114:A0 0.000286161
5 *3227:D *3114:A0 0.000150257
6 *358:96 *3114:A0 5.33005e-05
7 *399:34 *3114:A0 6.35224e-05
8 *476:66 *3114:A0 0.000178847
*RES
1 *3390:X *3114:A0 33.6714 
*END

*D_NET *717 0.000434102
*CONN
*I *2907:A0 I *D sky130_fd_sc_hd__mux2_1
*I *3391:X O *D sky130_fd_sc_hd__dlygate4sd3_1
*CAP
1 *2907:A0 0.000118346
2 *3391:X 0.000118346
3 *2907:A0 *3391:A 1.69142e-05
4 *2907:A1 *2907:A0 0.000180496
*RES
1 *3391:X *2907:A0 20.7786 
*END

*D_NET *718 0.000585314
*CONN
*I *2930:A0 I *D sky130_fd_sc_hd__mux2_1
*I *3392:X O *D sky130_fd_sc_hd__dlygate4sd3_1
*CAP
1 *2930:A0 0.000188654
2 *3392:X 0.000188654
3 *2602:A *2930:A0 9.60939e-05
4 *2930:S *2930:A0 5.62995e-05
5 *325:57 *2930:A0 2.89016e-05
6 *511:18 *2930:A0 2.67113e-05
*RES
1 *3392:X *2930:A0 22.0107 
*END

*D_NET *719 0.00139539
*CONN
*I *2630:A1 I *D sky130_fd_sc_hd__mux2_1
*I *3393:X O *D sky130_fd_sc_hd__dlygate4sd3_1
*CAP
1 *2630:A1 0.000441152
2 *3393:X 0.000441152
3 *2978:B *2630:A1 7.79481e-05
4 *2980:A *2630:A1 3.75959e-05
5 *3268:CLK *2630:A1 0.000397539
*RES
1 *3393:X *2630:A1 34.8857 
*END

*D_NET *720 0.00051466
*CONN
*I *3018:A0 I *D sky130_fd_sc_hd__mux2_1
*I *3394:X O *D sky130_fd_sc_hd__dlygate4sd3_1
*CAP
1 *3018:A0 2.6762e-05
2 *3394:X 2.6762e-05
3 *3018:A0 *3394:A 0.000230568
4 *474:49 *3018:A0 0.000230568
*RES
1 *3394:X *3018:A0 20.7786 
*END

*D_NET *721 0.000443133
*CONN
*I *2948:A0 I *D sky130_fd_sc_hd__mux2_1
*I *3395:X O *D sky130_fd_sc_hd__dlygate4sd3_1
*CAP
1 *2948:A0 0.00010843
2 *3395:X 0.00010843
3 *2948:A0 *3395:A 0.000226274
*RES
1 *3395:X *2948:A0 20.7786 
*END

*D_NET *722 0.00074308
*CONN
*I *2909:A0 I *D sky130_fd_sc_hd__mux2_1
*I *3397:X O *D sky130_fd_sc_hd__dlygate4sd3_1
*CAP
1 *2909:A0 0.000193451
2 *3397:X 0.000193451
3 *2912:B *2909:A0 7.83659e-05
4 *2998:A1 *2909:A0 0.000183304
5 *374:113 *2909:A0 5.52238e-05
6 *391:43 *2909:A0 3.92854e-05
*RES
1 *3397:X *2909:A0 30.8143 
*END

*D_NET *723 0.000632727
*CONN
*I *3015:A1 I *D sky130_fd_sc_hd__mux2_1
*I *3398:X O *D sky130_fd_sc_hd__dlygate4sd3_1
*CAP
1 *3015:A1 0.000132257
2 *3398:X 0.000132257
3 *3015:A1 *2771:A 0.000126963
4 *3015:A1 *759:12 6.02129e-05
5 *2905:A *3015:A1 9.54798e-06
6 *340:88 *3015:A1 0.000171488
*RES
1 *3398:X *3015:A1 31.0286 
*END

*D_NET *724 0.000483685
*CONN
*I *3086:A0 I *D sky130_fd_sc_hd__mux2_1
*I *3399:X O *D sky130_fd_sc_hd__dlygate4sd3_1
*CAP
1 *3086:A0 0.000175288
2 *3399:X 0.000175288
3 *3086:A0 *2793:B2 1.56e-05
4 *3086:A1 *3086:A0 5.33005e-05
5 *3086:S *3086:A0 6.42095e-05
*RES
1 *3399:X *3086:A0 20.7786 
*END

*D_NET *725 0.00122269
*CONN
*I *3096:A1 I *D sky130_fd_sc_hd__mux2_1
*I *3400:X O *D sky130_fd_sc_hd__dlygate4sd3_1
*CAP
1 *3096:A1 0.000286753
2 *3400:X 0.000286753
3 *3096:A1 *726:20 9.41642e-05
4 *3090:B *3096:A1 0.000258751
5 *3099:A1 *3096:A1 3.90477e-05
6 *384:43 *3096:A1 0.000257222
*RES
1 *3400:X *3096:A1 33.2429 
*END

*D_NET *726 0.0152809
*CONN
*I *2714:A2 I *D sky130_fd_sc_hd__a22o_1
*I *2776:A2 I *D sky130_fd_sc_hd__a22o_1
*I *2802:A2 I *D sky130_fd_sc_hd__a21o_1
*I *2721:A2 I *D sky130_fd_sc_hd__a22o_1
*I *3469:X O *D sky130_fd_sc_hd__clkbuf_2
*CAP
1 *2714:A2 0
2 *2776:A2 8.52125e-05
3 *2802:A2 0.000830583
4 *2721:A2 0
5 *3469:X 0.000789595
6 *726:38 0.00150005
7 *726:28 0.000822841
8 *726:26 0.00191495
9 *726:20 0.00263637
10 *2776:A2 *835:8 0
11 *2802:A2 *2721:B2 0.000175446
12 *2802:A2 *2802:A1 0.000259669
13 *2802:A2 *3452:A 0.000126416
14 *726:20 *2772:A1 0.0001802
15 *726:20 *3457:A 4.17702e-05
16 *726:38 *2721:B2 9.87672e-05
17 *2582:A *2802:A2 9.98137e-05
18 *2622:B *2802:A2 2.76798e-05
19 *2772:B1 *726:20 3.69047e-06
20 *2801:A2 *2802:A2 5.39829e-05
21 *2801:A2 *726:38 0.000100684
22 *2805:A2 *2802:A2 0
23 *2807:B1 *2802:A2 0
24 *3008:A *2802:A2 0
25 *3096:A1 *726:20 9.41642e-05
26 *3099:A0 *726:20 0.000150279
27 *3099:A1 *726:20 0.000172892
28 *3115:A *2776:A2 5.33005e-05
29 *3115:A *726:28 2.24646e-05
30 *3115:A *726:38 0.000191403
31 *3189:CLK *2802:A2 0.000112521
32 *3229:CLK *726:38 3.14219e-05
33 *3229:D *726:38 0.000147836
34 *3267:CLK *2802:A2 0.000261311
35 *177:100 *726:20 0.000810318
36 *177:100 *726:26 9.62638e-05
37 *177:106 *726:26 7.47341e-05
38 *194:41 *726:20 3.6444e-05
39 *202:77 *726:26 7.82519e-05
40 *202:77 *726:28 5.54817e-06
41 *209:18 *726:26 0.000472375
42 *212:91 *2802:A2 7.48301e-06
43 *212:91 *726:38 0
44 *267:44 *2776:A2 0
45 *345:30 *726:26 0.000418815
46 *350:118 *726:38 0.000391863
47 *358:79 *726:38 0
48 *376:80 *726:20 0.000119461
49 *384:43 *726:20 0.000121041
50 *399:73 *2802:A2 0
51 *430:20 *726:38 7.83587e-05
52 *430:64 *726:26 0.000432806
53 *430:64 *726:28 0.00019867
54 *430:64 *726:38 0.000622993
55 *445:8 *726:28 5.2558e-05
56 *445:8 *726:38 0.000115439
57 *445:21 *726:26 9.19357e-05
58 *518:10 *2776:A2 7.02611e-05
*RES
1 *3469:X *726:20 35.9518 
2 *726:20 *726:26 31.7768 
3 *726:26 *726:28 2.55357 
4 *726:28 *726:38 21.5179 
5 *726:38 *2721:A2 9.3 
6 *726:38 *2802:A2 36.4964 
7 *726:28 *2776:A2 15.5857 
8 *726:26 *2714:A2 13.8 
*END

*D_NET *727 0.000425907
*CONN
*I *2950:A0 I *D sky130_fd_sc_hd__mux2_1
*I *3401:X O *D sky130_fd_sc_hd__dlygate4sd3_1
*CAP
1 *2950:A0 0.000114154
2 *3401:X 0.000114154
3 *2938:A1 *2950:A0 1.47872e-05
4 *374:18 *2950:A0 4.25684e-05
5 *374:20 *2950:A0 0.000140243
*RES
1 *3401:X *2950:A0 20.7786 
*END

*D_NET *728 0.000537973
*CONN
*I *3013:A1 I *D sky130_fd_sc_hd__mux2_1
*I *3402:X O *D sky130_fd_sc_hd__dlygate4sd3_1
*CAP
1 *3013:A1 0.000134965
2 *3402:X 0.000134965
3 *447:12 *3013:A1 0.000268042
*RES
1 *3402:X *3013:A1 21.1893 
*END

*D_NET *729 0.000528261
*CONN
*I *2984:A1 I *D sky130_fd_sc_hd__mux2_1
*I *3403:X O *D sky130_fd_sc_hd__dlygate4sd3_1
*CAP
1 *2984:A1 0.000176072
2 *3403:X 0.000176072
3 *2984:A1 *2755:A1 9.87041e-05
4 *2984:A0 *2984:A1 7.74135e-05
*RES
1 *3403:X *2984:A1 30.4036 
*END

*D_NET *730 0.00129924
*CONN
*I *2580:A0 I *D sky130_fd_sc_hd__mux2_1
*I *3404:X O *D sky130_fd_sc_hd__dlygate4sd3_1
*CAP
1 *2580:A0 0.000307233
2 *3404:X 0.000307233
3 *2580:A0 *808:6 5.33005e-05
4 *2622:B *2580:A0 3.98645e-05
5 *3243:CLK *2580:A0 0.000226513
6 *197:134 *2580:A0 0
7 *591:10 *2580:A0 0.000100831
8 *598:29 *2580:A0 0.000264265
*RES
1 *3404:X *2580:A0 33.7786 
*END

*D_NET *731 0.000943513
*CONN
*I *2598:A0 I *D sky130_fd_sc_hd__mux2_1
*I *3405:X O *D sky130_fd_sc_hd__dlygate4sd3_1
*CAP
1 *2598:A0 0.000284962
2 *3405:X 0.000284962
3 *2598:A0 *2578:A0 7.74135e-05
4 *2578:S *2598:A0 0.000127439
5 *2598:A1 *2598:A0 7.3525e-05
6 *2598:S *2598:A0 3.11088e-05
7 *350:120 *2598:A0 5.97719e-05
8 *693:36 *2598:A0 4.3304e-06
*RES
1 *3405:X *2598:A0 33.2429 
*END

*D_NET *732 0.000211369
*CONN
*I *2578:A0 I *D sky130_fd_sc_hd__mux2_1
*I *3406:X O *D sky130_fd_sc_hd__dlygate4sd3_1
*CAP
1 *2578:A0 2.75097e-05
2 *3406:X 2.75097e-05
3 *2598:A0 *2578:A0 7.74135e-05
4 *2598:A1 *2578:A0 7.89362e-05
*RES
1 *3406:X *2578:A0 28.6357 
*END

*D_NET *733 0.000725349
*CONN
*I *2996:A0 I *D sky130_fd_sc_hd__mux2_1
*I *3408:X O *D sky130_fd_sc_hd__dlygate4sd3_1
*CAP
1 *2996:A0 6.56492e-05
2 *3408:X 6.56492e-05
3 *2996:A0 *3408:A 0.000313051
4 *2996:A1 *2996:A0 5.49544e-05
5 *419:57 *2996:A0 0.000226046
*RES
1 *3408:X *2996:A0 21.6 
*END

*D_NET *734 0.000959654
*CONN
*I *3102:A0 I *D sky130_fd_sc_hd__mux2_1
*I *3409:X O *D sky130_fd_sc_hd__dlygate4sd3_1
*CAP
1 *3102:A0 0.000309918
2 *3409:X 0.000309918
3 *3102:A0 *2776:A1 0.000103958
4 *3102:A0 *835:8 5.71472e-05
5 *3105:A *3102:A0 7.89362e-05
6 *197:128 *3102:A0 8.93793e-05
7 *518:10 *3102:A0 1.03968e-05
*RES
1 *3409:X *3102:A0 32.8321 
*END

*D_NET *735 0.000609171
*CONN
*I *2600:A0 I *D sky130_fd_sc_hd__mux2_1
*I *3410:X O *D sky130_fd_sc_hd__dlygate4sd3_1
*CAP
1 *2600:A0 0.00020612
2 *3410:X 0.00020612
3 *2578:S *2600:A0 7.83659e-05
4 *2600:S *2600:A0 2.89114e-05
5 *350:120 *2600:A0 3.92854e-05
6 *358:30 *2600:A0 3.47797e-05
7 *358:36 *2600:A0 1.55885e-05
*RES
1 *3410:X *2600:A0 30.8143 
*END

*D_NET *736 0.000326761
*CONN
*I *2900:A0 I *D sky130_fd_sc_hd__mux2_1
*I *3411:X O *D sky130_fd_sc_hd__dlygate4sd3_1
*CAP
1 *2900:A0 0.000122591
2 *3411:X 0.000122591
3 *2900:A1 *2900:A0 5.71472e-05
4 *2900:S *2900:A0 2.44318e-05
*RES
1 *3411:X *2900:A0 20.7786 
*END

*D_NET *737 0.0224616
*CONN
*I *3469:A I *D sky130_fd_sc_hd__clkbuf_2
*I *2810:B1 I *D sky130_fd_sc_hd__a221o_1
*I *2731:A2 I *D sky130_fd_sc_hd__a22o_1
*I *3470:X O *D sky130_fd_sc_hd__clkbuf_2
*CAP
1 *3469:A 8.95811e-05
2 *2810:B1 4.54885e-05
3 *2731:A2 0.000365113
4 *3470:X 0.00249789
5 *737:46 0.00259864
6 *737:34 0.00402614
7 *737:24 0.00442557
8 *2731:A2 *2731:A1 9.75679e-05
9 *2810:B1 *2810:A1 6.05161e-06
10 *2810:B1 *2810:B2 5.7661e-06
11 *3469:A *3457:A 3.26517e-05
12 *737:24 *759:12 0.000284403
13 *737:34 *2756:A 7.80622e-05
14 *737:34 *2784:A 0.000105696
15 *737:34 *3379:A 0.000125724
16 *737:34 *748:14 0
17 *737:34 *759:12 9.92439e-06
18 *737:34 *759:34 0
19 *737:34 *893:35 0
20 *737:46 *3351:A 2.88136e-05
21 *737:46 *3361:A 0.000246787
22 *2567:A *737:34 4.10253e-05
23 *2595:A1 *737:34 2.57438e-05
24 *2595:S *737:34 9.87489e-05
25 *2709:A3 *737:34 1.05521e-05
26 *2713:C *737:34 0.000222835
27 *2809:B1 *2731:A2 2.16663e-05
28 *2811:A2 *737:34 2.88424e-05
29 *2811:B1 *737:34 0.000281622
30 *2812:C1 *737:34 8.00806e-05
31 *2945:A *737:46 0.000265441
32 *2962:A0 *2810:B1 5.7661e-06
33 *2963:A *2731:A2 0.000139344
34 *3124:A *737:34 0
35 *3166:CLK *737:34 4.25809e-05
36 *3166:D *737:46 4.1575e-05
37 *3233:D *737:34 0.00037275
38 *3466:A *737:24 1.94945e-05
39 *3466:A *737:34 0.000121645
40 *174:61 *737:34 0
41 *202:14 *737:34 0
42 *211:47 *2731:A2 0.000146611
43 *215:86 *737:34 9.02029e-05
44 *215:130 *737:34 0.000301147
45 *222:26 *737:24 0
46 *231:98 *737:34 4.27023e-05
47 *291:28 *737:34 0
48 *300:20 *2731:A2 0.000137983
49 *359:96 *2810:B1 5.33005e-05
50 *359:111 *2731:A2 0.000412348
51 *359:111 *737:46 2.24646e-05
52 *359:119 *2731:A2 3.54498e-05
53 *361:54 *737:34 4.48597e-05
54 *370:16 *737:34 0.000166724
55 *371:57 *737:24 0
56 *403:49 *737:24 2.73698e-05
57 *403:53 *737:34 0.000111788
58 *432:73 *737:24 0.000279643
59 *474:18 *737:24 0
60 *528:18 *737:34 7.83659e-05
61 *590:92 *737:46 0.000562208
62 *590:208 *737:24 0
63 *592:24 *2731:A2 0.00018459
64 *592:24 *737:46 0.000291715
65 *592:26 *2731:A2 0.000187012
66 *592:28 *2731:A2 9.25014e-06
67 *619:62 *737:46 0.000502438
68 *715:30 *737:34 0.00171992
69 *715:47 *737:34 0.000163943
*RES
1 *3470:X *737:24 35.6663 
2 *737:24 *737:34 46.7857 
3 *737:34 *737:46 40.3929 
4 *737:46 *2731:A2 33.175 
5 *737:46 *2810:B1 14.7643 
6 *737:24 *3469:A 15.1571 
*END

*D_NET *738 0.000449316
*CONN
*I *2924:A0 I *D sky130_fd_sc_hd__mux2_1
*I *3412:X O *D sky130_fd_sc_hd__dlygate4sd3_1
*CAP
1 *2924:A0 0.000154123
2 *3412:X 0.000154123
3 *2924:A0 *2812:B2 0
4 *2924:S *2924:A0 5.52238e-05
5 *2925:A *2924:A0 5.7661e-06
6 *388:8 *2924:A0 8.00806e-05
*RES
1 *3412:X *2924:A0 30.6179 
*END

*D_NET *739 0.00042358
*CONN
*I *3118:A1 I *D sky130_fd_sc_hd__mux2_1
*I *3413:X O *D sky130_fd_sc_hd__dlygate4sd3_1
*CAP
1 *3118:A1 0.000103956
2 *3413:X 0.000103956
3 *3118:A1 *828:16 9.80173e-05
4 *500:10 *3118:A1 3.92854e-05
5 *511:100 *3118:A1 7.83659e-05
*RES
1 *3413:X *3118:A1 29.5821 
*END

*D_NET *740 0.00142997
*CONN
*I *3123:A0 I *D sky130_fd_sc_hd__mux2_1
*I *3414:X O *D sky130_fd_sc_hd__dlygate4sd3_1
*CAP
1 *3123:A0 0.00053975
2 *3414:X 0.00053975
3 *3123:A0 *2786:A 9.92545e-05
4 *3123:A1 *3123:A0 1.58163e-05
5 *3123:S *3123:A0 4.58194e-05
6 *3125:A0 *3123:A0 5.49489e-05
7 *3125:S *3123:A0 0.000120628
8 *3126:A *3123:A0 1.40034e-05
*RES
1 *3414:X *3123:A0 24.8857 
*END

*D_NET *741 0.000430148
*CONN
*I *3048:A1 I *D sky130_fd_sc_hd__mux2_1
*I *3415:X O *D sky130_fd_sc_hd__dlygate4sd3_1
*CAP
1 *3048:A1 0.000115142
2 *3415:X 0.000115142
3 *3048:A1 *3415:A 3.11088e-05
4 *3048:A1 *857:12 0.000147784
5 *432:115 *3048:A1 2.09722e-05
*RES
1 *3415:X *3048:A1 30.0821 
*END

*D_NET *742 0.00111798
*CONN
*I *3045:A1 I *D sky130_fd_sc_hd__mux2_1
*I *3416:X O *D sky130_fd_sc_hd__dlygate4sd3_1
*CAP
1 *3045:A1 0.000279548
2 *3416:X 0.000279548
3 *3043:A0 *3045:A1 5.52302e-05
4 *3043:A1 *3045:A1 0.000179326
5 *3043:S *3045:A1 0.000157389
6 *3044:A *3045:A1 9.90431e-05
7 *3055:A0 *3045:A1 6.78942e-05
*RES
1 *3416:X *3045:A1 34.1179 
*END

*D_NET *743 0.000351284
*CONN
*I *2938:A0 I *D sky130_fd_sc_hd__mux2_1
*I *3417:X O *D sky130_fd_sc_hd__dlygate4sd3_1
*CAP
1 *2938:A0 0.000120786
2 *3417:X 0.000120786
3 *2938:A0 *900:12 5.50052e-05
4 *2938:A1 *2938:A0 3.22353e-05
5 *2938:S *2938:A0 2.24718e-05
*RES
1 *3417:X *2938:A0 20.7786 
*END

*D_NET *744 0.00112313
*CONN
*I *3133:A1 I *D sky130_fd_sc_hd__mux2_1
*I *3419:X O *D sky130_fd_sc_hd__dlygate4sd3_1
*CAP
1 *3133:A1 0.000229613
2 *3419:X 0.000229613
3 *3236:D *3133:A1 0.000173021
4 *212:20 *3133:A1 4.15618e-05
5 *432:14 *3133:A1 0.000182811
6 *476:12 *3133:A1 0.000266508
*RES
1 *3419:X *3133:A1 32.8321 
*END

*D_NET *745 0.000420165
*CONN
*I *3061:A0 I *D sky130_fd_sc_hd__mux2_1
*I *3420:X O *D sky130_fd_sc_hd__dlygate4sd3_1
*CAP
1 *3061:A0 5.91849e-05
2 *3420:X 5.91849e-05
3 *3061:A0 *852:10 5.23057e-05
4 *3061:A1 *3061:A0 9.90367e-05
5 *3061:S *3061:A0 5.33334e-05
6 *442:108 *3061:A0 9.71197e-05
*RES
1 *3420:X *3061:A0 20.7786 
*END

*D_NET *746 0.00122639
*CONN
*I *3066:A1 I *D sky130_fd_sc_hd__mux2_1
*I *3421:X O *D sky130_fd_sc_hd__dlygate4sd3_1
*CAP
1 *3066:A1 0.000298788
2 *3421:X 0.000298788
3 *3066:A1 *774:92 4.42291e-05
4 *3068:A1 *3066:A1 0.000226513
5 *3068:S *3066:A1 0.000175251
6 *419:14 *3066:A1 0.000127595
7 *480:14 *3066:A1 5.52302e-05
*RES
1 *3421:X *3066:A1 34.85 
*END

*D_NET *747 0.00109319
*CONN
*I *2842:A0 I *D sky130_fd_sc_hd__mux2_1
*I *3422:X O *D sky130_fd_sc_hd__dlygate4sd3_1
*CAP
1 *2842:A0 0.000370233
2 *3422:X 0.000370233
3 *2842:A0 *922:10 5.71472e-05
4 *2839:A0 *2842:A0 0
5 *2842:S *2842:A0 3.69047e-06
6 *2896:A *2842:A0 0.000126204
7 *2921:A0 *2842:A0 0
8 *3151:CLK *2842:A0 2.49942e-05
9 *187:112 *2842:A0 1.8226e-05
10 *328:20 *2842:A0 7.69776e-06
11 *328:30 *2842:A0 1.83053e-05
12 *345:79 *2842:A0 9.64609e-05
*RES
1 *3422:X *2842:A0 34.4214 
*END

*D_NET *748 0.0145174
*CONN
*I *2773:B I *D sky130_fd_sc_hd__and3_1
*I *2711:B I *D sky130_fd_sc_hd__and3_1
*I *2804:A2 I *D sky130_fd_sc_hd__a21o_1
*I *3471:X O *D sky130_fd_sc_hd__clkbuf_2
*CAP
1 *2773:B 0
2 *2711:B 0.00013398
3 *2804:A2 0
4 *3471:X 0.00230946
5 *748:39 0.000492815
6 *748:24 0.00178394
7 *748:14 0.00445224
8 *748:24 *2805:B2 0
9 *2587:A *748:24 0
10 *2611:A *748:24 2.59355e-05
11 *2711:C *2711:B 7.62712e-05
12 *2712:B1 *748:39 7.62712e-05
13 *2713:C *748:14 7.23307e-05
14 *2718:A2 *2711:B 1.58163e-05
15 *2718:A2 *748:39 7.65779e-05
16 *3010:A1 *748:24 0
17 *3112:S *748:24 7.56549e-05
18 *3112:S *748:39 2.86273e-05
19 *3115:A *2711:B 5.71472e-05
20 *3188:D *748:24 6.19181e-05
21 *3189:D *748:24 0.000150625
22 *3227:D *748:24 0
23 *3260:D *748:24 4.13573e-05
24 *3261:D *748:24 0.000150611
25 *3263:CLK *748:24 6.05161e-06
26 *202:14 *748:14 0
27 *235:20 *748:24 0
28 *285:22 *748:39 7.47072e-05
29 *316:70 *748:24 0
30 *316:72 *748:24 0
31 *316:78 *748:24 0
32 *328:44 *748:24 1.33343e-05
33 *350:93 *748:24 0.000338995
34 *358:96 *748:24 0.000376921
35 *358:96 *748:39 0.000101091
36 *358:114 *748:39 9.24072e-05
37 *399:34 *748:39 0
38 *399:73 *748:24 0.000695895
39 *407:20 *748:14 0.000990822
40 *476:98 *2711:B 0
41 *500:131 *748:14 0.000909058
42 *527:40 *748:24 0.000191575
43 *527:89 *748:24 0.00011764
44 *599:10 *748:24 0.00035838
45 *599:12 *748:24 0.000168939
46 *737:34 *748:14 0
*RES
1 *3471:X *748:14 29.9349 
2 *748:14 *748:24 45.2411 
3 *748:24 *2804:A2 9.3 
4 *748:14 *748:39 11.2589 
5 *748:39 *2711:B 20.4071 
6 *748:39 *2773:B 9.3 
*END

*D_NET *749 0.000879317
*CONN
*I *2915:A0 I *D sky130_fd_sc_hd__mux2_1
*I *3423:X O *D sky130_fd_sc_hd__dlygate4sd3_1
*CAP
1 *2915:A0 0.000347099
2 *3423:X 0.000347099
3 *2915:A0 *2747:A1 0
4 *2747:B1 *2915:A0 0
5 *174:83 *2915:A0 0.000185118
6 *183:75 *2915:A0 0
*RES
1 *3423:X *2915:A0 33.1357 
*END

*D_NET *750 0.000439561
*CONN
*I *2942:A1 I *D sky130_fd_sc_hd__mux2_1
*I *3424:X O *D sky130_fd_sc_hd__dlygate4sd3_1
*CAP
1 *2942:A1 0.00012843
2 *3424:X 0.00012843
3 *2942:A1 *2812:A1 0.0001827
*RES
1 *3424:X *2942:A1 20.3679 
*END

*D_NET *751 0.000279728
*CONN
*I *2991:A1 I *D sky130_fd_sc_hd__mux2_1
*I *3425:X O *D sky130_fd_sc_hd__dlygate4sd3_1
*CAP
1 *2991:A1 9.72977e-05
2 *3425:X 9.72977e-05
3 *2991:A1 *2717:B2 7.16452e-05
4 *197:108 *2991:A1 7.43578e-06
5 *208:139 *2991:A1 6.05161e-06
*RES
1 *3425:X *2991:A1 20.3679 
*END

*D_NET *752 0.000672734
*CONN
*I *3078:A1 I *D sky130_fd_sc_hd__mux2_1
*I *3426:X O *D sky130_fd_sc_hd__dlygate4sd3_1
*CAP
1 *3078:A1 0.000255448
2 *3426:X 0.000255448
3 *3073:A0 *3078:A1 7.83659e-05
4 *3078:S *3078:A1 2.97137e-05
5 *442:108 *3078:A1 5.37583e-05
*RES
1 *3426:X *3078:A1 31.5464 
*END

*D_NET *753 0.000367859
*CONN
*I *3033:A1 I *D sky130_fd_sc_hd__mux2_1
*I *3427:X O *D sky130_fd_sc_hd__dlygate4sd3_1
*CAP
1 *3033:A1 0.000109788
2 *3427:X 0.000109788
3 *3022:B *3033:A1 2.27416e-05
4 *453:12 *3033:A1 0.000125542
*RES
1 *3427:X *3033:A1 29.7786 
*END

*D_NET *754 0.000490044
*CONN
*I *3107:A0 I *D sky130_fd_sc_hd__mux2_1
*I *3428:X O *D sky130_fd_sc_hd__dlygate4sd3_1
*CAP
1 *3107:A0 6.20138e-05
2 *3428:X 6.20138e-05
3 *3107:S *3107:A0 9.60939e-05
4 *192:36 *3107:A0 3.30309e-05
5 *350:83 *3107:A0 0.000179745
6 *350:85 *3107:A0 5.71472e-05
*RES
1 *3428:X *3107:A0 20.7786 
*END

*D_NET *755 0.000329612
*CONN
*I *2588:A1 I *D sky130_fd_sc_hd__mux2_1
*I *3430:X O *D sky130_fd_sc_hd__dlygate4sd3_1
*CAP
1 *2588:A1 0.000128821
2 *3430:X 0.000128821
3 *2588:A1 *931:8 2.65105e-05
4 *2588:S *2588:A1 3.30237e-05
5 *2801:A2 *2588:A1 1.24368e-05
*RES
1 *3430:X *2588:A1 20.3679 
*END

*D_NET *756 0.00101138
*CONN
*I *3063:A0 I *D sky130_fd_sc_hd__mux2_1
*I *3431:X O *D sky130_fd_sc_hd__dlygate4sd3_1
*CAP
1 *3063:A0 0.00043538
2 *3431:X 0.00043538
3 *3062:A *3063:A0 7.10442e-05
4 *3063:A1 *3063:A0 6.95767e-05
5 *442:77 *3063:A0 0
*RES
1 *3431:X *3063:A0 34.1893 
*END

*D_NET *757 0.00118312
*CONN
*I *2903:A0 I *D sky130_fd_sc_hd__mux2_1
*I *3432:X O *D sky130_fd_sc_hd__dlygate4sd3_1
*CAP
1 *2903:A0 0.000347542
2 *3432:X 0.000347542
3 *2903:A0 *2815:B2 0.000150857
4 *2903:A0 *3432:A 5.52302e-05
5 *2901:A *2903:A0 0.000181796
6 *2926:A1 *2903:A0 0.000100152
*RES
1 *3432:X *2903:A0 34.4929 
*END

*D_NET *758 0.00055584
*CONN
*I *3055:A1 I *D sky130_fd_sc_hd__mux2_1
*I *3433:X O *D sky130_fd_sc_hd__dlygate4sd3_1
*CAP
1 *3055:A1 0.000268767
2 *3433:X 0.000268767
3 *3055:A1 *3433:A 0
4 *3055:S *3055:A1 1.83053e-05
*RES
1 *3433:X *3055:A1 30.8143 
*END

*D_NET *759 0.0162578
*CONN
*I *3471:A I *D sky130_fd_sc_hd__clkbuf_2
*I *2760:A2 I *D sky130_fd_sc_hd__a311o_1
*I *2736:A2 I *D sky130_fd_sc_hd__a22o_1
*I *2812:A2 I *D sky130_fd_sc_hd__a221o_1
*I *3472:X O *D sky130_fd_sc_hd__clkbuf_2
*CAP
1 *3471:A 0
2 *2760:A2 0
3 *2736:A2 0.000122213
4 *2812:A2 1.73328e-05
5 *3472:X 0.00103927
6 *759:34 0.000599081
7 *759:28 0.000546323
8 *759:22 0.00160717
9 *759:12 0.00255965
10 *2736:A2 *2736:B2 2.8266e-06
11 *2736:A2 *2812:A1 0.000173182
12 *2812:A2 *2812:A1 0.000122168
13 *759:12 *2771:A 0.000168242
14 *759:12 *3457:A 5.8996e-05
15 *759:22 *2751:A 5.4826e-05
16 *759:22 *824:10 6.57491e-05
17 *759:34 *893:35 0.000101341
18 *2690:B *759:12 0.000146474
19 *2713:C *759:12 0.000121897
20 *2751:B *759:22 7.6644e-05
21 *2761:C *759:22 0.000256293
22 *2761:D *759:22 0.000288813
23 *2812:C1 *759:34 0
24 *2816:A *2736:A2 0
25 *2905:A *759:12 0.000201887
26 *2943:A *759:34 2.56601e-05
27 *2945:A *759:34 8.79776e-05
28 *2997:A *759:22 5.73256e-05
29 *2999:A *759:22 1.69115e-05
30 *3015:A0 *759:12 7.13188e-05
31 *3015:A1 *759:12 6.02129e-05
32 *3125:A0 *759:22 0.000349772
33 *3133:S *759:22 4.37645e-05
34 *3166:CLK *759:34 0.000168939
35 *3167:D *759:34 0.000188967
36 *3184:D *759:22 1.02433e-05
37 *3190:D *759:12 0.000393727
38 *3466:A *759:12 2.50936e-05
39 *174:43 *759:28 0.000116049
40 *174:61 *759:28 2.59355e-05
41 *176:54 *759:12 1.47872e-05
42 *176:54 *759:22 0.000219366
43 *182:10 *759:12 0.00054712
44 *187:64 *759:22 5.15632e-05
45 *187:96 *759:22 0.000204933
46 *192:22 *759:22 3.67452e-05
47 *194:26 *759:12 5.33005e-05
48 *194:26 *759:22 6.79145e-05
49 *202:8 *759:12 0
50 *212:42 *759:22 0
51 *218:108 *759:22 0.000130596
52 *231:116 *759:34 0
53 *245:14 *759:22 0.00162407
54 *291:28 *759:34 9.97552e-05
55 *317:66 *759:12 1.81805e-05
56 *351:114 *2736:A2 0.000184745
57 *351:114 *2812:A2 0.000120521
58 *351:114 *759:34 0
59 *359:12 *759:28 0.000268403
60 *372:14 *2736:A2 0.00017309
61 *372:14 *759:22 0.000148712
62 *372:14 *759:34 0
63 *432:14 *759:22 3.95221e-05
64 *432:46 *759:12 0.000204941
65 *432:73 *759:12 0.000717113
66 *590:157 *759:22 0.000101167
67 *619:14 *759:22 0.000615908
68 *715:30 *759:22 0.00034875
69 *737:24 *759:12 0.000284403
70 *737:34 *759:12 9.92439e-06
71 *737:34 *759:34 0
*RES
1 *3472:X *759:12 47.4964 
2 *759:12 *759:22 47.4821 
3 *759:22 *759:28 7.51786 
4 *759:28 *759:34 18.5357 
5 *759:34 *2812:A2 10.4518 
6 *759:34 *2736:A2 22.3179 
7 *759:28 *2760:A2 9.3 
8 *759:12 *3471:A 9.3 
*END

*D_NET *760 0.00151076
*CONN
*I *3023:A0 I *D sky130_fd_sc_hd__mux2_1
*I *3434:X O *D sky130_fd_sc_hd__dlygate4sd3_1
*CAP
1 *3023:A0 0.00026319
2 *3434:X 0.00026319
3 *3023:A0 *3434:A 9.10431e-06
4 *3024:A *3023:A0 0
5 *3025:A0 *3023:A0 0.000170532
6 *3025:S *3023:A0 5.49367e-05
7 *3031:A *3023:A0 0.000581568
8 *3197:D *3023:A0 0.000139907
9 *442:108 *3023:A0 1.00887e-05
10 *445:106 *3023:A0 1.82462e-05
*RES
1 *3434:X *3023:A0 36.3679 
*END

*D_NET *761 0.001219
*CONN
*I *2892:A1 I *D sky130_fd_sc_hd__mux2_1
*I *3435:X O *D sky130_fd_sc_hd__dlygate4sd3_1
*CAP
1 *2892:A1 0.000328845
2 *3435:X 0.000328845
3 *2892:A1 *2812:B2 3.92854e-05
4 *2816:A *2892:A1 7.83659e-05
5 *325:32 *2892:A1 0.00044366
*RES
1 *3435:X *2892:A1 32.8679 
*END

*D_NET *762 0.00160201
*CONN
*I *3028:A0 I *D sky130_fd_sc_hd__mux2_1
*I *3436:X O *D sky130_fd_sc_hd__dlygate4sd3_1
*CAP
1 *3028:A0 0.000498291
2 *3436:X 0.000498291
3 *3028:A0 *2698:A1 0.000291682
4 *3028:A0 *3320:A 0
5 *3028:A0 *3436:A 0.000159811
6 *3030:A0 *3028:A0 0
7 *604:126 *3028:A0 2.84109e-05
8 *604:143 *3028:A0 0.000125524
*RES
1 *3436:X *3028:A0 36.6179 
*END

*D_NET *763 0.000707394
*CONN
*I *2913:A0 I *D sky130_fd_sc_hd__mux2_1
*I *3437:X O *D sky130_fd_sc_hd__dlygate4sd3_1
*CAP
1 *2913:A0 0.000204758
2 *3437:X 0.000204758
3 *316:60 *2913:A0 0.000222686
4 *365:22 *2913:A0 3.75959e-05
5 *391:43 *2913:A0 3.75959e-05
*RES
1 *3437:X *2913:A0 30.8143 
*END

*D_NET *764 0.00124803
*CONN
*I *3076:A1 I *D sky130_fd_sc_hd__mux2_1
*I *3438:X O *D sky130_fd_sc_hd__dlygate4sd3_1
*CAP
1 *3076:A1 0.000268743
2 *3438:X 0.000268743
3 *2743:B1 *3076:A1 0.000114986
4 *3077:A *3076:A1 0.000266085
5 *3214:D *3076:A1 0.000150625
6 *215:38 *3076:A1 0.000178847
*RES
1 *3438:X *3076:A1 33.3679 
*END

*D_NET *765 0.000313844
*CONN
*I *2560:A1 I *D sky130_fd_sc_hd__mux2_1
*I *3439:X O *D sky130_fd_sc_hd__dlygate4sd3_1
*CAP
1 *2560:A1 4.29987e-05
2 *3439:X 4.29987e-05
3 *2560:A1 *2724:A1 4.72917e-05
4 *2560:A0 *2560:A1 9.83388e-05
5 *2560:S *2560:A1 5.33433e-05
6 *511:55 *2560:A1 2.88725e-05
*RES
1 *3439:X *2560:A1 20.3679 
*END

*D_NET *766 0.000363981
*CONN
*I *2570:A1 I *D sky130_fd_sc_hd__mux2_1
*I *3441:X O *D sky130_fd_sc_hd__dlygate4sd3_1
*CAP
1 *2570:A1 5.37919e-05
2 *3441:X 5.37919e-05
3 *2570:A1 *812:8 6.19652e-05
4 *2570:A0 *2570:A1 5.52238e-05
5 *500:54 *2570:A1 0.000139208
*RES
1 *3441:X *2570:A1 20.3679 
*END

*D_NET *767 0.000439583
*CONN
*I *2558:A1 I *D sky130_fd_sc_hd__mux2_1
*I *3442:X O *D sky130_fd_sc_hd__dlygate4sd3_1
*CAP
1 *2558:A1 0.000128445
2 *3442:X 0.000128445
3 *511:30 *2558:A1 0.000182694
*RES
1 *3442:X *2558:A1 20.3679 
*END

*D_NET *768 0.000799579
*CONN
*I *2993:A1 I *D sky130_fd_sc_hd__mux2_1
*I *3443:X O *D sky130_fd_sc_hd__dlygate4sd3_1
*CAP
1 *2993:A1 0.000146445
2 *3443:X 0.000146445
3 *2993:A1 *2775:B2 0.000127446
4 *2993:A1 *3443:A 0.00020455
5 *2993:S *2993:A1 5.52302e-05
6 *3186:D *2993:A1 6.42338e-05
7 *181:134 *2993:A1 0
8 *604:14 *2993:A1 5.52302e-05
*RES
1 *3443:X *2993:A1 32.2071 
*END

*D_NET *769 0.000608612
*CONN
*I *2575:A1 I *D sky130_fd_sc_hd__mux2_1
*I *3444:X O *D sky130_fd_sc_hd__dlygate4sd3_1
*CAP
1 *2575:A1 0.000253895
2 *3444:X 0.000253895
3 *2573:A0 *2575:A1 0
4 *2573:S *2575:A1 0.000100823
5 *358:36 *2575:A1 0
*RES
1 *3444:X *2575:A1 31.6 
*END

*D_NET *770 0.00502232
*CONN
*I *3385:A I *D sky130_fd_sc_hd__dlygate4sd3_1
*I *2822:A I *D sky130_fd_sc_hd__and4_1
*I *2830:A I *D sky130_fd_sc_hd__buf_2
*I *2873:A I *D sky130_fd_sc_hd__or2b_1
*I *3138:Q O *D sky130_fd_sc_hd__dfrtp_1
*CAP
1 *3385:A 0.00023133
2 *2822:A 0
3 *2830:A 0
4 *2873:A 0.00046888
5 *3138:Q 4.41446e-05
6 *770:38 0.000309803
7 *770:14 0.00118738
8 *770:6 0.000841123
9 *2873:A *2964:C 0
10 *2873:A *772:48 0.000161937
11 *2873:A *773:39 0.000350124
12 *3385:A *3418:A 0.000119681
13 *3385:A *772:12 2.83916e-05
14 *770:14 *772:48 1.3701e-05
15 *770:38 *772:12 1.00375e-05
16 *770:38 *773:14 7.2754e-05
17 *2859:A *770:14 0.000367031
18 *2862:A *2873:A 9.09049e-05
19 *3138:CLK *770:14 5.72123e-05
20 *3274:CLK *3385:A 0.000180398
21 *3274:CLK *770:38 8.91726e-05
22 *3274:D *3385:A 0.000128154
23 *318:10 *2873:A 0.000161868
24 *318:10 *770:14 7.48301e-06
25 *607:22 *2873:A 0.000100802
*RES
1 *3138:Q *770:6 9.83571 
2 *770:6 *770:14 10.4464 
3 *770:14 *2873:A 29.1036 
4 *770:14 *2830:A 9.3 
5 *770:6 *770:38 6.75 
6 *770:38 *2822:A 13.8 
7 *770:38 *3385:A 20.6036 
*END

*D_NET *771 0.00343265
*CONN
*I *3317:A I *D sky130_fd_sc_hd__dlygate4sd3_1
*I *2822:B I *D sky130_fd_sc_hd__and4_1
*I *2831:A I *D sky130_fd_sc_hd__clkbuf_2
*I *3139:Q O *D sky130_fd_sc_hd__dfrtp_1
*CAP
1 *3317:A 0.000511826
2 *2822:B 0
3 *2831:A 0.000725129
4 *3139:Q 0
5 *771:19 0.000616313
6 *771:4 0.000829617
7 *2831:A *2822:C 2.89114e-05
8 *2831:A *773:18 0.000265139
9 *2831:A *773:24 5.30637e-06
10 *3317:A *2822:C 2.28598e-05
11 *3317:A *2822:D 5.19842e-06
12 *771:19 *2822:C 6.57914e-05
13 *3139:CLK *2831:A 2.59355e-05
14 *3139:D *2831:A 5.71472e-05
15 *3139:RESET_B *2831:A 8.94268e-05
16 *211:10 *2831:A 0.000102545
17 *312:10 *3317:A 3.13838e-05
18 *595:36 *2831:A 5.01213e-05
*RES
1 *3139:Q *771:4 9.3 
2 *771:4 *2831:A 28.8 
3 *771:4 *771:19 1.35714 
4 *771:19 *2822:B 9.3 
5 *771:19 *3317:A 24.9964 
*END

*D_NET *772 0.0115751
*CONN
*I *3418:A I *D sky130_fd_sc_hd__dlygate4sd3_1
*I *2822:D I *D sky130_fd_sc_hd__and4_1
*I *2917:C I *D sky130_fd_sc_hd__or4b_2
*I *2874:B I *D sky130_fd_sc_hd__nand2_1
*I *2861:C_N I *D sky130_fd_sc_hd__or3b_1
*I *2940:D_N I *D sky130_fd_sc_hd__or4b_4
*I *2832:C I *D sky130_fd_sc_hd__and3_1
*I *2856:A I *D sky130_fd_sc_hd__buf_2
*I *3140:Q O *D sky130_fd_sc_hd__dfrtp_2
*CAP
1 *3418:A 0.000329249
2 *2822:D 0.000288866
3 *2917:C 8.31978e-05
4 *2874:B 0.000130016
5 *2861:C_N 2.46213e-05
6 *2940:D_N 0
7 *2832:C 9.62809e-05
8 *2856:A 0.000206065
9 *3140:Q 0.000196738
10 *772:82 0.00031694
11 *772:67 0.000437731
12 *772:48 0.00085022
13 *772:20 0.000377813
14 *772:18 0.00133943
15 *772:12 0.00113496
16 *772:8 0.000648955
17 *2822:D *2822:C 7.47452e-05
18 *2822:D *773:18 2.59355e-05
19 *2874:B *2874:A 5.52238e-05
20 *2874:B *773:59 9.58181e-05
21 *2917:C *773:59 4.17433e-05
22 *772:12 *773:14 8.08022e-05
23 *772:18 *773:18 0.000467499
24 *772:18 *773:24 4.87953e-05
25 *772:48 *773:39 0.000696172
26 *772:48 *773:41 9.87617e-05
27 *772:67 *2940:C 1.66208e-05
28 *772:67 *773:41 6.24856e-05
29 *772:67 *773:49 0.000194353
30 *772:82 *773:49 1.41918e-05
31 *772:82 *773:59 8.00806e-05
32 *2851:A *2856:A 0.000310307
33 *2861:A *2861:C_N 9.60875e-05
34 *2861:A *772:67 4.25176e-05
35 *2863:A1_N *2856:A 7.16452e-05
36 *2863:B1 *2856:A 0.000136958
37 *2873:A *772:48 0.000161937
38 *2917:A *2917:C 6.46276e-05
39 *2917:B *2917:C 5.65955e-05
40 *2917:B *772:82 1.21436e-05
41 *3047:A *772:67 1.18451e-05
42 *3047:A *772:82 0.000145154
43 *3052:A *772:67 0.000196458
44 *3273:D *3418:A 5.71472e-05
45 *3274:D *3418:A 6.97972e-05
46 *3274:D *772:8 1.36635e-05
47 *3274:RESET_B *3418:A 0
48 *3317:A *2822:D 5.19842e-06
49 *3385:A *3418:A 0.000119681
50 *3385:A *772:12 2.83916e-05
51 *211:10 *2856:A 0.000402609
52 *211:10 *772:18 0.000125724
53 *211:10 *772:20 0.000172375
54 *317:48 *2874:B 2.14757e-05
55 *317:48 *2917:C 1.10868e-05
56 *317:52 *2874:B 3.89749e-05
57 *318:62 *772:67 2.36643e-05
58 *319:10 *2856:A 3.34366e-05
59 *319:10 *772:18 0.000117196
60 *319:10 *772:20 0.000162125
61 *319:12 *2856:A 7.90803e-05
62 *319:44 *2832:C 2.46525e-05
63 *319:128 *2832:C 3.17016e-05
64 *321:22 *2861:C_N 9.60875e-05
65 *321:22 *772:67 9.66977e-05
66 *663:30 *3418:A 0
67 *663:30 *772:12 0
68 *770:14 *772:48 1.3701e-05
69 *770:38 *772:12 1.00375e-05
*RES
1 *3140:Q *772:8 15.9786 
2 *772:8 *772:12 7.05357 
3 *772:12 *772:18 15.3036 
4 *772:18 *772:20 2.25 
5 *772:20 *2856:A 20.4429 
6 *772:20 *2832:C 15.1036 
7 *772:18 *772:48 15.3214 
8 *772:48 *2940:D_N 9.3 
9 *772:48 *772:67 15.4286 
10 *772:67 *2861:C_N 10.2464 
11 *772:67 *772:82 11.6786 
12 *772:82 *2874:B 11.9071 
13 *772:82 *2917:C 11.4964 
14 *772:12 *2822:D 13.3357 
15 *772:8 *3418:A 21.1571 
*END

*D_NET *773 0.00841974
*CONN
*I *2822:C I *D sky130_fd_sc_hd__and4_1
*I *3429:A I *D sky130_fd_sc_hd__dlygate4sd3_1
*I *2964:C I *D sky130_fd_sc_hd__or4_2
*I *2940:C I *D sky130_fd_sc_hd__or4b_4
*I *2861:B I *D sky130_fd_sc_hd__or3b_1
*I *2917:D_N I *D sky130_fd_sc_hd__or4b_2
*I *2874:A I *D sky130_fd_sc_hd__nand2_1
*I *2829:A I *D sky130_fd_sc_hd__buf_2
*I *3141:Q O *D sky130_fd_sc_hd__dfrtp_4
*CAP
1 *2822:C 7.09017e-05
2 *3429:A 0
3 *2964:C 0.000173018
4 *2940:C 7.0568e-05
5 *2861:B 0
6 *2917:D_N 0
7 *2874:A 1.1624e-05
8 *2829:A 0.000120177
9 *3141:Q 0.000388693
10 *773:59 0.000203248
11 *773:49 0.000392482
12 *773:41 0.000360443
13 *773:39 0.000474176
14 *773:24 0.000655526
15 *773:18 0.000569378
16 *773:14 0.000705764
17 *2822:D *2822:C 7.47452e-05
18 *2822:D *773:18 2.59355e-05
19 *2831:A *2822:C 2.89114e-05
20 *2831:A *773:18 0.000265139
21 *2831:A *773:24 5.30637e-06
22 *2833:B *2829:A 5.52302e-05
23 *2850:B1 *773:14 5.29554e-05
24 *2851:B_N *2829:A 4.19624e-06
25 *2854:B2 *773:14 2.19684e-05
26 *2858:A *773:14 0.00020212
27 *2859:A *773:14 0
28 *2873:A *2964:C 0
29 *2873:A *773:39 0.000350124
30 *2874:B *2874:A 5.52238e-05
31 *2874:B *773:59 9.58181e-05
32 *2917:C *773:59 4.17433e-05
33 *2940:B *2940:C 2.32897e-05
34 *2964:D *2964:C 1.21309e-05
35 *3047:A *773:59 2.97114e-05
36 *3139:CLK *773:18 5.33005e-05
37 *3139:D *773:18 3.18676e-05
38 *3139:RESET_B *773:18 4.96254e-05
39 *3274:CLK *773:14 0
40 *3276:CLK *773:24 0
41 *3276:D *773:24 3.67257e-05
42 *3317:A *2822:C 2.28598e-05
43 *215:68 *2829:A 0.000193675
44 *215:68 *773:24 0.000114759
45 *317:48 *2874:A 5.52238e-05
46 *317:48 *773:59 0.000126771
47 *318:10 *2829:A 3.45321e-05
48 *318:50 *2964:C 2.05695e-05
49 *318:62 *773:49 5.47001e-05
50 *318:62 *773:59 5.47047e-05
51 *318:84 *773:49 1.88177e-05
52 *319:10 *2829:A 0
53 *319:10 *773:24 0
54 *319:44 *2829:A 5.33005e-05
55 *340:41 *773:59 0
56 *415:27 *2964:C 5.94507e-05
57 *607:22 *2964:C 0
58 *770:38 *773:14 7.2754e-05
59 *771:19 *2822:C 6.57914e-05
60 *772:12 *773:14 8.08022e-05
61 *772:18 *773:18 0.000467499
62 *772:18 *773:24 4.87953e-05
63 *772:48 *773:39 0.000696172
64 *772:48 *773:41 9.87617e-05
65 *772:67 *2940:C 1.66208e-05
66 *772:67 *773:41 6.24856e-05
67 *772:67 *773:49 0.000194353
68 *772:82 *773:49 1.41918e-05
69 *772:82 *773:59 8.00806e-05
*RES
1 *3141:Q *773:14 26.3714 
2 *773:14 *773:18 9.17857 
3 *773:18 *773:24 10.5714 
4 *773:24 *2829:A 16.8893 
5 *773:24 *773:39 11.1964 
6 *773:39 *773:41 2.17857 
7 *773:41 *773:49 13 
8 *773:49 *773:59 12.8393 
9 *773:59 *2874:A 9.83571 
10 *773:59 *2917:D_N 9.3 
11 *773:49 *2861:B 9.3 
12 *773:41 *2940:C 10.6929 
13 *773:39 *2964:C 21.8179 
14 *773:18 *3429:A 9.3 
15 *773:14 *2822:C 11.4786 
*END

*D_NET *774 0.0155696
*CONN
*I *2970:A_N I *D sky130_fd_sc_hd__nand3b_4
*I *3057:C I *D sky130_fd_sc_hd__nand3b_4
*I *2834:A I *D sky130_fd_sc_hd__nand3_4
*I *2555:A I *D sky130_fd_sc_hd__or3b_4
*I *2846:A I *D sky130_fd_sc_hd__nand2_1
*I *2865:B1 I *D sky130_fd_sc_hd__a21o_1
*I *2823:A I *D sky130_fd_sc_hd__and4_1
*I *3318:A I *D sky130_fd_sc_hd__dlygate4sd3_1
*I *3142:Q O *D sky130_fd_sc_hd__dfrtp_4
*CAP
1 *2970:A_N 0
2 *3057:C 2.69023e-05
3 *2834:A 8.78645e-05
4 *2555:A 6.24823e-05
5 *2846:A 0
6 *2865:B1 0.00026991
7 *2823:A 7.07641e-05
8 *3318:A 0.000515046
9 *3142:Q 0.000263502
10 *774:124 0.000323293
11 *774:92 0.00127046
12 *774:76 0.00225766
13 *774:48 0.00157426
14 *774:12 0.000811225
15 *774:10 0.000952119
16 *2555:A *2555:B 9.41642e-05
17 *2823:A *780:20 5.49489e-05
18 *2834:A *2834:B 8.91726e-05
19 *2834:A *775:61 1.52978e-05
20 *3057:C *775:57 0.000185403
21 *3318:A *2642:A1 0.000140088
22 *3318:A *2821:B 0.000139208
23 *3318:A *779:14 1.19309e-05
24 *3318:A *780:12 4.2453e-05
25 *3318:A *780:30 5.49544e-05
26 *3318:A *780:37 0.000271302
27 *774:76 *3421:A 0.000141941
28 *774:92 *2699:B 5.56943e-05
29 *774:92 *2739:A 0.000317082
30 *774:92 *2739:B 4.59075e-05
31 *774:92 *2781:A 0.000410604
32 *774:92 *3376:A 0.00012401
33 *774:92 *803:8 0
34 *774:92 *803:10 1.33343e-05
35 *774:124 *775:51 4.17702e-05
36 *774:124 *775:57 0.000267143
37 *2643:A2 *3318:A 0.00017309
38 *2783:A *2834:A 0.000150625
39 *2825:A *3318:A 5.01297e-05
40 *2826:A *3318:A 9.74665e-05
41 *2844:B *2823:A 4.60235e-05
42 *2846:B *774:76 5.33005e-05
43 *2864:A1 *774:76 9.84673e-05
44 *2864:B1_N *774:76 9.84729e-05
45 *2867:A *2865:B1 0.000267137
46 *2987:A1 *774:92 0.000127019
47 *2987:S *774:92 0.000218777
48 *3057:B *3057:C 0.000185403
49 *3057:B *774:124 9.67754e-05
50 *3066:A1 *774:92 4.42291e-05
51 *3316:A *2865:B1 0.000184503
52 *159:20 *3318:A 6.0038e-05
53 *176:8 *774:92 2.08887e-05
54 *211:10 *774:124 2.71964e-05
55 *231:14 *2555:A 0.000220937
56 *231:14 *774:92 0.000351156
57 *310:12 *3318:A 1.10868e-05
58 *310:14 *3318:A 1.69142e-05
59 *310:57 *3318:A 0
60 *312:27 *2865:B1 0.00053495
61 *323:54 *774:92 0
62 *330:18 *2823:A 9.83388e-05
63 *330:18 *774:12 0.000176226
64 *332:8 *774:76 3.37161e-05
65 *337:16 *774:48 9.21413e-05
66 *337:16 *774:76 9.86486e-06
67 *415:50 *2834:A 1.69115e-05
68 *419:14 *774:92 5.80217e-05
69 *419:14 *774:124 5.36422e-05
70 *596:44 *3318:A 0.000150625
71 *597:8 *774:76 9.84729e-05
72 *652:23 *2555:A 6.59107e-05
73 *652:23 *774:92 0.000132967
74 *674:10 *2865:B1 0.000211061
75 *674:16 *2865:B1 0.000164538
76 *674:20 *2865:B1 7.06453e-05
*RES
1 *3142:Q *774:10 17.925 
2 *774:10 *774:12 4.67857 
3 *774:12 *3318:A 35.175 
4 *774:12 *2823:A 15.5679 
5 *774:10 *774:48 12.0179 
6 *774:48 *2865:B1 27.9964 
7 *774:48 *2846:A 9.3 
8 *774:48 *774:76 19.5714 
9 *774:76 *774:92 31 
10 *774:92 *2555:A 11.4786 
11 *774:92 *2834:A 20.8536 
12 *774:76 *774:124 19 
13 *774:124 *3057:C 11.0679 
14 *774:124 *2970:A_N 9.3 
*END

*D_NET *775 0.0132977
*CONN
*I *2868:A I *D sky130_fd_sc_hd__or2_1
*I *2970:B I *D sky130_fd_sc_hd__nand3b_4
*I *2869:B2 I *D sky130_fd_sc_hd__a2bb2o_1
*I *3057:A_N I *D sky130_fd_sc_hd__nand3b_4
*I *2555:B I *D sky130_fd_sc_hd__or3b_4
*I *2834:B I *D sky130_fd_sc_hd__nand3_4
*I *2823:B I *D sky130_fd_sc_hd__and4_1
*I *2845:A I *D sky130_fd_sc_hd__inv_2
*I *3329:A I *D sky130_fd_sc_hd__dlygate4sd3_1
*I *3143:Q O *D sky130_fd_sc_hd__dfrtp_4
*CAP
1 *2868:A 0
2 *2970:B 0
3 *2869:B2 0.000385648
4 *3057:A_N 0
5 *2555:B 2.99504e-05
6 *2834:B 0.000183106
7 *2823:B 0
8 *2845:A 0.000114735
9 *3329:A 0
10 *3143:Q 0.0001389
11 *775:92 0.000405472
12 *775:61 0.00081648
13 *775:57 0.00102237
14 *775:51 0.000945186
15 *775:49 0.00126899
16 *775:21 0.000193475
17 *775:14 0.000355227
18 *775:8 0.00117796
19 *2845:A *2852:A 0.000123359
20 *2845:A *780:20 9.11048e-06
21 *2555:A *2555:B 9.41642e-05
22 *2783:A *2834:B 1.33343e-05
23 *2783:A *775:61 6.3521e-05
24 *2791:A *775:61 0.000125724
25 *2823:C *775:14 0.00012972
26 *2823:C *775:21 0.000182592
27 *2834:A *2834:B 8.91726e-05
28 *2834:A *775:61 1.52978e-05
29 *2844:B *775:21 9.58181e-05
30 *2847:B1 *775:14 5.33005e-05
31 *2852:B *775:14 0
32 *2853:A *775:51 0.000139338
33 *2853:B *775:51 4.51234e-05
34 *2869:A2_N *775:51 1.16543e-05
35 *2869:B1 *2869:B2 2.11336e-05
36 *2953:B *775:61 0.000128212
37 *2970:C *775:92 3.49456e-06
38 *2983:A *2834:B 8.91204e-05
39 *3057:B *775:51 7.88091e-05
40 *3057:B *775:57 0.000164586
41 *3057:C *775:57 0.000185403
42 *3067:A *775:61 0.000428522
43 *3133:A0 *775:61 0.00014396
44 *3210:CLK *775:57 5.33005e-05
45 *3210:CLK *775:61 0.000146392
46 *3210:D *775:57 5.96516e-05
47 *159:20 *775:14 3.17148e-05
48 *241:32 *2834:B 0
49 *313:10 *775:14 9.93569e-05
50 *313:10 *775:21 2.36643e-05
51 *334:21 *775:49 4.3143e-05
52 *337:16 *775:14 0.000124406
53 *338:10 *775:51 5.93321e-05
54 *361:30 *775:57 0.000180202
55 *361:30 *775:61 0.000391978
56 *361:36 *2834:B 5.83328e-05
57 *361:36 *775:61 1.42117e-05
58 *415:50 *775:61 0
59 *419:8 *775:57 9.84729e-05
60 *419:14 *2869:B2 2.53112e-06
61 *419:136 *2869:B2 6.46925e-05
62 *474:6 *775:57 1.35553e-05
63 *597:45 *775:49 2.28776e-05
64 *607:46 *2834:B 5.41794e-05
65 *607:46 *775:61 0.00118363
66 *652:23 *2555:B 9.41642e-05
67 *663:40 *775:51 2.38501e-05
68 *674:10 *775:8 1.6815e-05
69 *674:16 *775:8 0.000133982
70 *674:20 *775:8 3.57139e-05
71 *674:20 *775:14 0.000486635
72 *774:124 *775:51 4.17702e-05
73 *774:124 *775:57 0.000267143
*RES
1 *3143:Q *775:8 17.1125 
2 *775:8 *775:14 12.6161 
3 *775:14 *3329:A 9.3 
4 *775:14 *775:21 2.17857 
5 *775:21 *2845:A 20.675 
6 *775:21 *2823:B 9.3 
7 *775:8 *775:49 13.1004 
8 *775:49 *775:51 9.16071 
9 *775:51 *775:57 9.71429 
10 *775:57 *775:61 24.0536 
11 *775:61 *2834:B 18.2643 
12 *775:61 *2555:B 14.7464 
13 *775:57 *3057:A_N 9.3 
14 *775:51 *775:92 0.428571 
15 *775:92 *2869:B2 25.1036 
16 *775:92 *2970:B 9.3 
17 *775:49 *2868:A 9.3 
*END

*D_NET *776 0.00424871
*CONN
*I *3369:A I *D sky130_fd_sc_hd__dlygate4sd3_1
*I *2835:D_N I *D sky130_fd_sc_hd__or4b_2
*I *3285:Q O *D sky130_fd_sc_hd__dfrtp_1
*CAP
1 *3369:A 0.000267399
2 *2835:D_N 0.000675366
3 *3285:Q 0.00020312
4 *776:6 0.00114588
5 *2835:D_N *795:62 0
6 *2660:A_N *2835:D_N 0.000197362
7 *2673:B1 *2835:D_N 0.000112813
8 *2677:A *2835:D_N 8.10394e-05
9 *2824:A2 *2835:D_N 0.000136744
10 *2870:B1_N *2835:D_N 0.000235541
11 *159:20 *2835:D_N 0.000915152
12 *159:20 *3369:A 0.000135709
13 *323:10 *2835:D_N 0.00014258
*RES
1 *3285:Q *776:6 11.4786 
2 *776:6 *2835:D_N 38.425 
3 *776:6 *3369:A 22.8179 
*END

*D_NET *777 0.000762193
*CONN
*I *3396:A I *D sky130_fd_sc_hd__dlygate4sd3_1
*I *3144:Q O *D sky130_fd_sc_hd__dfrtp_1
*CAP
1 *3396:A 0.000273291
2 *3144:Q 0.000273291
3 *2677:A *3396:A 0.000215611
*RES
1 *3144:Q *3396:A 32.6357 
*END

*D_NET *778 0.0015641
*CONN
*I *3365:A I *D sky130_fd_sc_hd__dlygate4sd3_1
*I *2820:A I *D sky130_fd_sc_hd__inv_2
*I *3292:Q O *D sky130_fd_sc_hd__dfrtp_1
*CAP
1 *3365:A 0
2 *2820:A 0.000386072
3 *3292:Q 0.000376048
4 *778:10 0.00076212
5 *2643:A2 *2820:A 3.99614e-06
6 *2643:B2 *2820:A 3.99614e-06
7 *2668:B *2820:A 3.18676e-05
8 *3474:A *778:10 0
*RES
1 *3292:Q *778:10 25.1036 
2 *778:10 *2820:A 16.0143 
3 *778:10 *3365:A 9.3 
*END

*D_NET *779 0.002173
*CONN
*I *2642:A1 I *D sky130_fd_sc_hd__o21ai_1
*I *2821:B I *D sky130_fd_sc_hd__or2_1
*I *2825:B I *D sky130_fd_sc_hd__and2_1
*I *3136:Q O *D sky130_fd_sc_hd__dfstp_1
*CAP
1 *2642:A1 0.000491692
2 *2821:B 2.96709e-05
3 *2825:B 0
4 *3136:Q 0.000139872
5 *779:14 5.95348e-05
6 *779:10 0.000661428
7 *2642:A2 *2642:A1 1.58163e-05
8 *2642:B1 *2642:A1 9.24825e-05
9 *2825:A *2821:B 5.49489e-05
10 *3137:RESET_B *779:10 0.00011713
11 *3277:D *2642:A1 1.90111e-05
12 *3318:A *2642:A1 0.000140088
13 *3318:A *2821:B 0.000139208
14 *3318:A *779:14 1.19309e-05
15 *159:20 *779:14 0
16 *310:12 *2821:B 4.73286e-05
17 *310:14 *2642:A1 2.40107e-05
18 *310:57 *779:10 7.54868e-05
19 *310:57 *779:14 5.33614e-05
*RES
1 *3136:Q *779:10 15.9875 
2 *779:10 *779:14 5.23214 
3 *779:14 *2825:B 9.3 
4 *779:14 *2821:B 10.6571 
5 *779:10 *2642:A1 20.4071 
*END

*D_NET *780 0.00340629
*CONN
*I *2844:A I *D sky130_fd_sc_hd__nand2_1
*I *2852:A I *D sky130_fd_sc_hd__and2_1
*I *2668:A I *D sky130_fd_sc_hd__or2_1
*I *3362:A I *D sky130_fd_sc_hd__dlygate4sd3_1
*I *2821:A I *D sky130_fd_sc_hd__or2_1
*I *3137:Q O *D sky130_fd_sc_hd__dfrtp_1
*CAP
1 *2844:A 0
2 *2852:A 8.27665e-05
3 *2668:A 8.0772e-05
4 *3362:A 0
5 *2821:A 0
6 *3137:Q 0.000170169
7 *780:37 0.000268578
8 *780:30 0.000411601
9 *780:20 0.000416392
10 *780:12 0.00028
11 *2643:A2 *780:12 0.000143652
12 *2669:A *2668:A 0.00010096
13 *2823:A *780:20 5.49489e-05
14 *2826:A *780:30 0.000123359
15 *2844:B *780:20 9.66977e-05
16 *2845:A *2852:A 0.000123359
17 *2845:A *780:20 9.11048e-06
18 *2852:B *2852:A 0.000192411
19 *2852:B *780:30 4.60497e-05
20 *3318:A *780:12 4.2453e-05
21 *3318:A *780:30 5.49544e-05
22 *3318:A *780:37 0.000271302
23 *310:12 *780:30 3.08664e-05
24 *310:12 *780:37 0.000204509
25 *310:57 *780:30 0.000201375
*RES
1 *3137:Q *780:12 21.6036 
2 *780:12 *780:20 6.97321 
3 *780:20 *780:30 10.2232 
4 *780:30 *2821:A 9.3 
5 *780:30 *780:37 5.05357 
6 *780:37 *3362:A 9.3 
7 *780:37 *2668:A 11.0679 
8 *780:20 *2852:A 16.5054 
9 *780:12 *2844:A 9.3 
*END

*D_NET *781 0.000895333
*CONN
*I *2646:A1 I *D sky130_fd_sc_hd__a221o_1
*I *3340:A I *D sky130_fd_sc_hd__dlygate4sd3_1
*I *3286:Q O *D sky130_fd_sc_hd__dfrtp_1
*CAP
1 *2646:A1 0
2 *3340:A 0.000126354
3 *3286:Q 0.000176168
4 *781:16 0.000302522
5 *781:16 *2647:A 9.34928e-05
6 *781:16 *787:16 3.57366e-05
7 *2645:A *3340:A 4.46186e-06
8 *2646:A2 *3340:A 9.25014e-06
9 *2646:A2 *781:16 2.46952e-05
10 *2646:B2 *3340:A 4.25716e-05
11 *2648:A1 *3340:A 0
12 *3451:A *781:16 8.00806e-05
*RES
1 *3286:Q *781:16 22.2643 
2 *781:16 *3340:A 20.55 
3 *781:16 *2646:A1 9.3 
*END

*D_NET *782 0.00156595
*CONN
*I *3286:D I *D sky130_fd_sc_hd__dfrtp_1
*I *2654:S I *D sky130_fd_sc_hd__mux2_1
*I *2676:X O *D sky130_fd_sc_hd__clkbuf_1
*CAP
1 *3286:D 5.48085e-05
2 *2654:S 0.000371601
3 *2676:X 4.65315e-05
4 *782:8 0.000472941
5 *2654:S *2654:A0 0.000313051
6 *2654:A1 *2654:S 4.10796e-05
7 *3286:CLK *2654:S 0.000150625
8 *3286:CLK *3286:D 8.86129e-06
9 *3287:D *2654:S 0
10 *630:73 *2654:S 2.90719e-05
11 *630:73 *3286:D 8.25843e-06
12 *630:73 *782:8 6.91157e-05
13 *630:81 *2654:S 0
*RES
1 *2676:X *782:8 14.8357 
2 *782:8 *2654:S 21.5857 
3 *782:8 *3286:D 14.3938 
*END

*D_NET *783 0.00118039
*CONN
*I *2644:A I *D sky130_fd_sc_hd__inv_2
*I *2654:A0 I *D sky130_fd_sc_hd__mux2_1
*I *3293:Q O *D sky130_fd_sc_hd__dfstp_1
*CAP
1 *2644:A 0
2 *2654:A0 0.000113789
3 *3293:Q 0.000178154
4 *783:12 0.000291943
5 *2654:S *2654:A0 0.000313051
6 *2655:A *2654:A0 3.05522e-05
7 *2655:A *783:12 7.83587e-05
8 *3286:CLK *783:12 1.52978e-05
9 *3287:CLK *2654:A0 9.71197e-05
10 *3293:SET_B *783:12 3.71723e-05
11 *592:139 *783:12 2.49484e-05
12 *630:83 *783:12 0
*RES
1 *3293:Q *783:12 21.3982 
2 *783:12 *2654:A0 12.7107 
3 *783:12 *2644:A 9.3 
*END

*D_NET *784 0.000645087
*CONN
*I *2651:B I *D sky130_fd_sc_hd__xnor2_1
*I *3281:Q O *D sky130_fd_sc_hd__dfrtp_1
*CAP
1 *2651:B 0.000167723
2 *3281:Q 0.000167723
3 *2651:B *2650:A 0.000153054
4 *2651:B *2651:A 3.57366e-05
5 *2640:A0 *2651:B 4.46186e-06
6 *2652:A1 *2651:B 0
7 *2652:B1 *2651:B 3.99614e-06
8 *316:22 *2651:B 0
9 *584:12 *2651:B 4.15914e-05
10 *630:12 *2651:B 7.08001e-05
*RES
1 *3281:Q *2651:B 32.1 
*END

*D_NET *785 0.000728554
*CONN
*I *2650:A I *D sky130_fd_sc_hd__inv_2
*I *3280:Q O *D sky130_fd_sc_hd__dfrtp_1
*CAP
1 *2650:A 0.00028775
2 *3280:Q 0.00028775
3 *2651:B *2650:A 0.000153054
4 *3281:RESET_B *2650:A 0
5 *316:22 *2650:A 0
6 *630:12 *2650:A 0
*RES
1 *3280:Q *2650:A 32.9214 
*END

*D_NET *786 0.00140706
*CONN
*I *2672:A I *D sky130_fd_sc_hd__inv_2
*I *2661:A1 I *D sky130_fd_sc_hd__a21o_1
*I *3145:Q O *D sky130_fd_sc_hd__dfrtp_1
*CAP
1 *2672:A 0
2 *2661:A1 0.000154191
3 *3145:Q 0.000235965
4 *786:12 0.000390156
5 *2661:B1 *2661:A1 5.49544e-05
6 *2662:A *786:12 0.000150917
7 *2673:A1 *786:12 0.00014456
8 *2870:A1 *2661:A1 4.29615e-05
9 *2870:A1 *786:12 3.08664e-05
10 *3292:D *786:12 0.000145123
11 *593:95 *786:12 5.7361e-05
*RES
1 *3145:Q *786:12 24.8536 
2 *786:12 *2661:A1 11.9071 
3 *786:12 *2672:A 9.3 
*END

*D_NET *787 0.00126408
*CONN
*I *2647:A I *D sky130_fd_sc_hd__inv_2
*I *2646:B1 I *D sky130_fd_sc_hd__a221o_1
*I *3287:Q O *D sky130_fd_sc_hd__dfrtp_1
*CAP
1 *2647:A 0.000147459
2 *2646:B1 0
3 *3287:Q 0.000261874
4 *787:16 0.000409333
5 *2646:A2 *2647:A 1.46576e-05
6 *2646:A2 *787:16 0
7 *2646:B2 *787:16 1.38106e-05
8 *2646:C1 *787:16 0.000287714
9 *781:16 *2647:A 9.34928e-05
10 *781:16 *787:16 3.57366e-05
*RES
1 *3287:Q *787:16 24.2821 
2 *787:16 *2646:B1 9.3 
3 *787:16 *2647:A 12.3357 
*END

*D_NET *788 0.00110353
*CONN
*I *3289:D I *D sky130_fd_sc_hd__dfrtp_2
*I *2674:X O *D sky130_fd_sc_hd__a31o_1
*CAP
1 *3289:D 0.000294809
2 *2674:X 0.000294809
3 *3289:D *2658:A 6.05161e-06
4 *3289:D *2674:A1 0
5 *3289:D *793:16 4.58194e-05
6 *3289:D *795:12 7.91281e-05
7 *3289:D *795:54 0.000120628
8 *2670:C *3289:D 3.34295e-05
9 *11:29 *3289:D 0.000193118
10 *11:43 *3289:D 3.57366e-05
*RES
1 *2674:X *3289:D 34.2964 
*END

*D_NET *789 0.000606043
*CONN
*I *3290:D I *D sky130_fd_sc_hd__dfrtp_1
*I *2667:X O *D sky130_fd_sc_hd__clkbuf_1
*CAP
1 *3290:D 0.000259195
2 *2667:X 0.000259195
3 *2667:A *3290:D 2.89114e-05
4 *2670:B *3290:D 1.27093e-05
5 *3290:CLK *3290:D 4.60309e-05
*RES
1 *2667:X *3290:D 22.0286 
*END

*D_NET *790 0.000752172
*CONN
*I *3291:D I *D sky130_fd_sc_hd__dfrtp_4
*I *2663:X O *D sky130_fd_sc_hd__a221o_1
*CAP
1 *3291:D 0.000191773
2 *2663:X 0.000191773
3 *3291:D *2657:B 2.41865e-05
4 *3291:D *2675:B 2.89016e-05
5 *3291:D *794:33 7.6644e-05
6 *3291:D *794:46 0.000189448
7 *3289:CLK *3291:D 4.94455e-05
*RES
1 *2663:X *3291:D 31.9036 
*END

*D_NET *791 0.000305635
*CONN
*I *3440:A I *D sky130_fd_sc_hd__dlygate4sd3_1
*I *3272:Q O *D sky130_fd_sc_hd__dfrtp_1
*CAP
1 *3440:A 0.000152817
2 *3272:Q 0.000152817
3 *3272:RESET_B *3440:A 0
*RES
1 *3272:Q *3440:A 29.7786 
*END

*D_NET *792 0.00337225
*CONN
*I *2675:B I *D sky130_fd_sc_hd__and3_1
*I *3372:A I *D sky130_fd_sc_hd__dlygate4sd3_1
*I *2664:A2 I *D sky130_fd_sc_hd__a211oi_1
*I *3284:Q O *D sky130_fd_sc_hd__dfrtp_1
*CAP
1 *2675:B 0.000683239
2 *3372:A 0
3 *2664:A2 0.000174119
4 *3284:Q 0
5 *792:19 0.000749755
6 *792:4 0.000240636
7 *2664:A2 *2664:A1 7.83659e-05
8 *2664:A2 *793:24 0
9 *2664:A2 *795:62 4.1331e-06
10 *2660:A_N *2664:A2 4.06782e-05
11 *2663:A1 *2675:B 1.41106e-05
12 *2663:A2 *2675:B 0.000148631
13 *2675:C *2675:B 2.01728e-05
14 *2676:A *2675:B 0.000508712
15 *2677:A *2664:A2 0
16 *2677:B *2664:A2 0.000123068
17 *2677:B *2675:B 0.000216149
18 *2677:B *792:19 0.000150581
19 *3291:D *2675:B 2.89016e-05
20 *157:27 *2675:B 3.99614e-06
21 *630:54 *2664:A2 0.00010332
22 *630:54 *792:19 8.36861e-05
*RES
1 *3284:Q *792:4 9.3 
2 *792:4 *2664:A2 23.0321 
3 *792:4 *792:19 2.17857 
4 *792:19 *3372:A 9.3 
5 *792:19 *2675:B 20.1393 
*END

*D_NET *793 0.00814156
*CONN
*I *2665:C_N I *D sky130_fd_sc_hd__or3b_2
*I *2656:B I *D sky130_fd_sc_hd__and3b_1
*I *2835:B I *D sky130_fd_sc_hd__or4b_2
*I *2664:A1 I *D sky130_fd_sc_hd__a211oi_1
*I *2657:A I *D sky130_fd_sc_hd__nor2_1
*I *2659:B I *D sky130_fd_sc_hd__and3_1
*I *2660:B_N I *D sky130_fd_sc_hd__and4bb_1
*I *3289:Q O *D sky130_fd_sc_hd__dfrtp_2
*CAP
1 *2665:C_N 4.71444e-05
2 *2656:B 3.82418e-05
3 *2835:B 0
4 *2664:A1 0.000266856
5 *2657:A 0.000383547
6 *2659:B 0
7 *2660:B_N 3.1016e-05
8 *3289:Q 0.000508799
9 *793:67 0.000278116
10 *793:47 0.000531536
11 *793:32 0.000375106
12 *793:24 0.000620631
13 *793:18 0.000526534
14 *793:16 0.000630965
15 *2657:A *2657:B 5.50052e-05
16 *2660:B_N *795:81 5.49544e-05
17 *2665:C_N *2665:B 0.000190666
18 *2665:C_N *795:18 0.000186669
19 *2665:C_N *795:109 8.27532e-05
20 *793:16 *795:16 0
21 *793:16 *795:29 0.000171375
22 *793:16 *795:54 0.000144038
23 *793:18 *2656:A_N 5.71472e-05
24 *793:18 *2665:B 0.00018372
25 *793:18 *794:29 5.33334e-05
26 *793:18 *795:18 4.18895e-05
27 *793:24 *794:29 7.43578e-06
28 *793:47 *2659:A 7.03141e-05
29 *793:47 *795:81 0.000139202
30 *2645:A *793:16 0.000111718
31 *2659:C *793:32 5.93614e-05
32 *2659:C *793:47 8.1273e-05
33 *2660:A_N *2664:A1 4.25523e-05
34 *2660:A_N *793:24 0
35 *2661:B1 *793:47 7.70035e-05
36 *2664:A2 *2664:A1 7.83659e-05
37 *2664:A2 *793:24 0
38 *2664:B1 *2664:A1 0.000307232
39 *2670:C *793:16 4.06875e-05
40 *2671:A *2665:C_N 5.33005e-05
41 *2671:A *793:16 5.52302e-05
42 *2673:A2 *2657:A 0.000469514
43 *2674:B1 *2657:A 3.50746e-05
44 *2676:A *793:16 7.80714e-06
45 *2677:A *793:32 0.000147725
46 *2677:B *793:24 2.42564e-05
47 *3289:D *793:16 4.58194e-05
48 *10:29 *2657:A 5.79714e-05
49 *11:29 *793:16 0.000145753
50 *11:43 *793:24 0.000148449
51 *163:18 *793:18 2.9911e-05
52 *163:18 *793:24 0.000357851
53 *163:32 *793:24 8.7707e-05
*RES
1 *3289:Q *793:16 27.7643 
2 *793:16 *793:18 2.58929 
3 *793:18 *793:24 13.3661 
4 *793:24 *793:32 8.16964 
5 *793:32 *2660:B_N 9.83571 
6 *793:32 *793:47 12.6071 
7 *793:47 *2659:B 9.3 
8 *793:47 *2657:A 15.925 
9 *793:24 *793:67 4.77679 
10 *793:67 *2664:A1 22.3357 
11 *793:67 *2835:B 9.3 
12 *793:18 *2656:B 10.0321 
13 *793:16 *2665:C_N 11.8893 
*END

*D_NET *794 0.00536544
*CONN
*I *2656:C I *D sky130_fd_sc_hd__and3b_1
*I *2657:B I *D sky130_fd_sc_hd__nor2_1
*I *2660:C I *D sky130_fd_sc_hd__and4bb_1
*I *2658:A I *D sky130_fd_sc_hd__inv_2
*I *2665:B I *D sky130_fd_sc_hd__or3b_2
*I *3290:Q O *D sky130_fd_sc_hd__dfrtp_1
*CAP
1 *2656:C 0
2 *2657:B 0.000322871
3 *2660:C 0.000325091
4 *2658:A 0.000223545
5 *2665:B 0.000345272
6 *3290:Q 0.00011623
7 *794:46 0.000729551
8 *794:33 0.000505867
9 *794:29 0.000278313
10 *794:10 0.000539082
11 *2658:A *795:54 4.10384e-05
12 *2660:C *795:81 2.976e-05
13 *2665:B *795:109 1.74352e-05
14 *794:33 *795:54 9.25014e-06
15 *794:46 *795:54 0.000103981
16 *2657:A *2657:B 5.50052e-05
17 *2661:B1 *2660:C 7.65766e-06
18 *2665:C_N *2665:B 0.000190666
19 *2670:B *2665:B 9.90431e-05
20 *2670:B *794:10 5.52238e-05
21 *2671:A *2665:B 0.000180777
22 *2674:B1 *2657:B 0.000139344
23 *2676:A *794:10 0.000101545
24 *2676:A *794:29 7.90803e-05
25 *2676:A *794:33 5.71658e-05
26 *3289:CLK *2657:B 0
27 *3289:CLK *2658:A 2.27416e-05
28 *3289:D *2658:A 6.05161e-06
29 *3291:D *2657:B 2.41865e-05
30 *3291:D *794:33 7.6644e-05
31 *3291:D *794:46 0.000189448
32 *10:29 *2657:B 2.83425e-05
33 *156:10 *794:33 6.42242e-05
34 *157:18 *2657:B 0
35 *157:18 *794:33 0
36 *157:18 *794:46 0
37 *163:18 *794:29 9.71197e-05
38 *630:54 *794:10 0
39 *630:54 *794:29 0
40 *630:54 *794:33 0
41 *641:22 *2657:B 5.93997e-05
42 *793:18 *2665:B 0.00018372
43 *793:18 *794:29 5.33334e-05
44 *793:24 *794:29 7.43578e-06
*RES
1 *3290:Q *794:10 15.675 
2 *794:10 *2665:B 20.2286 
3 *794:10 *794:29 6.48214 
4 *794:29 *794:33 8.26786 
5 *794:33 *2658:A 17.0143 
6 *794:33 *794:46 2.55357 
7 *794:46 *2660:C 17.6393 
8 *794:46 *2657:B 20.2286 
9 *794:29 *2656:C 9.3 
*END

*D_NET *795 0.00866556
*CONN
*I *2674:A1 I *D sky130_fd_sc_hd__a31o_1
*I *2675:A I *D sky130_fd_sc_hd__and3_1
*I *2665:A I *D sky130_fd_sc_hd__or3b_2
*I *2670:A_N I *D sky130_fd_sc_hd__and3b_1
*I *2835:A I *D sky130_fd_sc_hd__or4b_2
*I *2660:D I *D sky130_fd_sc_hd__and4bb_1
*I *2659:A I *D sky130_fd_sc_hd__and3_1
*I *2664:C1 I *D sky130_fd_sc_hd__a211oi_1
*I *2663:B2 I *D sky130_fd_sc_hd__a221o_1
*I *2656:A_N I *D sky130_fd_sc_hd__and3b_1
*I *3291:Q O *D sky130_fd_sc_hd__dfrtp_4
*CAP
1 *2674:A1 8.05761e-05
2 *2675:A 0.000188521
3 *2665:A 1.99857e-05
4 *2670:A_N 0
5 *2835:A 0
6 *2660:D 0
7 *2659:A 0.000127394
8 *2664:C1 0.000340248
9 *2663:B2 9.04164e-06
10 *2656:A_N 8.95943e-06
11 *3291:Q 0.000485597
12 *795:109 0.000306438
13 *795:81 0.000252068
14 *795:62 0.00060936
15 *795:54 0.000710747
16 *795:29 0.000663071
17 *795:18 0.000137004
18 *795:16 0.00021031
19 *795:12 0.000638227
20 *2648:A1 *795:12 0.000169008
21 *2658:A *795:54 4.10384e-05
22 *2660:A_N *2664:C1 0.000142023
23 *2660:A_N *795:62 0
24 *2660:A_N *795:81 2.59355e-05
25 *2660:B_N *795:81 5.49544e-05
26 *2660:C *795:81 2.976e-05
27 *2661:B1 *2659:A 2.92343e-05
28 *2661:B1 *795:81 4.38942e-05
29 *2664:A2 *795:62 4.1331e-06
30 *2664:B1 *795:54 3.10944e-05
31 *2664:B1 *795:62 2.12005e-05
32 *2665:B *795:109 1.74352e-05
33 *2665:C_N *795:18 0.000186669
34 *2665:C_N *795:109 8.27532e-05
35 *2670:C *795:12 4.80729e-05
36 *2670:C *795:16 0.000104974
37 *2671:A *2665:A 1.04232e-05
38 *2671:A *2675:A 5.35516e-05
39 *2671:A *795:109 6.71854e-05
40 *2673:B1 *2664:C1 0.000148196
41 *2674:A2 *795:12 3.34366e-05
42 *2674:A2 *795:16 0.000146474
43 *2675:C *2674:A1 5.95372e-05
44 *2676:A *795:29 7.91281e-05
45 *2677:A *2664:C1 5.33005e-05
46 *2677:A *795:62 0.000225387
47 *2677:B *2664:C1 1.76039e-05
48 *2835:D_N *795:62 0
49 *3289:CLK *2659:A 1.00477e-05
50 *3289:CLK *795:54 5.52302e-05
51 *3289:D *2674:A1 0
52 *3289:D *795:12 7.91281e-05
53 *3289:D *795:54 0.000120628
54 *11:29 *795:12 7.2745e-05
55 *11:43 *2663:B2 2.84269e-05
56 *157:18 *795:29 1.02504e-05
57 *157:18 *795:54 0.000172152
58 *157:27 *2663:B2 2.84269e-05
59 *157:40 *2674:A1 6.05161e-06
60 *158:6 *795:54 0.000185124
61 *163:18 *2656:A_N 5.52238e-05
62 *163:18 *795:18 0.000225609
63 *163:18 *795:109 9.65301e-05
64 *323:10 *795:62 6.05161e-06
65 *590:138 *2664:C1 0
66 *593:95 *2659:A 6.27875e-05
67 *793:16 *795:16 0
68 *793:16 *795:29 0.000171375
69 *793:16 *795:54 0.000144038
70 *793:18 *2656:A_N 5.71472e-05
71 *793:18 *795:18 4.18895e-05
72 *793:47 *2659:A 7.03141e-05
73 *793:47 *795:81 0.000139202
74 *794:33 *795:54 9.25014e-06
75 *794:46 *795:54 0.000103981
*RES
1 *3291:Q *795:12 22.3179 
2 *795:12 *795:16 6.44643 
3 *795:16 *795:18 2.17857 
4 *795:18 *2656:A_N 9.83571 
5 *795:18 *795:29 6.75 
6 *795:29 *2663:B2 14.0857 
7 *795:29 *795:54 24.4464 
8 *795:54 *795:62 12.1964 
9 *795:62 *2664:C1 24.925 
10 *795:62 *795:81 3 
11 *795:81 *2659:A 21.4607 
12 *795:81 *2660:D 9.3 
13 *795:54 *2835:A 9.3 
14 *795:18 *2670:A_N 9.3 
15 *795:16 *795:109 2.58929 
16 *795:109 *2665:A 9.72857 
17 *795:109 *2675:A 21.7286 
18 *795:12 *2674:A1 15.175 
*END

*D_NET *796 0.00726404
*CONN
*I *2827:A I *D sky130_fd_sc_hd__xor2_2
*I *2651:A I *D sky130_fd_sc_hd__xnor2_1
*I *2841:A I *D sky130_fd_sc_hd__buf_2
*I *2880:A I *D sky130_fd_sc_hd__clkbuf_4
*I *3282:Q O *D sky130_fd_sc_hd__dfrtp_4
*CAP
1 *2827:A 8.05724e-05
2 *2651:A 4.58706e-05
3 *2841:A 0
4 *2880:A 0.000108928
5 *3282:Q 0
6 *796:30 0.00166345
7 *796:16 0.00231496
8 *796:4 0.000795137
9 *2827:A *2827:B 0.000135163
10 *796:16 *2640:A1 4.16021e-05
11 *796:16 *2827:B 0.000230482
12 *796:16 *797:10 4.1331e-06
13 *2640:A0 *796:30 2.98016e-05
14 *2651:B *2651:A 3.57366e-05
15 *2652:B1 *2651:A 0
16 *2652:B1 *796:16 9.02232e-05
17 *2654:A1 *796:16 5.52238e-05
18 *2817:A1 *796:30 0.000300955
19 *2962:A0 *796:30 4.29388e-05
20 *2962:A1 *796:30 1.92813e-05
21 *3116:A *796:30 0.000116757
22 *307:18 *2880:A 4.16473e-05
23 *315:22 *796:16 3.92757e-05
24 *315:39 *796:30 1.39726e-05
25 *316:22 *796:30 4.46231e-06
26 *325:101 *2880:A 0.000145099
27 *325:118 *2880:A 0.000141729
28 *328:20 *2880:A 0.000109082
29 *328:20 *796:30 4.4622e-05
30 *328:133 *796:30 9.33671e-05
31 *351:18 *796:30 9.25014e-06
32 *351:95 *796:30 6.73939e-05
33 *412:6 *2880:A 9.87617e-05
34 *412:6 *796:30 0.000226867
35 *511:10 *796:30 3.4467e-05
36 *584:12 *796:16 4.45768e-06
37 *608:37 *796:30 7.83659e-05
38 *630:12 *796:16 0
39 *630:16 *796:16 0
40 *682:14 *796:16 0
*RES
1 *3282:Q *796:4 9.3 
2 *796:4 *796:16 20.7321 
3 *796:16 *796:30 31.1607 
4 *796:30 *2880:A 13.1214 
5 *796:30 *2841:A 9.3 
6 *796:16 *2651:A 10.3357 
7 *796:4 *2827:A 11.0679 
*END

*D_NET *797 0.00256017
*CONN
*I *2640:A1 I *D sky130_fd_sc_hd__mux2_1
*I *2827:B I *D sky130_fd_sc_hd__xor2_2
*I *3283:Q O *D sky130_fd_sc_hd__dfrtp_1
*CAP
1 *2640:A1 0.000442276
2 *2827:B 0.000139051
3 *3283:Q 0.000297709
4 *797:10 0.000879036
5 *2827:A *2827:B 0.000135163
6 *3294:RESET_B *797:10 0.000102146
7 *592:102 *2640:A1 0.000288576
8 *630:16 *797:10 0
9 *682:14 *2640:A1 0
10 *682:14 *797:10 0
11 *796:16 *2640:A1 4.16021e-05
12 *796:16 *2827:B 0.000230482
13 *796:16 *797:10 4.1331e-06
*RES
1 *3283:Q *797:10 18.3357 
2 *797:10 *2827:B 7.84821 
3 *797:10 *2640:A1 20.4964 
*END

*D_NET *798 0.00709321
*CONN
*I *2719:A_N I *D sky130_fd_sc_hd__and4b_4
*I *2723:D I *D sky130_fd_sc_hd__and4b_4
*I *2694:D_N I *D sky130_fd_sc_hd__nor4b_2
*I *2702:A I *D sky130_fd_sc_hd__nor4b_2
*I *2680:A I *D sky130_fd_sc_hd__nor4_1
*I *2688:A I *D sky130_fd_sc_hd__buf_2
*I *2720:D I *D sky130_fd_sc_hd__and4bb_4
*I *3273:Q O *D sky130_fd_sc_hd__dfrtp_4
*CAP
1 *2719:A_N 0.000523207
2 *2723:D 0.000201597
3 *2694:D_N 0.000161289
4 *2702:A 1.96283e-05
5 *2680:A 0
6 *2688:A 0.000204919
7 *2720:D 5.843e-05
8 *3273:Q 0
9 *798:69 0.000953676
10 *798:27 0.000407741
11 *798:21 0.000313123
12 *798:10 0.000650707
13 *798:8 0.000715185
14 *798:4 0.000281165
15 *2688:A *2680:C 5.33433e-05
16 *2702:A *2702:D_N 5.33005e-05
17 *2719:A_N *2719:B 2.87102e-05
18 *2719:A_N *2719:C 4.21902e-05
19 *2719:A_N *2719:D 5.71472e-05
20 *2719:A_N *801:93 2.84026e-05
21 *2720:D *2687:A 5.52238e-05
22 *2720:D *2720:A_N 0.000181796
23 *2720:D *801:14 0.000181796
24 *2723:D *2723:B 5.38444e-06
25 *2723:D *2723:C 3.47783e-05
26 *2723:D *801:93 0.00014315
27 *798:10 *2720:A_N 5.52302e-05
28 *798:10 *801:14 0.000169366
29 *798:27 *2680:C 7.32955e-05
30 *798:69 *2694:C 2.2443e-05
31 *798:69 *800:75 7.29712e-05
32 *798:69 *801:57 4.3588e-05
33 *798:69 *801:93 2.93215e-05
34 *2702:B *2702:A 1.24368e-05
35 *3276:CLK *2719:A_N 3.49858e-05
36 *3276:RESET_B *2723:D 3.6337e-05
37 *3276:RESET_B *798:69 2.63426e-05
38 *172:10 *2688:A 0.000138881
39 *172:10 *798:27 0.000177604
40 *172:14 *798:21 4.89854e-05
41 *172:14 *798:27 9.047e-05
42 *178:6 *2702:A 1.98839e-05
43 *211:10 *2719:A_N 2.89016e-05
44 *212:14 *798:21 0.000121573
45 *212:14 *798:27 0.000360816
46 *215:20 *2688:A 8.10658e-05
47 *407:93 *2694:D_N 5.52238e-05
48 *407:93 *798:69 1.5929e-05
49 *421:12 *798:21 2.16719e-05
*RES
1 *3273:Q *798:4 9.3 
2 *798:4 *798:8 0.964286 
3 *798:8 *798:10 8.75 
4 *798:10 *2720:D 11.4786 
5 *798:10 *798:21 6.75 
6 *798:21 *798:27 10.5357 
7 *798:27 *2688:A 13.55 
8 *798:27 *2680:A 9.3 
9 *798:21 *2702:A 14.3357 
10 *798:8 *2694:D_N 21.0857 
11 *798:4 *798:69 8.71429 
12 *798:69 *2723:D 17.9964 
13 *798:69 *2719:A_N 21.4786 
*END

*D_NET *799 0.0100261
*CONN
*I *2719:B I *D sky130_fd_sc_hd__and4b_4
*I *2694:A I *D sky130_fd_sc_hd__nor4b_2
*I *2686:A I *D sky130_fd_sc_hd__buf_2
*I *2720:A_N I *D sky130_fd_sc_hd__and4bb_4
*I *2726:C I *D sky130_fd_sc_hd__and4b_4
*I *2680:B I *D sky130_fd_sc_hd__nor4_1
*I *2723:A_N I *D sky130_fd_sc_hd__and4b_4
*I *3274:Q O *D sky130_fd_sc_hd__dfrtp_4
*CAP
1 *2719:B 0.000164938
2 *2694:A 0
3 *2686:A 3.6841e-05
4 *2720:A_N 0.000193244
5 *2726:C 9.99573e-05
6 *2680:B 6.56239e-05
7 *2723:A_N 3.87786e-05
8 *3274:Q 0.000656268
9 *799:53 0.000279952
10 *799:51 0.000629217
11 *799:45 0.00121615
12 *799:20 0.00113352
13 *799:14 0.000323752
14 *799:12 0.000907922
15 *2686:A *801:6 9.90431e-05
16 *2719:B *2719:C 5.84963e-05
17 *2720:A_N *2720:B_N 0
18 *799:20 *2694:B 0.00018056
19 *799:45 *800:6 0.000662528
20 *799:45 *800:19 3.57366e-05
21 *799:45 *800:48 5.52238e-05
22 *799:45 *801:14 3.34366e-05
23 *799:51 *2702:D_N 0.000383943
24 *799:51 *801:6 8.43535e-06
25 *2719:A_N *2719:B 2.87102e-05
26 *2720:D *2720:A_N 0.000181796
27 *2726:B *2726:C 5.33005e-05
28 *2726:D *2726:C 2.28598e-05
29 *3047:A *799:45 0
30 *3273:RESET_B *2719:B 0.000123295
31 *3274:RESET_B *799:12 0
32 *3276:CLK *2719:B 4.38679e-06
33 *3276:RESET_B *799:45 2.47989e-05
34 *172:10 *2680:B 2.05938e-05
35 *172:14 *2680:B 9.25014e-06
36 *172:14 *2720:A_N 0.000144038
37 *172:14 *799:53 0.000311028
38 *187:58 *799:53 0
39 *194:8 *2680:B 0.00012501
40 *194:8 *799:53 0.000234384
41 *211:10 *799:12 0
42 *212:14 *2680:B 0
43 *407:93 *2723:A_N 0.000100823
44 *407:93 *799:20 0.000285856
45 *421:12 *799:45 3.84478e-05
46 *595:55 *2719:B 0
47 *595:55 *799:12 0
48 *595:65 *2719:B 0.0001098
49 *607:12 *2719:B 0.000133437
50 *607:12 *2723:A_N 0.000100823
51 *607:12 *799:20 0.000654691
52 *678:12 *2720:A_N 0
53 *798:10 *2720:A_N 5.52302e-05
*RES
1 *3274:Q *799:12 29.1571 
2 *799:12 *799:14 1.35714 
3 *799:14 *799:20 13.3571 
4 *799:20 *2723:A_N 15.1393 
5 *799:20 *799:45 27.7321 
6 *799:45 *799:51 9.05357 
7 *799:51 *799:53 4.07143 
8 *799:53 *2680:B 15.4429 
9 *799:53 *2726:C 15.175 
10 *799:51 *2720:A_N 17.925 
11 *799:45 *2686:A 10.2464 
12 *799:14 *2694:A 9.3 
13 *799:12 *2719:B 23.8625 
*END

*D_NET *800 0.00798602
*CONN
*I *2694:C I *D sky130_fd_sc_hd__nor4b_2
*I *2719:D I *D sky130_fd_sc_hd__and4b_4
*I *2723:C I *D sky130_fd_sc_hd__and4b_4
*I *2720:B_N I *D sky130_fd_sc_hd__and4bb_4
*I *2679:A I *D sky130_fd_sc_hd__buf_2
*I *2691:C I *D sky130_fd_sc_hd__and4bb_4
*I *2726:A_N I *D sky130_fd_sc_hd__and4b_4
*I *3275:Q O *D sky130_fd_sc_hd__dfrtp_4
*CAP
1 *2694:C 0.000164736
2 *2719:D 0.000521835
3 *2723:C 0.000305403
4 *2720:B_N 8.395e-05
5 *2679:A 0
6 *2691:C 0.000101521
7 *2726:A_N 0
8 *3275:Q 0
9 *800:75 0.00107332
10 *800:48 0.000713884
11 *800:23 0.000176792
12 *800:19 0.000757361
13 *800:6 0.00084228
14 *800:4 0.000265869
15 *2694:C *2694:B 1.0033e-05
16 *2723:C *2680:C 5.36394e-05
17 *2723:C *801:93 2.07878e-05
18 *800:75 *801:43 4.38942e-05
19 *800:75 *801:93 3.04394e-05
20 *2691:A_N *2691:C 0.000181803
21 *2719:A_N *2719:D 5.71472e-05
22 *2720:A_N *2720:B_N 0
23 *2723:D *2723:C 3.47783e-05
24 *2726:D *800:19 8.68595e-05
25 *3273:RESET_B *2719:D 6.42145e-05
26 *3275:D *2719:D 6.5185e-05
27 *3276:RESET_B *800:75 8.75782e-05
28 *3464:A *800:6 4.01768e-05
29 *3464:A *800:19 1.51553e-05
30 *171:23 *800:19 0.000139907
31 *178:8 *2691:C 6.05161e-06
32 *178:8 *800:23 0.000132967
33 *178:10 *2691:C 5.36e-05
34 *178:29 *2691:C 1.24368e-05
35 *187:12 *2691:C 4.87953e-05
36 *187:58 *2691:C 0.000108034
37 *187:58 *2720:B_N 5.66157e-05
38 *187:58 *800:19 0.000146474
39 *187:58 *800:23 0.000141486
40 *403:28 *800:19 4.46186e-06
41 *407:93 *2694:C 0.000300727
42 *407:93 *800:75 7.34785e-05
43 *595:65 *2719:D 1.92789e-05
44 *678:12 *2720:B_N 4.97918e-05
45 *678:12 *800:19 4.43698e-05
46 *798:69 *2694:C 2.2443e-05
47 *798:69 *800:75 7.29712e-05
48 *799:45 *800:6 0.000662528
49 *799:45 *800:19 3.57366e-05
50 *799:45 *800:48 5.52238e-05
*RES
1 *3275:Q *800:4 9.3 
2 *800:4 *800:6 6.69643 
3 *800:6 *2726:A_N 9.3 
4 *800:6 *800:19 13.0536 
5 *800:19 *800:23 7.08929 
6 *800:23 *2691:C 12.3 
7 *800:23 *2679:A 9.3 
8 *800:19 *2720:B_N 15.7464 
9 *800:4 *800:48 5.03571 
10 *800:48 *2723:C 18.6036 
11 *800:48 *800:75 15.375 
12 *800:75 *2719:D 29.6214 
13 *800:75 *2694:C 17.8 
*END

*D_NET *801 0.00931309
*CONN
*I *2723:B I *D sky130_fd_sc_hd__and4b_4
*I *2680:C I *D sky130_fd_sc_hd__nor4_1
*I *2694:B I *D sky130_fd_sc_hd__nor4b_2
*I *2719:C I *D sky130_fd_sc_hd__and4b_4
*I *2702:D_N I *D sky130_fd_sc_hd__nor4b_2
*I *2720:C I *D sky130_fd_sc_hd__and4bb_4
*I *2687:A I *D sky130_fd_sc_hd__buf_2
*I *3276:Q O *D sky130_fd_sc_hd__dfrtp_4
*CAP
1 *2723:B 1.65394e-05
2 *2680:C 0.000435221
3 *2694:B 0.000115918
4 *2719:C 0.000294251
5 *2702:D_N 0.000228444
6 *2720:C 0
7 *2687:A 0.000168558
8 *3276:Q 0
9 *801:93 0.000747735
10 *801:57 0.000719132
11 *801:43 0.00100851
12 *801:14 0.000419588
13 *801:6 0.000578489
14 *801:4 0.000502588
15 *2686:A *801:6 9.90431e-05
16 *2688:A *2680:C 5.33433e-05
17 *2694:C *2694:B 1.0033e-05
18 *2702:A *2702:D_N 5.33005e-05
19 *2702:B *2702:D_N 2.28499e-05
20 *2702:C *2702:D_N 0.000153273
21 *2719:A_N *2719:C 4.21902e-05
22 *2719:A_N *801:93 2.84026e-05
23 *2719:B *2719:C 5.84963e-05
24 *2720:D *2687:A 5.52238e-05
25 *2720:D *801:14 0.000181796
26 *2723:C *2680:C 5.36394e-05
27 *2723:C *801:93 2.07878e-05
28 *2723:D *2723:B 5.38444e-06
29 *2723:D *801:93 0.00014315
30 *3047:A *801:14 0
31 *3276:CLK *2719:C 2.59355e-05
32 *3276:D *801:93 0.000315165
33 *3276:RESET_B *801:57 4.49358e-05
34 *178:6 *2702:D_N 3.98547e-05
35 *178:6 *801:6 5.52238e-05
36 *178:8 *2702:D_N 5.54432e-05
37 *212:14 *2687:A 0.000176328
38 *212:14 *801:14 0.000210223
39 *215:8 *801:93 1.04232e-05
40 *215:20 *2680:C 0.000651729
41 *215:20 *801:93 9.51594e-05
42 *407:93 *2694:B 0.00031724
43 *407:93 *801:93 1.41029e-05
44 *421:12 *801:14 8.9163e-05
45 *798:10 *801:14 0.000169366
46 *798:27 *2680:C 7.32955e-05
47 *798:69 *801:57 4.3588e-05
48 *798:69 *801:93 2.93215e-05
49 *799:20 *2694:B 0.00018056
50 *799:45 *801:14 3.34366e-05
51 *799:51 *2702:D_N 0.000383943
52 *799:51 *801:6 8.43535e-06
53 *800:75 *801:43 4.38942e-05
54 *800:75 *801:93 3.04394e-05
*RES
1 *3276:Q *801:4 9.3 
2 *801:4 *801:6 2.17857 
3 *801:6 *801:14 14.6607 
4 *801:14 *2687:A 13.2643 
5 *801:14 *2720:C 9.3 
6 *801:6 *2702:D_N 15.5143 
7 *801:4 *801:43 6.28571 
8 *801:43 *801:57 12.4362 
9 *801:57 *2719:C 17.5321 
10 *801:57 *2694:B 18.175 
11 *801:43 *801:93 17.2321 
12 *801:93 *2680:C 20.925 
13 *801:93 *2723:B 9.72857 
*END

*D_NET *802 0.00184228
*CONN
*I *2699:B I *D sky130_fd_sc_hd__and2b_1
*I *2681:B I *D sky130_fd_sc_hd__nor2_1
*I *2684:A I *D sky130_fd_sc_hd__nor2b_2
*I *2739:B I *D sky130_fd_sc_hd__and2_2
*I *3277:Q O *D sky130_fd_sc_hd__dfrtp_1
*CAP
1 *2699:B 0.000109258
2 *2681:B 9.15136e-06
3 *2684:A 0
4 *2739:B 3.37867e-05
5 *3277:Q 9.94238e-05
6 *802:18 0.000187631
7 *802:14 0.000191832
8 *802:12 0.000237519
9 *2681:B *2681:A 5.7661e-06
10 *2739:B *2739:A 0.00010096
11 *802:12 *803:8 1.98839e-05
12 *802:12 *803:10 2.59355e-05
13 *802:14 *803:10 2.59355e-05
14 *802:18 *2739:A 0.000117621
15 *802:18 *803:10 2.14658e-05
16 *2984:S *802:12 1.02504e-05
17 *2987:S *2699:B 0.000198705
18 *2987:S *802:12 0.00010326
19 *173:12 *2699:B 8.08022e-05
20 *176:8 *2739:B 9.47712e-05
21 *176:8 *802:18 1.33343e-05
22 *323:54 *802:12 5.33882e-05
23 *419:14 *2699:B 0
24 *774:92 *2699:B 5.56943e-05
25 *774:92 *2739:B 4.59075e-05
*RES
1 *3277:Q *802:12 20.5857 
2 *802:12 *802:14 0.535714 
3 *802:14 *802:18 3.01786 
4 *802:18 *2739:B 11.0679 
5 *802:18 *2684:A 9.3 
6 *802:14 *2681:B 9.72857 
7 *802:12 *2699:B 21.3893 
*END

*D_NET *803 0.00135378
*CONN
*I *2699:A_N I *D sky130_fd_sc_hd__and2b_1
*I *2681:A I *D sky130_fd_sc_hd__nor2_1
*I *2684:B_N I *D sky130_fd_sc_hd__nor2b_2
*I *2739:A I *D sky130_fd_sc_hd__and2_2
*I *3278:Q O *D sky130_fd_sc_hd__dfrtp_1
*CAP
1 *2699:A_N 4.03086e-05
2 *2681:A 1.79444e-05
3 *2684:B_N 0
4 *2739:A 5.02969e-05
5 *3278:Q 0
6 *803:10 0.00013126
7 *803:8 0.000162461
8 *803:4 0.000103862
9 *2681:B *2681:A 5.7661e-06
10 *2739:B *2739:A 0.00010096
11 *2987:S *2699:A_N 0.000129868
12 *323:54 *2699:A_N 6.97972e-05
13 *774:92 *2739:A 0.000317082
14 *774:92 *803:8 0
15 *774:92 *803:10 1.33343e-05
16 *802:12 *803:8 1.98839e-05
17 *802:12 *803:10 2.59355e-05
18 *802:14 *803:10 2.59355e-05
19 *802:18 *2739:A 0.000117621
20 *802:18 *803:10 2.14658e-05
*RES
1 *3278:Q *803:4 9.3 
2 *803:4 *803:8 1.26786 
3 *803:8 *803:10 1.35714 
4 *803:10 *2739:A 12.3 
5 *803:10 *2684:B_N 9.3 
6 *803:8 *2681:A 9.72857 
7 *803:4 *2699:A_N 19.9429 
*END

*D_NET *804 0.000869832
*CONN
*I *3361:A I *D sky130_fd_sc_hd__dlygate4sd3_1
*I *3271:Q O *D sky130_fd_sc_hd__dfxtp_1
*CAP
1 *3361:A 0.000137059
2 *3271:Q 0.000137059
3 *2634:A *3361:A 9.90367e-05
4 *2818:A1 *3361:A 5.03772e-05
5 *3271:CLK *3361:A 6.02129e-05
6 *592:24 *3361:A 0.000104477
7 *619:62 *3361:A 3.48235e-05
8 *737:46 *3361:A 0.000246787
*RES
1 *3271:Q *3361:A 32.6179 
*END

*D_NET *805 0.00212199
*CONN
*I *3351:A I *D sky130_fd_sc_hd__dlygate4sd3_1
*I *3270:Q O *D sky130_fd_sc_hd__dfxtp_1
*CAP
1 *3351:A 0.000517487
2 *3270:Q 0.000517487
3 *2633:S *3351:A 4.47937e-05
4 *2634:A *3351:A 0.000384732
5 *2635:S *3351:A 6.41382e-05
6 *2819:B1 *3351:A 0.000166416
7 *3281:D *3351:A 0.000312215
8 *211:47 *3351:A 2.16719e-05
9 *316:22 *3351:A 6.42338e-05
10 *737:46 *3351:A 2.88136e-05
*RES
1 *3270:Q *3351:A 39.1893 
*END

*D_NET *806 0.0059069
*CONN
*I *2805:A1 I *D sky130_fd_sc_hd__a22o_1
*I *3364:A I *D sky130_fd_sc_hd__dlygate4sd3_1
*I *3251:Q O *D sky130_fd_sc_hd__dfxtp_1
*CAP
1 *2805:A1 0.0015053
2 *3364:A 0
3 *3251:Q 0.000375159
4 *806:10 0.00188046
5 *2805:A1 *2722:A1 0.000169688
6 *2805:A1 *2722:B2 0.000344644
7 *806:10 *2722:B2 0.000229361
8 *2585:A0 *806:10 2.59355e-05
9 *2585:A1 *806:10 8.52545e-05
10 *2585:S *806:10 0.000273822
11 *2622:A *2805:A1 7.09896e-05
12 *2624:A *2805:A1 0.000156156
13 *2802:B1 *2805:A1 0.000600019
14 *2805:A2 *2805:A1 1.58163e-05
15 *2805:B1 *2805:A1 3.89621e-06
16 *3251:D *806:10 1.92789e-05
17 *197:134 *2805:A1 0
18 *568:6 *2805:A1 0.000151119
*RES
1 *3251:Q *806:10 17.675 
2 *806:10 *3364:A 9.3 
3 *806:10 *2805:A1 41.3179 
*END

*D_NET *807 0.0031881
*CONN
*I *2722:A1 I *D sky130_fd_sc_hd__a221o_1
*I *3459:A I *D sky130_fd_sc_hd__dlygate4sd3_1
*I *3250:Q O *D sky130_fd_sc_hd__dfxtp_1
*CAP
1 *2722:A1 0.000399192
2 *3459:A 0.000286719
3 *3250:Q 0.000238278
4 *807:6 0.000924189
5 *2722:A1 *2722:B2 1.02936e-05
6 *2583:A1 *3459:A 0.000144716
7 *2585:S *2722:A1 0
8 *2585:S *3459:A 5.41794e-05
9 *2591:A *2722:A1 0.000236031
10 *2722:B1 *2722:A1 2.30808e-05
11 *2722:C1 *2722:A1 0.000122975
12 *2805:A1 *2722:A1 0.000169688
13 *3252:D *3459:A 5.57914e-05
14 *197:134 *2722:A1 2.81946e-05
15 *197:134 *3459:A 0
16 *500:31 *2722:A1 0.000140088
17 *500:31 *807:6 0.000354683
18 *511:79 *3459:A 0
19 *511:96 *3459:A 0
*RES
1 *3250:Q *807:6 12.7107 
2 *807:6 *3459:A 24.425 
3 *807:6 *2722:A1 26.8714 
*END

*D_NET *808 0.00117183
*CONN
*I *3404:A I *D sky130_fd_sc_hd__dlygate4sd3_1
*I *2801:B2 I *D sky130_fd_sc_hd__a22o_1
*I *3249:Q O *D sky130_fd_sc_hd__dfxtp_1
*CAP
1 *3404:A 0.000153817
2 *2801:B2 6.31845e-05
3 *3249:Q 7.22865e-05
4 *808:6 0.000289288
5 *2580:A0 *808:6 5.33005e-05
6 *2801:B1 *3404:A 5.35386e-05
7 *3249:CLK *808:6 3.46801e-05
8 *358:57 *2801:B2 0.000222024
9 *598:29 *2801:B2 5.74309e-05
10 *598:44 *2801:B2 0.000172285
*RES
1 *3249:Q *808:6 10.6571 
2 *808:6 *2801:B2 21.1571 
3 *808:6 *3404:A 11.9071 
*END

*D_NET *809 0.00143409
*CONN
*I *3406:A I *D sky130_fd_sc_hd__dlygate4sd3_1
*I *2727:B2 I *D sky130_fd_sc_hd__a22o_1
*I *3248:Q O *D sky130_fd_sc_hd__dfxtp_1
*CAP
1 *3406:A 0
2 *2727:B2 0.000185799
3 *3248:Q 0.0002693
4 *809:12 0.0004551
5 *2727:B2 *2725:B2 1.99099e-05
6 *2727:B2 *2727:A1 2.24904e-05
7 *2727:B2 *871:10 1.50223e-05
8 *2727:B2 *927:10 6.42338e-05
9 *2579:A *2727:B2 4.07062e-05
10 *2598:A1 *2727:B2 0
11 *2598:A1 *809:12 6.14551e-05
12 *3264:D *2727:B2 0.000126278
13 *345:79 *2727:B2 8.06427e-05
14 *350:120 *2727:B2 0
15 *693:36 *809:12 9.31523e-05
*RES
1 *3248:Q *809:12 23.2464 
2 *809:12 *2727:B2 23.2821 
3 *809:12 *3406:A 9.3 
*END

*D_NET *810 0.00128946
*CONN
*I *2803:A1 I *D sky130_fd_sc_hd__a22o_1
*I *3444:A I *D sky130_fd_sc_hd__dlygate4sd3_1
*I *3247:Q O *D sky130_fd_sc_hd__dfxtp_1
*CAP
1 *2803:A1 0.000283979
2 *3444:A 0
3 *3247:Q 0.000224835
4 *810:8 0.000508814
5 *2803:A1 *2725:A1 4.88637e-05
6 *2803:A1 *3334:A 0
7 *2803:A1 *3410:A 0.000183726
8 *2578:S *2803:A1 0
9 *2728:A *2803:A1 5.80706e-06
10 *553:10 *2803:A1 3.34366e-05
*RES
1 *3247:Q *810:8 12.7286 
2 *810:8 *3444:A 9.3 
3 *810:8 *2803:A1 23.8536 
*END

*D_NET *811 0.0028868
*CONN
*I *3334:A I *D sky130_fd_sc_hd__dlygate4sd3_1
*I *2725:A1 I *D sky130_fd_sc_hd__a22o_1
*I *3246:Q O *D sky130_fd_sc_hd__dfxtp_1
*CAP
1 *3334:A 0.000263657
2 *2725:A1 0.000299237
3 *3246:Q 0.000483192
4 *811:10 0.00104609
5 *2725:A1 *2725:B2 9.2047e-05
6 *2725:A1 *3410:A 9.90431e-05
7 *3334:A *2803:B2 0.000118339
8 *3334:A *926:8 1.17968e-05
9 *811:10 *926:8 5.33882e-05
10 *2599:A *811:10 9.7659e-05
11 *2728:A *3334:A 0
12 *2803:A1 *2725:A1 4.88637e-05
13 *2803:A1 *3334:A 0
14 *3256:D *811:10 5.39629e-06
15 *208:58 *2725:A1 1.04232e-05
16 *358:36 *3334:A 0
17 *358:36 *811:10 1.39841e-05
18 *553:10 *2725:A1 0.000243686
19 *553:10 *811:10 0
*RES
1 *3246:Q *811:10 20.1929 
2 *811:10 *2725:A1 20.55 
3 *811:10 *3334:A 19.0857 
*END

*D_NET *812 0.0016937
*CONN
*I *2806:A1 I *D sky130_fd_sc_hd__a22o_1
*I *3441:A I *D sky130_fd_sc_hd__dlygate4sd3_1
*I *3245:Q O *D sky130_fd_sc_hd__dfxtp_1
*CAP
1 *2806:A1 6.81981e-05
2 *3441:A 0
3 *3245:Q 0.000324006
4 *812:8 0.000392204
5 *2806:A1 *2806:B2 5.79459e-05
6 *812:8 *2806:B2 1.34631e-05
7 *2570:A0 *812:8 1.00073e-05
8 *2570:A1 *812:8 6.19652e-05
9 *2571:A *812:8 0.00010096
10 *2806:B1 *2806:A1 3.18676e-05
11 *500:54 *812:8 3.21277e-05
12 *535:14 *2806:A1 0.000203927
13 *535:14 *812:8 0.000369743
14 *591:92 *812:8 2.72859e-05
*RES
1 *3245:Q *812:8 16.8357 
2 *812:8 *3441:A 9.3 
3 *812:8 *2806:A1 11.9071 
*END

*D_NET *813 0.00408044
*CONN
*I *2724:A1 I *D sky130_fd_sc_hd__a22o_1
*I *3345:A I *D sky130_fd_sc_hd__dlygate4sd3_1
*I *3244:Q O *D sky130_fd_sc_hd__dfxtp_1
*CAP
1 *2724:A1 0.000864529
2 *3345:A 0.000154587
3 *3244:Q 0.00023982
4 *813:10 0.00125894
5 *2724:A1 *3439:A 8.4541e-05
6 *2560:A0 *2724:A1 0.000141729
7 *2560:A1 *2724:A1 4.72917e-05
8 *2560:S *2724:A1 1.6704e-05
9 *2568:A0 *2724:A1 2.14658e-05
10 *2568:A0 *813:10 0.000229456
11 *2568:A1 *3345:A 0
12 *2568:A1 *813:10 0.000144773
13 *2571:A *3345:A 0
14 *2577:B *2724:A1 0
15 *2614:A *2724:A1 1.74352e-05
16 *2724:B1 *2724:A1 0.000399848
17 *511:55 *2724:A1 0.00011363
18 *511:66 *3345:A 0.000320031
19 *591:92 *3345:A 2.56601e-05
*RES
1 *3244:Q *813:10 14.3893 
2 *813:10 *3345:A 22.3714 
3 *813:10 *2724:A1 21.3536 
*END

*D_NET *814 0.00352921
*CONN
*I *3347:A I *D sky130_fd_sc_hd__dlygate4sd3_1
*I *2807:A1 I *D sky130_fd_sc_hd__a211o_1
*I *3243:Q O *D sky130_fd_sc_hd__dfxtp_1
*CAP
1 *3347:A 0.000387537
2 *2807:A1 0.000550495
3 *3243:Q 4.28431e-05
4 *814:8 0.000980875
5 *2565:A1 *3347:A 2.16394e-05
6 *2580:S *2807:A1 0.000515404
7 *2581:A *2807:A1 3.13687e-05
8 *2581:A *3347:A 0
9 *2807:B1 *2807:A1 5.69177e-05
10 *2807:C1 *2807:A1 0.000353086
11 *2808:A3 *2807:A1 0.00019187
12 *3243:CLK *2807:A1 0.000295271
13 *3243:CLK *814:8 2.78576e-05
14 *3249:D *3347:A 4.96177e-05
15 *197:134 *2807:A1 0
16 *197:134 *3347:A 0
17 *500:41 *2807:A1 0
18 *500:41 *3347:A 0
19 *598:6 *2807:A1 2.44318e-05
*RES
1 *3243:Q *814:8 14.3357 
2 *814:8 *2807:A1 28.05 
3 *814:8 *3347:A 20.7464 
*END

*D_NET *815 0.00252246
*CONN
*I *2722:B2 I *D sky130_fd_sc_hd__a221o_1
*I *3338:A I *D sky130_fd_sc_hd__dlygate4sd3_1
*I *3242:Q O *D sky130_fd_sc_hd__dfxtp_1
*CAP
1 *2722:B2 0.000440389
2 *3338:A 6.22367e-05
3 *3242:Q 0.000360623
4 *815:8 0.000863249
5 *2563:A1 *815:8 7.22574e-05
6 *2586:A *815:8 5.50052e-05
7 *2722:A1 *2722:B2 1.02936e-05
8 *2722:C1 *2722:B2 8.44022e-05
9 *2805:A1 *2722:B2 0.000344644
10 *500:37 *2722:B2 0
11 *806:10 *2722:B2 0.000229361
*RES
1 *3242:Q *815:8 15.1929 
2 *815:8 *3338:A 10.675 
3 *815:8 *2722:B2 26.9116 
*END

*D_NET *816 0.00144798
*CONN
*I *2806:B2 I *D sky130_fd_sc_hd__a22o_1
*I *3439:A I *D sky130_fd_sc_hd__dlygate4sd3_1
*I *3241:Q O *D sky130_fd_sc_hd__dfxtp_1
*CAP
1 *2806:B2 0.00030114
2 *3439:A 4.58001e-05
3 *3241:Q 9.70904e-05
4 *816:8 0.00044403
5 *2560:S *3439:A 0.000229214
6 *2575:A0 *2806:B2 1.62144e-05
7 *2575:A0 *816:8 1.3457e-05
8 *2724:A1 *3439:A 8.4541e-05
9 *2724:B1 *2806:B2 0
10 *2806:A1 *2806:B2 5.79459e-05
11 *197:134 *2806:B2 0
12 *358:36 *2806:B2 0
13 *500:54 *2806:B2 4.42631e-05
14 *511:55 *816:8 0.000100823
15 *812:8 *2806:B2 1.34631e-05
*RES
1 *3241:Q *816:8 15.7464 
2 *816:8 *3439:A 15.9786 
3 *816:8 *2806:B2 19.2286 
*END

*D_NET *817 0.00238295
*CONN
*I *2724:B2 I *D sky130_fd_sc_hd__a22o_1
*I *3442:A I *D sky130_fd_sc_hd__dlygate4sd3_1
*I *3240:Q O *D sky130_fd_sc_hd__dfxtp_1
*CAP
1 *2724:B2 0.000223724
2 *3442:A 0
3 *3240:Q 0.000721307
4 *817:10 0.000945031
5 *2557:B *817:10 0.000126629
6 *2614:A *2724:B2 5.52238e-05
7 *2724:B1 *2724:B2 5.52238e-05
8 *2728:A *817:10 7.54343e-05
9 *3262:D *2724:B2 0.000150618
10 *3262:D *817:10 1.02504e-05
11 *202:115 *2724:B2 3.47985e-06
12 *321:75 *817:10 0
13 *358:36 *2724:B2 0
14 *358:36 *817:10 0
15 *591:10 *2724:B2 1.60258e-05
*RES
1 *3240:Q *817:10 25.4071 
2 *817:10 *3442:A 13.8 
3 *817:10 *2724:B2 18.2643 
*END

*D_NET *818 0.00341587
*CONN
*I *3387:A I *D sky130_fd_sc_hd__dlygate4sd3_1
*I *2780:A I *D sky130_fd_sc_hd__and3_1
*I *3239:Q O *D sky130_fd_sc_hd__dfxtp_1
*CAP
1 *3387:A 5.46009e-05
2 *2780:A 0.000501372
3 *3239:Q 0.000171252
4 *818:8 0.000727225
5 *818:8 *2753:A 0.000219289
6 *2781:B *2780:A 7.17235e-05
7 *2783:B *2780:A 3.36015e-05
8 *2783:C *2780:A 6.97108e-05
9 *2953:B *2780:A 0.0001052
10 *3238:CLK *2780:A 0.00031876
11 *3238:D *2780:A 0.000144199
12 *211:37 *2780:A 0.000180777
13 *407:14 *3387:A 2.11419e-05
14 *415:50 *2780:A 0.000209338
15 *415:50 *3387:A 4.90426e-05
16 *607:46 *2780:A 0.000425073
17 *607:46 *3387:A 0.000113564
*RES
1 *3239:Q *818:8 15.9786 
2 *818:8 *2780:A 27.0857 
3 *818:8 *3387:A 15.4429 
*END

*D_NET *819 0.00252417
*CONN
*I *3383:A I *D sky130_fd_sc_hd__dlygate4sd3_1
*I *2749:A I *D sky130_fd_sc_hd__and3_1
*I *3238:Q O *D sky130_fd_sc_hd__dfxtp_1
*CAP
1 *3383:A 0.000480775
2 *2749:A 0.000168358
3 *3238:Q 3.64082e-05
4 *819:6 0.000685541
5 *2551:A1 *3383:A 0.000177821
6 *2551:S *3383:A 4.22349e-05
7 *2552:A *3383:A 0.000133361
8 *2749:B *2749:A 3.79877e-06
9 *2749:C *2749:A 6.04072e-05
10 *2989:A *3383:A 3.51643e-05
11 *3133:A0 *3383:A 0
12 *3238:CLK *3383:A 0
13 *3238:D *2749:A 5.86454e-05
14 *3238:D *3383:A 7.6644e-05
15 *3238:D *819:6 4.3537e-05
16 *3465:A *3383:A 0.000258972
17 *361:30 *3383:A 0.000262504
18 *511:150 *3383:A 0
*RES
1 *3238:Q *819:6 9.83571 
2 *819:6 *2749:A 11.4964 
3 *819:6 *3383:A 28.6393 
*END

*D_NET *820 0.00152301
*CONN
*I *3377:A I *D sky130_fd_sc_hd__dlygate4sd3_1
*I *2787:A I *D sky130_fd_sc_hd__and3_1
*I *3237:Q O *D sky130_fd_sc_hd__dfxtp_1
*CAP
1 *3377:A 0.000229961
2 *2787:A 0.000199194
3 *3237:Q 0
4 *820:4 0.000429154
5 *2548:A1 *2787:A 7.83659e-05
6 *176:44 *2787:A 0.000197915
7 *176:44 *3377:A 9.71197e-05
8 *192:10 *2787:A 5.71472e-05
9 *212:20 *2787:A 0.00018834
10 *619:39 *2787:A 4.58096e-05
*RES
1 *3237:Q *820:4 9.3 
2 *820:4 *2787:A 24.7286 
3 *820:4 *3377:A 12.7286 
*END

*D_NET *821 0.000975444
*CONN
*I *3419:A I *D sky130_fd_sc_hd__dlygate4sd3_1
*I *2709:A1 I *D sky130_fd_sc_hd__a31o_1
*I *3236:Q O *D sky130_fd_sc_hd__dfxtp_1
*CAP
1 *3419:A 0.000239415
2 *2709:A1 0.000101396
3 *3236:Q 0
4 *821:4 0.000340811
5 *2708:B *3419:A 6.45442e-05
6 *2709:A3 *2709:A1 6.05161e-06
7 *2709:B1 *2709:A1 5.23735e-05
8 *2709:B1 *3419:A 4.44369e-05
9 *715:30 *3419:A 0.000126416
*RES
1 *3236:Q *821:4 9.3 
2 *821:4 *2709:A1 11.3893 
3 *821:4 *3419:A 22.1214 
*END

*D_NET *822 0.00425993
*CONN
*I *2776:A1 I *D sky130_fd_sc_hd__a22o_1
*I *3323:A I *D sky130_fd_sc_hd__dlygate4sd3_1
*I *3235:Q O *D sky130_fd_sc_hd__dfxtp_1
*CAP
1 *2776:A1 0.000705722
2 *3323:A 0
3 *3235:Q 0.000343862
4 *822:12 0.00104958
5 *2776:A1 *2714:B2 6.71755e-05
6 *2776:A1 *2776:B2 5.52302e-05
7 *2776:A1 *835:8 0.000139482
8 *3102:A0 *2776:A1 0.000103958
9 *3102:A1 *2776:A1 7.75818e-05
10 *3103:A *2776:A1 8.95763e-05
11 *3105:A *2776:A1 0.000389981
12 *3130:A0 *2776:A1 2.8266e-06
13 *3224:D *2776:A1 5.33005e-05
14 *3225:D *2776:A1 5.47047e-05
15 *197:128 *2776:A1 0
16 *442:16 *2776:A1 0
17 *518:10 *2776:A1 0.000577016
18 *601:10 *822:12 0.000148449
19 *601:99 *822:12 0.000401481
*RES
1 *3235:Q *822:12 24.0679 
2 *822:12 *3323:A 9.3 
3 *822:12 *2776:A1 35.8 
*END

*D_NET *823 0.00364855
*CONN
*I *2714:A1 I *D sky130_fd_sc_hd__a22o_1
*I *3355:A I *D sky130_fd_sc_hd__dlygate4sd3_1
*I *3234:Q O *D sky130_fd_sc_hd__dfxtp_1
*CAP
1 *2714:A1 0.000794155
2 *3355:A 3.88172e-05
3 *3234:Q 0.000497886
4 *823:14 0.00133086
5 *2714:A1 *834:8 4.45307e-05
6 *3104:A0 *2714:A1 0.000100165
7 *3104:A1 *2714:A1 0.000224582
8 *3104:S *2714:A1 0.000145197
9 *3105:A *2714:A1 0.000226274
10 *3128:S *823:14 3.06878e-06
11 *3130:A1 *823:14 6.72769e-05
12 *3130:S *823:14 3.14193e-05
13 *3225:D *2714:A1 4.68707e-06
14 *202:87 *2714:A1 6.82998e-05
15 *601:12 *823:14 0
16 *601:88 *2714:A1 1.77658e-05
17 *601:99 *2714:A1 1.02911e-05
18 *601:99 *823:14 4.32721e-05
*RES
1 *3234:Q *823:14 24.5143 
2 *823:14 *3355:A 10.0321 
3 *823:14 *2714:A1 23.2107 
*END

*D_NET *824 0.00160423
*CONN
*I *3378:A I *D sky130_fd_sc_hd__dlygate4sd3_1
*I *2789:A I *D sky130_fd_sc_hd__and3_1
*I *3233:Q O *D sky130_fd_sc_hd__dfxtp_1
*CAP
1 *3378:A 0.000129567
2 *2789:A 8.95415e-05
3 *3233:Q 0.000109829
4 *824:10 0.000328937
5 *824:10 *2751:A 5.64118e-05
6 *2751:B *824:10 7.83587e-05
7 *2751:C *824:10 2.8761e-05
8 *2788:A *2789:A 0.000180073
9 *2788:A *3378:A 0.000293887
10 *2788:D *3378:A 5.71472e-05
11 *2789:C *2789:A 2.64748e-05
12 *187:64 *824:10 7.90803e-05
13 *193:131 *2789:A 2.84026e-05
14 *212:42 *824:10 5.20075e-05
15 *759:22 *824:10 6.57491e-05
*RES
1 *3233:Q *824:10 21.7643 
2 *824:10 *2789:A 11.4964 
3 *824:10 *3378:A 12.3 
*END

*D_NET *825 0.00351787
*CONN
*I *3414:A I *D sky130_fd_sc_hd__dlygate4sd3_1
*I *2751:A I *D sky130_fd_sc_hd__and3_1
*I *3232:Q O *D sky130_fd_sc_hd__dfxtp_1
*CAP
1 *3414:A 0.0001046
2 *2751:A 0.000313442
3 *3232:Q 0.000288244
4 *825:8 0.000706286
5 *3414:A *2786:A 2.89114e-05
6 *2751:C *2751:A 0.00011437
7 *2782:B *2751:A 3.79467e-05
8 *2786:B *3414:A 5.52302e-05
9 *2788:C *2751:A 0.000128146
10 *2788:C *3414:A 0.00019252
11 *176:44 *2751:A 1.27784e-05
12 *176:44 *3414:A 1.46624e-05
13 *212:42 *2751:A 0.000150452
14 *218:108 *2751:A 9.31209e-05
15 *231:14 *2751:A 6.90561e-05
16 *282:22 *825:8 0.000389879
17 *411:14 *2751:A 0
18 *527:12 *2751:A 0.000137983
19 *619:39 *2751:A 0.000337651
20 *619:39 *3414:A 0.000231349
21 *759:22 *2751:A 5.4826e-05
22 *824:10 *2751:A 5.64118e-05
*RES
1 *3232:Q *825:8 17.6214 
2 *825:8 *2751:A 32.2821 
3 *825:8 *3414:A 17.4964 
*END

*D_NET *826 0.00231738
*CONN
*I *2779:A I *D sky130_fd_sc_hd__and3_1
*I *3393:A I *D sky130_fd_sc_hd__dlygate4sd3_1
*I *3269:Q O *D sky130_fd_sc_hd__dfxtp_1
*CAP
1 *2779:A 0.000179875
2 *3393:A 0.000270793
3 *3269:Q 5.54362e-05
4 *826:8 0.000506104
5 *3393:A *2755:A1 0.000358964
6 *2682:A *2779:A 9.3231e-05
7 *2755:B1 *2779:A 0.000242938
8 *2779:C *2779:A 5.52302e-05
9 *3277:RESET_B *2779:A 5.52302e-05
10 *211:41 *2779:A 4.8936e-05
11 *619:62 *2779:A 0.000347209
12 *619:62 *826:8 0.000103437
*RES
1 *3269:Q *826:8 15.1393 
2 *826:8 *3393:A 19.4071 
3 *826:8 *2779:A 20.2286 
*END

*D_NET *827 0.00297249
*CONN
*I *2750:A1 I *D sky130_fd_sc_hd__a31o_1
*I *3337:A I *D sky130_fd_sc_hd__dlygate4sd3_1
*I *3268:Q O *D sky130_fd_sc_hd__dfxtp_1
*CAP
1 *2750:A1 0.000154814
2 *3337:A 7.27112e-05
3 *3268:Q 0.000672136
4 *827:10 0.000899661
5 *827:10 *2790:A1 5.93416e-05
6 *2629:A *827:10 0.000106111
7 *2630:S *3337:A 0.000137639
8 *2750:A2 *2750:A1 1.02504e-05
9 *2755:A2 *3337:A 0.000119977
10 *2877:B *827:10 1.98839e-05
11 *3268:D *827:10 8.4297e-05
12 *3269:D *827:10 6.58704e-05
13 *174:18 *2750:A1 1.19488e-05
14 *174:18 *827:10 1.30833e-05
15 *316:46 *827:10 0.000137639
16 *415:50 *2750:A1 0.000174237
17 *415:50 *827:10 0.000202449
18 *571:18 *827:10 3.04394e-05
*RES
1 *3268:Q *827:10 24.8536 
2 *827:10 *3337:A 15.9786 
3 *827:10 *2750:A1 17.0143 
*END

*D_NET *828 0.00405852
*CONN
*I *2773:A I *D sky130_fd_sc_hd__and3_1
*I *3460:A I *D sky130_fd_sc_hd__dlygate4sd3_1
*I *3231:Q O *D sky130_fd_sc_hd__dfxtp_1
*CAP
1 *2773:A 0.000695625
2 *3460:A 0
3 *3231:Q 0.000442123
4 *828:16 0.00113775
5 *828:16 *3413:A 7.43578e-06
6 *2622:A *2773:A 5.03677e-05
7 *2718:A2 *2773:A 0.00031306
8 *3115:A *2773:A 9.60939e-05
9 *3117:B *2773:A 0.000106849
10 *3118:A1 *828:16 9.80173e-05
11 *3227:CLK *2773:A 3.38875e-05
12 *3228:D *2773:A 0.000128585
13 *202:107 *828:16 0.000316738
14 *358:96 *828:16 3.99614e-06
15 *407:20 *2773:A 9.59532e-06
16 *430:64 *2773:A 8.73872e-05
17 *442:16 *828:16 0.000316031
18 *476:98 *2773:A 0.000129307
19 *601:42 *2773:A 6.42095e-05
20 *601:55 *2773:A 2.14658e-05
*RES
1 *3231:Q *828:16 27.8714 
2 *828:16 *3460:A 9.3 
3 *828:16 *2773:A 32.5857 
*END

*D_NET *829 0.00421018
*CONN
*I *2711:A I *D sky130_fd_sc_hd__and3_1
*I *3413:A I *D sky130_fd_sc_hd__dlygate4sd3_1
*I *3230:Q O *D sky130_fd_sc_hd__dfxtp_1
*CAP
1 *2711:A 0.000227381
2 *3413:A 0.000484747
3 *3230:Q 0.000804061
4 *829:14 0.00151619
5 *3113:A *2711:A 0
6 *3117:A *829:14 0.000150357
7 *3117:B *2711:A 0.000104469
8 *3117:B *3413:A 3.88799e-05
9 *3119:A *829:14 5.71472e-05
10 *3120:S *829:14 0.000314139
11 *3229:D *829:14 2.53061e-05
12 *285:22 *2711:A 0
13 *285:22 *3413:A 0
14 *358:79 *3413:A 5.33005e-05
15 *358:96 *3413:A 0.000279455
16 *430:8 *3413:A 2.59355e-05
17 *430:64 *3413:A 0
18 *476:98 *2711:A 1.89507e-06
19 *512:6 *829:14 0.000119483
20 *828:16 *3413:A 7.43578e-06
*RES
1 *3230:Q *829:14 25.5857 
2 *829:14 *3413:A 23.3714 
3 *829:14 *2711:A 17.8714 
*END

*D_NET *830 0.00205524
*CONN
*I *3390:A I *D sky130_fd_sc_hd__dlygate4sd3_1
*I *2768:A I *D sky130_fd_sc_hd__and3_1
*I *3229:Q O *D sky130_fd_sc_hd__dfxtp_1
*CAP
1 *3390:A 0
2 *2768:A 0.000224016
3 *3229:Q 0.00036806
4 *830:8 0.000592076
5 *3108:A *830:8 0.00014183
6 *3110:A *2768:A 9.6087e-05
7 *3112:A0 *830:8 7.84156e-05
8 *3114:A0 *830:8 5.52238e-05
9 *3117:A *830:8 9.06525e-05
10 *181:34 *2768:A 0.000148189
11 *235:20 *2768:A 7.73662e-05
12 *399:34 *830:8 0.000183324
*RES
1 *3229:Q *830:8 16.8357 
2 *830:8 *2768:A 22.4429 
3 *830:8 *3390:A 9.3 
*END

*D_NET *831 0.00367282
*CONN
*I *3386:A I *D sky130_fd_sc_hd__dlygate4sd3_1
*I *2706:A I *D sky130_fd_sc_hd__and3_1
*I *3228:Q O *D sky130_fd_sc_hd__dfxtp_1
*CAP
1 *3386:A 0.000324545
2 *2706:A 0.000133444
3 *3228:Q 0.000448543
4 *831:6 0.000906532
5 *3386:A *832:10 0.000266473
6 *3111:A *3386:A 0.000170385
7 *3111:A *831:6 0.000136958
8 *3226:CLK *2706:A 0.000241199
9 *181:34 *2706:A 5.46313e-05
10 *181:34 *3386:A 6.21521e-06
11 *192:57 *3386:A 7.36162e-05
12 *235:20 *2706:A 0.000355365
13 *395:26 *3386:A 5.33005e-05
14 *395:53 *3386:A 5.32956e-05
15 *500:131 *831:6 0.000448314
*RES
1 *3228:Q *831:6 15.175 
2 *831:6 *2706:A 22.9786 
3 *831:6 *3386:A 24.1036 
*END

*D_NET *832 0.00292324
*CONN
*I *2769:A I *D sky130_fd_sc_hd__and3_1
*I *3384:A I *D sky130_fd_sc_hd__dlygate4sd3_1
*I *3227:Q O *D sky130_fd_sc_hd__dfxtp_1
*CAP
1 *2769:A 0
2 *3384:A 0.000194485
3 *3227:Q 0.000379321
4 *832:10 0.000573806
5 *3384:A *3428:A 0
6 *2713:D *3384:A 0.000137197
7 *2769:C *832:10 1.95435e-05
8 *2770:C1 *832:10 0.000305118
9 *2800:B1 *3384:A 0.000120635
10 *3109:A1 *832:10 0.000183477
11 *3109:S *832:10 2.59355e-05
12 *3111:A *832:10 1.24368e-05
13 *3386:A *832:10 0.000266473
14 *369:74 *3384:A 9.96242e-05
15 *395:26 *832:10 0.000168334
16 *476:31 *832:10 1.00733e-05
17 *476:56 *3384:A 2.38651e-06
18 *476:56 *832:10 0.000225357
19 *500:131 *832:10 6.04503e-05
20 *505:6 *832:10 0.000138582
*RES
1 *3227:Q *832:10 20.0321 
2 *832:10 *3384:A 30.7286 
3 *832:10 *2769:A 9.3 
*END

*D_NET *833 0.00251864
*CONN
*I *2704:A1 I *D sky130_fd_sc_hd__a31o_1
*I *3428:A I *D sky130_fd_sc_hd__dlygate4sd3_1
*I *3226:Q O *D sky130_fd_sc_hd__dfxtp_1
*CAP
1 *2704:A1 0.000192681
2 *3428:A 0.000240238
3 *3226:Q 6.85863e-05
4 *833:8 0.000501505
5 *2704:A2 *2704:A1 1.89001e-05
6 *2713:A *2704:A1 4.20835e-05
7 *2713:A *3428:A 6.18969e-06
8 *2713:B *833:8 0.000223456
9 *2713:D *833:8 7.31322e-05
10 *2730:A2 *2704:A1 5.49544e-05
11 *2730:B1 *2704:A1 0.000125691
12 *2730:D1 *2704:A1 0.000123824
13 *2730:D1 *3428:A 0.000403808
14 *2769:C *3428:A 0
15 *3107:S *3428:A 0.000145405
16 *3384:A *3428:A 0
17 *190:18 *3428:A 0
18 *476:56 *3428:A 9.96242e-05
19 *603:68 *2704:A1 0.000198559
*RES
1 *3226:Q *833:8 15.9786 
2 *833:8 *3428:A 19.6214 
3 *833:8 *2704:A1 18.8893 
*END

*D_NET *834 0.00185855
*CONN
*I *3389:A I *D sky130_fd_sc_hd__dlygate4sd3_1
*I *2776:B2 I *D sky130_fd_sc_hd__a22o_1
*I *3225:Q O *D sky130_fd_sc_hd__dfxtp_1
*CAP
1 *3389:A 0.000113602
2 *2776:B2 6.88285e-05
3 *3225:Q 0.000189935
4 *834:8 0.000372365
5 *2776:B2 *2714:B2 5.33005e-05
6 *2714:A1 *834:8 4.45307e-05
7 *2776:A1 *2776:B2 5.52302e-05
8 *3101:A *3389:A 6.44788e-05
9 *3104:S *834:8 0.000272338
10 *202:87 *2776:B2 0.000163644
11 *202:87 *3389:A 5.74309e-05
12 *202:107 *2776:B2 9.25014e-06
13 *442:16 *2776:B2 0.000172894
14 *442:16 *3389:A 0.000124773
15 *445:8 *3389:A 1.30833e-05
16 *445:21 *3389:A 2.78587e-05
17 *476:98 *3389:A 5.50052e-05
*RES
1 *3225:Q *834:8 17.6214 
2 *834:8 *2776:B2 16.5857 
3 *834:8 *3389:A 17.1929 
*END

*D_NET *835 0.00134817
*CONN
*I *2714:B2 I *D sky130_fd_sc_hd__a22o_1
*I *3409:A I *D sky130_fd_sc_hd__dlygate4sd3_1
*I *3224:Q O *D sky130_fd_sc_hd__dfxtp_1
*CAP
1 *2714:B2 0.00014769
2 *3409:A 0
3 *3224:Q 0.00016914
4 *835:8 0.00031683
5 *2776:A1 *2714:B2 6.71755e-05
6 *2776:A1 *835:8 0.000139482
7 *2776:A2 *835:8 0
8 *2776:B2 *2714:B2 5.33005e-05
9 *3102:A0 *835:8 5.71472e-05
10 *202:87 *2714:B2 0.000198702
11 *445:8 *2714:B2 0.000198702
*RES
1 *3224:Q *835:8 13.1393 
2 *835:8 *3409:A 9.3 
3 *835:8 *2714:B2 22.6214 
*END

*D_NET *836 0.00274786
*CONN
*I *3457:A I *D sky130_fd_sc_hd__dlygate4sd3_1
*I *2772:A1 I *D sky130_fd_sc_hd__a31o_1
*I *3223:Q O *D sky130_fd_sc_hd__dfxtp_1
*CAP
1 *3457:A 0.000273453
2 *2772:A1 0.000720448
3 *3223:Q 0
4 *836:4 0.000993901
5 *2772:A2 *2772:A1 9.54798e-06
6 *2772:B1 *2772:A1 6.84941e-05
7 *3099:A0 *2772:A1 3.64514e-05
8 *3190:D *3457:A 1.00887e-05
9 *3223:D *2772:A1 0.000178043
10 *3466:A *3457:A 9.15842e-06
11 *3469:A *3457:A 3.26517e-05
12 *391:37 *2772:A1 1.97975e-05
13 *678:12 *3457:A 0.000114861
14 *726:20 *2772:A1 0.0001802
15 *726:20 *3457:A 4.17702e-05
16 *759:12 *3457:A 5.8996e-05
*RES
1 *3223:Q *836:4 9.3 
2 *836:4 *2772:A1 27.2643 
3 *836:4 *3457:A 22.5321 
*END

*D_NET *837 0.00253143
*CONN
*I *3400:A I *D sky130_fd_sc_hd__dlygate4sd3_1
*I *2703:A I *D sky130_fd_sc_hd__and3_1
*I *3222:Q O *D sky130_fd_sc_hd__dfxtp_1
*CAP
1 *3400:A 0.000275703
2 *2703:A 0.000297394
3 *3222:Q 0
4 *837:4 0.000573096
5 *3090:B *3400:A 0.000303839
6 *3096:S *3400:A 3.06123e-05
7 *3097:A *2703:A 0.000135028
8 *176:70 *2703:A 0.000136958
9 *177:100 *2703:A 8.08547e-05
10 *183:56 *2703:A 6.57828e-06
11 *208:18 *2703:A 0.000106403
12 *365:22 *2703:A 0.000281128
13 *380:10 *3400:A 0.000303839
*RES
1 *3222:Q *837:4 9.3 
2 *837:4 *2703:A 24.7821 
3 *837:4 *3400:A 24.1393 
*END

*D_NET *838 0.00373338
*CONN
*I *3382:A I *D sky130_fd_sc_hd__dlygate4sd3_1
*I *2786:A I *D sky130_fd_sc_hd__and3_1
*I *3221:Q O *D sky130_fd_sc_hd__dfxtp_1
*CAP
1 *3382:A 1.41579e-05
2 *2786:A 0.0011256
3 *3221:Q 0.00020901
4 *838:6 0.00134877
5 *2749:B *2786:A 2.51343e-06
6 *2786:B *2786:A 7.99111e-05
7 *2786:C *2786:A 6.20611e-05
8 *3091:S *3382:A 0
9 *3091:S *838:6 1.24368e-05
10 *3123:A0 *2786:A 9.92545e-05
11 *3125:S *2786:A 6.97609e-05
12 *3126:A *2786:A 0.000573297
13 *3126:A *3382:A 3.57366e-05
14 *3414:A *2786:A 2.89114e-05
15 *358:138 *2786:A 7.19623e-05
*RES
1 *3221:Q *838:6 12.3 
2 *838:6 *2786:A 25.6929 
3 *838:6 *3382:A 9.72857 
*END

*D_NET *839 0.00295955
*CONN
*I *3325:A I *D sky130_fd_sc_hd__dlygate4sd3_1
*I *2757:A1 I *D sky130_fd_sc_hd__a31o_1
*I *3220:Q O *D sky130_fd_sc_hd__dfxtp_1
*CAP
1 *3325:A 0.000172104
2 *2757:A1 0.000299496
3 *3220:Q 4.36033e-05
4 *839:8 0.000515203
5 *2998:A1 *2757:A1 0.000312215
6 *3006:B *2757:A1 0.00031248
7 *3093:A0 *3325:A 1.01241e-05
8 *3093:S *3325:A 0.000197269
9 *177:24 *839:8 5.33005e-05
10 *208:18 *2757:A1 0.000114053
11 *380:22 *2757:A1 0.000195547
12 *380:22 *3325:A 0.000489655
13 *384:43 *2757:A1 4.06782e-05
14 *384:43 *3325:A 3.68348e-05
15 *495:8 *3325:A 0.000166983
*RES
1 *3220:Q *839:8 14.3357 
2 *839:8 *2757:A1 22.3893 
3 *839:8 *3325:A 20.3 
*END

*D_NET *840 0.00232781
*CONN
*I *2793:A1 I *D sky130_fd_sc_hd__a22o_1
*I *3339:A I *D sky130_fd_sc_hd__dlygate4sd3_1
*I *3219:Q O *D sky130_fd_sc_hd__dfxtp_1
*CAP
1 *2793:A1 0.000261607
2 *3339:A 0
3 *3219:Q 0.000423331
4 *840:16 0.000684938
5 *2793:A2 *2793:A1 9.25014e-06
6 *3081:A0 *2793:A1 2.84009e-05
7 *3088:S *840:16 8.73737e-05
8 *376:44 *2793:A1 0.00015234
9 *483:18 *2793:A1 0
10 *486:10 *2793:A1 5.24274e-05
11 *489:8 *2793:A1 3.48705e-05
12 *489:8 *840:16 3.30352e-05
13 *602:14 *840:16 0.000560241
14 *602:86 *2793:A1 0
*RES
1 *3219:Q *840:16 18.55 
2 *840:16 *3339:A 9.3 
3 *840:16 *2793:A1 23.6214 
*END

*D_NET *841 0.00237057
*CONN
*I *2742:A1 I *D sky130_fd_sc_hd__a22o_1
*I *3399:A I *D sky130_fd_sc_hd__dlygate4sd3_1
*I *3218:Q O *D sky130_fd_sc_hd__dfxtp_1
*CAP
1 *2742:A1 0.000528285
2 *3399:A 5.16099e-05
3 *3218:Q 0.000222615
4 *841:12 0.00080251
5 *2742:A1 *2793:B2 6.93759e-05
6 *3399:A *2793:B2 0.000188586
7 *2793:A2 *2742:A1 3.50685e-05
8 *2793:B1 *2742:A1 0.000224583
9 *3081:S *841:12 9.25014e-06
10 *3086:S *841:12 3.0285e-05
11 *3088:S *841:12 2.66026e-05
12 *442:64 *841:12 0.000181796
13 *602:86 *841:12 0
*RES
1 *3218:Q *841:12 22.3179 
2 *841:12 *3399:A 11.8 
3 *841:12 *2742:A1 16.425 
*END

*D_NET *842 0.00274889
*CONN
*I *2793:B2 I *D sky130_fd_sc_hd__a22o_1
*I *3341:A I *D sky130_fd_sc_hd__dlygate4sd3_1
*I *3217:Q O *D sky130_fd_sc_hd__dfxtp_1
*CAP
1 *2793:B2 0.000268017
2 *3341:A 7.6184e-05
3 *3217:Q 0.000215339
4 *842:8 0.00055954
5 *2793:B2 *2742:B2 0.000606861
6 *2742:A1 *2793:B2 6.93759e-05
7 *2793:A2 *2793:B2 2.78444e-05
8 *2793:B1 *2793:B2 5.17614e-05
9 *3086:A0 *2793:B2 1.56e-05
10 *3086:S *2793:B2 0.000221634
11 *3086:S *842:8 3.18988e-05
12 *3087:A *2793:B2 5.17614e-05
13 *3089:A *3341:A 0.000199706
14 *3218:D *3341:A 0.000125731
15 *3399:A *2793:B2 0.000188586
16 *442:77 *3341:A 3.90513e-05
*RES
1 *3217:Q *842:8 12.3179 
2 *842:8 *3341:A 20.8536 
3 *842:8 *2793:B2 18.0679 
*END

*D_NET *843 0.00365679
*CONN
*I *3326:A I *D sky130_fd_sc_hd__dlygate4sd3_1
*I *2742:B2 I *D sky130_fd_sc_hd__a22o_1
*I *3216:Q O *D sky130_fd_sc_hd__dfxtp_1
*CAP
1 *3326:A 0
2 *2742:B2 0.000331227
3 *3216:Q 0.000691622
4 *843:18 0.00102285
5 *2793:A2 *2742:B2 0.000227539
6 *2793:B1 *2742:B2 1.74352e-05
7 *2793:B2 *2742:B2 0.000606861
8 *2794:C1 *2742:B2 5.52302e-05
9 *3063:A1 *843:18 0.000157924
10 *3089:A *843:18 0.000309018
11 *3216:CLK *843:18 5.65955e-05
12 *3219:D *843:18 0
13 *477:8 *2742:B2 5.26091e-05
14 *602:31 *843:18 3.79877e-06
15 *602:53 *843:18 0.000124083
16 *602:86 *2742:B2 0
*RES
1 *3216:Q *843:18 30.675 
2 *843:18 *2742:B2 26.8536 
3 *843:18 *3326:A 9.3 
*END

*D_NET *844 0.00160554
*CONN
*I *3426:A I *D sky130_fd_sc_hd__dlygate4sd3_1
*I *2792:A1 I *D sky130_fd_sc_hd__a22o_1
*I *3215:Q O *D sky130_fd_sc_hd__dfxtp_1
*CAP
1 *3426:A 0.000224972
2 *2792:A1 0.000500407
3 *3215:Q 0
4 *844:4 0.000725379
5 *2792:A1 *2792:B2 4.8476e-05
6 *3078:S *2792:A1 8.06331e-05
7 *3215:D *2792:A1 2.56694e-05
8 *602:101 *2792:A1 0
*RES
1 *3215:Q *844:4 9.3 
2 *844:4 *2792:A1 25.4786 
3 *844:4 *3426:A 13.0321 
*END

*D_NET *845 0.00139174
*CONN
*I *3438:A I *D sky130_fd_sc_hd__dlygate4sd3_1
*I *2743:A1 I *D sky130_fd_sc_hd__a211o_1
*I *3214:Q O *D sky130_fd_sc_hd__dfxtp_1
*CAP
1 *3438:A 7.34665e-05
2 *2743:A1 0.000180015
3 *3214:Q 0.00012613
4 *845:8 0.000379612
5 *2743:B1 *2743:A1 1.97695e-05
6 *2792:A2 *2743:A1 0.000197984
7 *2792:A2 *3438:A 0.000114759
8 *2992:A *2743:A1 6.74911e-05
9 *3076:A0 *2743:A1 4.87953e-05
10 *197:108 *845:8 0.000183713
11 *215:38 *2743:A1 0
12 *215:38 *3438:A 0
*RES
1 *3214:Q *845:8 15.5679 
2 *845:8 *2743:A1 18.1571 
3 *845:8 *3438:A 15.4429 
*END

*D_NET *846 0.00187572
*CONN
*I *3346:A I *D sky130_fd_sc_hd__dlygate4sd3_1
*I *2792:B2 I *D sky130_fd_sc_hd__a22o_1
*I *3213:Q O *D sky130_fd_sc_hd__dfxtp_1
*CAP
1 *3346:A 0.000135375
2 *2792:B2 0.000419763
3 *3213:Q 0
4 *846:4 0.000555139
5 *2792:B2 *2741:A1 0
6 *2792:A1 *2792:B2 4.8476e-05
7 *3073:A1 *2792:B2 0
8 *3074:A *2792:B2 2.09722e-05
9 *3077:A *2792:B2 4.1331e-06
10 *3078:S *2792:B2 0.000175512
11 *3215:D *2792:B2 0
12 *483:18 *2792:B2 0.000516346
*RES
1 *3213:Q *846:4 9.3 
2 *846:4 *2792:B2 28.175 
3 *846:4 *3346:A 11.8 
*END

*D_NET *847 0.00346848
*CONN
*I *3324:A I *D sky130_fd_sc_hd__dlygate4sd3_1
*I *2741:A1 I *D sky130_fd_sc_hd__a22o_1
*I *3212:Q O *D sky130_fd_sc_hd__dfxtp_1
*CAP
1 *3324:A 0.000496306
2 *2741:A1 0.000373557
3 *3212:Q 0
4 *847:4 0.000869863
5 *2741:A1 *2794:A1 9.97744e-05
6 *2741:A1 *3431:A 6.65398e-05
7 *2741:B1 *2741:A1 1.02504e-05
8 *2792:B2 *2741:A1 0
9 *3071:A0 *3324:A 0.000335916
10 *3072:A *2741:A1 0.000186669
11 *3072:A *3324:A 5.71472e-05
12 *3073:S *3324:A 0.00040279
13 *3074:A *3324:A 0.000317082
14 *3213:CLK *2741:A1 3.17163e-05
15 *3215:D *2741:A1 0
16 *602:101 *2741:A1 0.000113362
17 *602:107 *2741:A1 0.000107503
*RES
1 *3212:Q *847:4 9.3 
2 *847:4 *2741:A1 27.7821 
3 *847:4 *3324:A 21.3536 
*END

*D_NET *848 0.00253969
*CONN
*I *3452:A I *D sky130_fd_sc_hd__dlygate4sd3_1
*I *2802:A1 I *D sky130_fd_sc_hd__a21o_1
*I *3267:Q O *D sky130_fd_sc_hd__dfxtp_1
*CAP
1 *3452:A 3.55437e-05
2 *2802:A1 0.000104052
3 *3267:Q 0.000507625
4 *848:8 0.000647221
5 *2623:A0 *848:8 6.13757e-06
6 *2801:B1 *848:8 0.000302793
7 *2802:A2 *2802:A1 0.000259669
8 *2802:A2 *3452:A 0.000126416
9 *3267:CLK *2802:A1 5.36422e-05
10 *3267:CLK *3452:A 0.000117257
11 *3267:D *2802:A1 0.000157442
12 *174:112 *848:8 0.000221894
*RES
1 *3267:Q *848:8 20.0857 
2 *848:8 *2802:A1 17.2643 
3 *848:8 *3452:A 15.4429 
*END

*D_NET *849 0.00158085
*CONN
*I *2721:A1 I *D sky130_fd_sc_hd__a22o_1
*I *3456:A I *D sky130_fd_sc_hd__dlygate4sd3_1
*I *3266:Q O *D sky130_fd_sc_hd__dfxtp_1
*CAP
1 *2721:A1 0.00040551
2 *3456:A 0.000107584
3 *3266:Q 0.000105183
4 *849:6 0.000618277
5 *2722:A2 *3456:A 0.000164692
6 *2722:A2 *849:6 4.44527e-05
7 *2729:B1 *2721:A1 0.0001249
8 *3189:CLK *2721:A1 0
9 *3267:CLK *2721:A1 0
10 *212:91 *2721:A1 1.02504e-05
11 *350:118 *2721:A1 0
*RES
1 *3266:Q *849:6 10.6571 
2 *849:6 *3456:A 11.8 
3 *849:6 *2721:A1 24.4964 
*END

*D_NET *850 0.00209687
*CONN
*I *3376:A I *D sky130_fd_sc_hd__dlygate4sd3_1
*I *2781:A I *D sky130_fd_sc_hd__and3_1
*I *3211:Q O *D sky130_fd_sc_hd__dfxtp_1
*CAP
1 *3376:A 0.000143882
2 *2781:A 0.000263905
3 *3211:Q 6.59684e-05
4 *850:8 0.000473755
5 *2781:A *882:8 3.22964e-05
6 *2987:A1 *2781:A 0.000101545
7 *3069:A *3376:A 0.000225609
8 *3239:CLK *850:8 9.90367e-05
9 *419:14 *2781:A 0.000114651
10 *419:14 *3376:A 4.16114e-05
11 *774:92 *2781:A 0.000410604
12 *774:92 *3376:A 0.00012401
*RES
1 *3211:Q *850:8 14.7464 
2 *850:8 *2781:A 20.8536 
3 *850:8 *3376:A 17.6214 
*END

*D_NET *851 0.00421794
*CONN
*I *3421:A I *D sky130_fd_sc_hd__dlygate4sd3_1
*I *2753:A I *D sky130_fd_sc_hd__and3_1
*I *3210:Q O *D sky130_fd_sc_hd__dfxtp_1
*CAP
1 *3421:A 0.000240871
2 *2753:A 0.00103522
3 *3210:Q 0
4 *851:4 0.00127609
5 *2553:A0 *2753:A 0.000313474
6 *2553:S *2753:A 8.77219e-05
7 *2554:A *2753:A 0.000513175
8 *211:10 *2753:A 0
9 *215:68 *2753:A 0.000390154
10 *774:76 *3421:A 0.000141941
11 *818:8 *2753:A 0.000219289
*RES
1 *3210:Q *851:4 9.3 
2 *851:4 *2753:A 37.5143 
3 *851:4 *3421:A 13.7464 
*END

*D_NET *852 0.00253956
*CONN
*I *3431:A I *D sky130_fd_sc_hd__dlygate4sd3_1
*I *2794:A1 I *D sky130_fd_sc_hd__a211o_1
*I *3209:Q O *D sky130_fd_sc_hd__dfxtp_1
*CAP
1 *3431:A 0.000266349
2 *2794:A1 0.000249657
3 *3209:Q 0.000372565
4 *852:10 0.000888571
5 *2794:A1 *3420:A 0.000175512
6 *852:10 *3420:A 2.59355e-05
7 *2741:A1 *2794:A1 9.97744e-05
8 *2741:A1 *3431:A 6.65398e-05
9 *2741:B1 *2794:A1 0.000177948
10 *2794:B1 *2794:A1 0
11 *3061:A0 *852:10 5.23057e-05
12 *3061:S *2794:A1 0
13 *3061:S *852:10 9.90367e-05
14 *442:108 *852:10 3.22663e-05
15 *477:8 *2794:A1 0
16 *602:86 *2794:A1 0
17 *602:101 *2794:A1 0
18 *602:101 *3431:A 1.97695e-05
19 *602:107 *3431:A 1.33343e-05
*RES
1 *3209:Q *852:10 20.1036 
2 *852:10 *2794:A1 19.0857 
3 *852:10 *3431:A 18.4786 
*END

*D_NET *853 0.00186614
*CONN
*I *2741:B2 I *D sky130_fd_sc_hd__a22o_1
*I *3420:A I *D sky130_fd_sc_hd__dlygate4sd3_1
*I *3208:Q O *D sky130_fd_sc_hd__dfxtp_1
*CAP
1 *2741:B2 0
2 *3420:A 0.000134457
3 *3208:Q 0.000403741
4 *853:10 0.000538199
5 *2741:A2 *853:10 0
6 *2794:A1 *3420:A 0.000175512
7 *3061:S *3420:A 6.17134e-05
8 *3063:A1 *853:10 0.000272603
9 *3063:S *853:10 0.00018372
10 *442:108 *3420:A 7.02611e-05
11 *852:10 *3420:A 2.59355e-05
*RES
1 *3208:Q *853:10 16.7464 
2 *853:10 *3420:A 21.9071 
3 *853:10 *2741:B2 9.3 
*END

*D_NET *854 0.00292091
*CONN
*I *3433:A I *D sky130_fd_sc_hd__dlygate4sd3_1
*I *2766:A1 I *D sky130_fd_sc_hd__a221o_1
*I *3207:Q O *D sky130_fd_sc_hd__dfxtp_1
*CAP
1 *3433:A 0.000495644
2 *2766:A1 0.000795691
3 *3207:Q 0
4 *854:4 0.00129133
5 *2766:A1 *2766:B2 1.64202e-05
6 *3433:A *3446:A 0
7 *2766:B1 *2766:A1 2.59355e-05
8 *3053:A0 *2766:A1 3.10499e-05
9 *3053:A0 *3433:A 6.44139e-06
10 *3053:A1 *3433:A 0.000131534
11 *3053:S *2766:A1 1.24368e-05
12 *3053:S *3433:A 6.60945e-05
13 *3055:A1 *3433:A 0
14 *3207:D *2766:A1 1.64343e-05
15 *595:97 *2766:A1 3.1891e-05
16 *607:12 *3433:A 0
*RES
1 *3207:Q *854:4 9.3 
2 *854:4 *2766:A1 19.9607 
3 *854:4 *3433:A 25.9071 
*END

*D_NET *855 0.00281102
*CONN
*I *3446:A I *D sky130_fd_sc_hd__dlygate4sd3_1
*I *2697:A1 I *D sky130_fd_sc_hd__a221o_1
*I *3206:Q O *D sky130_fd_sc_hd__dfxtp_1
*CAP
1 *3446:A 0.000515716
2 *2697:A1 0.000351407
3 *3206:Q 0
4 *855:4 0.000867122
5 *2697:A1 *2697:B2 6.26774e-06
6 *2697:B1 *2697:A1 2.59355e-05
7 *2697:C1 *2697:A1 3.8017e-05
8 *3055:S *3446:A 0.00016362
9 *3433:A *3446:A 0
10 *432:81 *2697:A1 3.01245e-06
11 *471:10 *3446:A 0.000146208
12 *595:82 *2697:A1 0.000223675
13 *595:82 *3446:A 0.000470044
*RES
1 *3206:Q *855:4 9.3 
2 *855:4 *2697:A1 13.9607 
3 *855:4 *3446:A 27.0143 
*END

*D_NET *856 0.00233657
*CONN
*I *3335:A I *D sky130_fd_sc_hd__dlygate4sd3_1
*I *2765:A1 I *D sky130_fd_sc_hd__a22o_1
*I *3205:Q O *D sky130_fd_sc_hd__dfxtp_1
*CAP
1 *3335:A 0.000698163
2 *2765:A1 0.000153731
3 *3205:Q 0.000106788
4 *856:6 0.000958682
5 *2765:A1 *2765:B2 1.94098e-05
6 *3335:A *3416:A 0.000113295
7 *3335:A *858:6 0
8 *2765:B1 *2765:A1 1.04232e-05
9 *3050:A1 *3335:A 7.45454e-05
10 *3203:CLK *3335:A 5.91336e-05
11 *3203:CLK *856:6 3.67142e-05
12 *3203:D *2765:A1 0.000105689
13 *595:97 *2765:A1 0
*RES
1 *3205:Q *856:6 10.6571 
2 *856:6 *2765:A1 21.5857 
3 *856:6 *3335:A 18.3714 
*END

*D_NET *857 0.00170662
*CONN
*I *3415:A I *D sky130_fd_sc_hd__dlygate4sd3_1
*I *2696:A1 I *D sky130_fd_sc_hd__a22o_1
*I *3204:Q O *D sky130_fd_sc_hd__dfxtp_1
*CAP
1 *3415:A 0.000155554
2 *2696:A1 4.89098e-05
3 *3204:Q 0.000207035
4 *857:12 0.000411498
5 *2696:A2 *2696:A1 1.21258e-05
6 *2696:A2 *3415:A 1.62817e-05
7 *2696:B1 *2696:A1 1.24368e-05
8 *2697:C1 *3415:A 0.000310605
9 *2698:C1 *2696:A1 5.74499e-06
10 *2698:C1 *3415:A 9.86486e-06
11 *2765:B1 *857:12 0.000126989
12 *3015:A0 *857:12 3.14003e-05
13 *3048:A1 *3415:A 3.11088e-05
14 *3048:A1 *857:12 0.000147784
15 *430:116 *2696:A1 5.33005e-05
16 *430:116 *3415:A 3.49456e-06
17 *430:141 *857:12 0.00012249
*RES
1 *3204:Q *857:12 23.0143 
2 *857:12 *2696:A1 10.2464 
3 *857:12 *3415:A 13.1393 
*END

*D_NET *858 0.00189519
*CONN
*I *3416:A I *D sky130_fd_sc_hd__dlygate4sd3_1
*I *2766:B2 I *D sky130_fd_sc_hd__a221o_1
*I *3203:Q O *D sky130_fd_sc_hd__dfxtp_1
*CAP
1 *3416:A 0.000347351
2 *2766:B2 0.000178341
3 *3203:Q 3.82418e-05
4 *858:6 0.000563934
5 *2766:B2 *2697:B2 0.000378751
6 *2766:A1 *2766:B2 1.64202e-05
7 *3046:A *2766:B2 0
8 *3050:A1 *2766:B2 0
9 *3050:A1 *3416:A 5.33005e-05
10 *3335:A *3416:A 0.000113295
11 *3335:A *858:6 0
12 *430:155 *2766:B2 0
13 *465:12 *2766:B2 0.000191725
14 *595:97 *2766:B2 1.38323e-05
*RES
1 *3203:Q *858:6 10.0321 
2 *858:6 *2766:B2 23.5679 
3 *858:6 *3416:A 15.5857 
*END

*D_NET *859 0.00242939
*CONN
*I *3453:A I *D sky130_fd_sc_hd__dlygate4sd3_1
*I *2697:B2 I *D sky130_fd_sc_hd__a221o_1
*I *3202:Q O *D sky130_fd_sc_hd__dfxtp_1
*CAP
1 *3453:A 0.000189838
2 *2697:B2 0.000518139
3 *3202:Q 4.59903e-05
4 *859:8 0.000753968
5 *2697:A1 *2697:B2 6.26774e-06
6 *2697:B1 *2697:B2 9.15842e-06
7 *2697:C1 *2697:B2 1.37018e-05
8 *2766:B2 *2697:B2 0.000378751
9 *2766:C1 *2697:B2 0.000148514
10 *3043:A0 *2697:B2 2.26432e-05
11 *3044:A *2697:B2 0.000175795
12 *3046:A *2697:B2 0
13 *3202:D *2697:B2 1.24368e-05
14 *465:12 *2697:B2 7.44817e-05
15 *595:82 *2697:B2 7.97067e-05
*RES
1 *3202:Q *859:8 10.2643 
2 *859:8 *2697:B2 30.8759 
3 *859:8 *3453:A 12.7107 
*END

*D_NET *860 0.00275308
*CONN
*I *2765:B2 I *D sky130_fd_sc_hd__a22o_1
*I *3461:A I *D sky130_fd_sc_hd__dlygate4sd3_1
*I *3201:Q O *D sky130_fd_sc_hd__dfxtp_1
*CAP
1 *2765:B2 0.000613239
2 *3461:A 0.000325443
3 *3201:Q 0
4 *860:4 0.000938683
5 *3461:A *861:14 0.000185408
6 *2765:A1 *2765:B2 1.94098e-05
7 *2765:B1 *2765:B2 9.47975e-05
8 *3038:A0 *3461:A 0.000132413
9 *3041:A *3461:A 0.000294217
10 *3204:D *2765:B2 7.99677e-06
11 *3204:D *3461:A 0
12 *3205:CLK *3461:A 5.66157e-05
13 *430:116 *3461:A 5.89247e-05
14 *604:156 *2765:B2 2.59355e-05
*RES
1 *3201:Q *860:4 9.3 
2 *860:4 *3461:A 26.1929 
3 *860:4 *2765:B2 17.1393 
*END

*D_NET *861 0.0022833
*CONN
*I *2696:B2 I *D sky130_fd_sc_hd__a22o_1
*I *3344:A I *D sky130_fd_sc_hd__dlygate4sd3_1
*I *3200:Q O *D sky130_fd_sc_hd__dfxtp_1
*CAP
1 *2696:B2 7.26449e-05
2 *3344:A 0
3 *3200:Q 0.000387252
4 *861:14 0.000459897
5 *3038:A0 *861:14 2.38501e-05
6 *3039:A *861:14 0.000289389
7 *3041:A *861:14 7.68793e-05
8 *3201:D *861:14 0.00012401
9 *3461:A *861:14 0.000185408
10 *430:116 *2696:B2 0.000171274
11 *430:116 *861:14 0.000404439
12 *462:10 *861:14 8.82593e-05
*RES
1 *3200:Q *861:14 29.1571 
2 *861:14 *3344:A 9.3 
3 *861:14 *2696:B2 11.0679 
*END

*D_NET *862 0.0015071
*CONN
*I *3336:A I *D sky130_fd_sc_hd__dlygate4sd3_1
*I *2767:A1 I *D sky130_fd_sc_hd__a211o_1
*I *3199:Q O *D sky130_fd_sc_hd__dfxtp_1
*CAP
1 *3336:A 0.000165251
2 *2767:A1 6.22213e-05
3 *3199:Q 0.000126254
4 *862:8 0.000353726
5 *2692:A2 *2767:A1 0.000145922
6 *2692:A2 *3336:A 0.000208209
7 *2698:C1 *2767:A1 0.000122942
8 *2698:C1 *3336:A 9.15842e-06
9 *3037:A *2767:A1 0
10 *3038:A1 *3336:A 5.10039e-05
11 *3040:A0 *3336:A 2.09722e-05
12 *3040:A1 *3336:A 4.84073e-05
13 *3040:S *3336:A 1.02301e-05
14 *432:133 *862:8 0.000182799
*RES
1 *3199:Q *862:8 15.5679 
2 *862:8 *2767:A1 15.7464 
3 *862:8 *3336:A 18.0321 
*END

*D_NET *863 0.00208429
*CONN
*I *2692:A1 I *D sky130_fd_sc_hd__a22o_1
*I *3427:A I *D sky130_fd_sc_hd__dlygate4sd3_1
*I *3198:Q O *D sky130_fd_sc_hd__dfxtp_1
*CAP
1 *2692:A1 8.05918e-05
2 *3427:A 0.000188103
3 *3198:Q 0.00018124
4 *863:10 0.000449935
5 *2692:B1 *2692:A1 0.00024307
6 *2692:B1 *3427:A 0.000284087
7 *3023:S *863:10 8.67634e-05
8 *3031:A *2692:A1 4.12276e-05
9 *3036:A *3427:A 1.33343e-05
10 *442:108 *3427:A 0.000126419
11 *442:119 *863:10 9.41642e-05
12 *445:106 *2692:A1 0.000155693
13 *445:106 *3427:A 3.14003e-05
14 *445:106 *863:10 5.33005e-05
15 *453:12 *863:10 5.4959e-05
*RES
1 *3198:Q *863:10 17.6393 
2 *863:10 *3427:A 18.8357 
3 *863:10 *2692:A1 16.9607 
*END

*D_NET *864 0.00362787
*CONN
*I *3320:A I *D sky130_fd_sc_hd__dlygate4sd3_1
*I *2764:A1 I *D sky130_fd_sc_hd__a22o_1
*I *3197:Q O *D sky130_fd_sc_hd__dfxtp_1
*CAP
1 *3320:A 0.000566122
2 *2764:A1 0.000427968
3 *3197:Q 0.00016106
4 *864:8 0.00115515
5 *2764:A1 *2764:B2 0
6 *3028:A0 *3320:A 0
7 *3029:A *2764:A1 0
8 *3029:A *3320:A 0
9 *3030:A0 *2764:A1 0.000333952
10 *3030:A0 *3320:A 0.000719063
11 *3035:A1 *2764:A1 2.55698e-05
12 *3200:CLK *864:8 5.07121e-05
13 *456:10 *2764:A1 0.000188274
14 *604:40 *2764:A1 0
15 *604:92 *2764:A1 0
*RES
1 *3197:Q *864:8 15.5679 
2 *864:8 *2764:A1 23.0321 
3 *864:8 *3320:A 25.1036 
*END

*D_NET *865 0.00279703
*CONN
*I *3436:A I *D sky130_fd_sc_hd__dlygate4sd3_1
*I *2698:A1 I *D sky130_fd_sc_hd__a211o_1
*I *3196:Q O *D sky130_fd_sc_hd__dfxtp_1
*CAP
1 *3436:A 0.00024523
2 *2698:A1 0.000536336
3 *3196:Q 5.00727e-05
4 *865:8 0.000831638
5 *2698:B1 *2698:A1 0.000543645
6 *2767:B1 *2698:A1 2.84026e-05
7 *3028:A0 *2698:A1 0.000291682
8 *3028:A0 *3436:A 0.000159811
9 *3030:A0 *2698:A1 0
10 *3030:A0 *865:8 5.33433e-05
11 *183:22 *2698:A1 5.68722e-05
*RES
1 *3196:Q *865:8 14.7464 
2 *865:8 *2698:A1 26.3 
3 *865:8 *3436:A 18.425 
*END

*D_NET *866 0.00377427
*CONN
*I *3458:A I *D sky130_fd_sc_hd__dlygate4sd3_1
*I *2764:B2 I *D sky130_fd_sc_hd__a22o_1
*I *3195:Q O *D sky130_fd_sc_hd__dfxtp_1
*CAP
1 *3458:A 0.000260858
2 *2764:B2 0.000382583
3 *3195:Q 0.000269429
4 *866:8 0.00091287
5 *2692:B1 *2764:B2 0.000252135
6 *2764:A1 *2764:B2 0
7 *3025:A0 *3458:A 0
8 *3029:A *2764:B2 7.83587e-05
9 *3029:A *3458:A 0.00027338
10 *3036:A *2764:B2 0.000149365
11 *3196:CLK *2764:B2 2.04825e-05
12 *3196:CLK *3458:A 0.000236806
13 *3197:CLK *866:8 1.92789e-05
14 *3197:D *866:8 5.52238e-05
15 *3199:D *2764:B2 3.50522e-05
16 *181:134 *2764:B2 0.000139208
17 *604:40 *2764:B2 0.000193849
18 *604:49 *2764:B2 0.000249497
19 *604:92 *2764:B2 0.000136498
20 *604:98 *2764:B2 0.000109392
*RES
1 *3195:Q *866:8 16.8 
2 *866:8 *2764:B2 25.05 
3 *866:8 *3458:A 19.925 
*END

*D_NET *867 0.00158479
*CONN
*I *2692:B2 I *D sky130_fd_sc_hd__a22o_1
*I *3434:A I *D sky130_fd_sc_hd__dlygate4sd3_1
*I *3194:Q O *D sky130_fd_sc_hd__dfxtp_1
*CAP
1 *2692:B2 5.27637e-05
2 *3434:A 0.000166187
3 *3194:Q 0.000125449
4 *867:10 0.0003444
5 *2692:A2 *3434:A 0
6 *2692:B1 *3434:A 0
7 *3023:A0 *3434:A 9.10431e-06
8 *3024:A *3434:A 0.000125724
9 *3025:A0 *2692:B2 3.18676e-05
10 *3025:A0 *3434:A 0.000320031
11 *3025:A0 *867:10 5.17614e-05
12 *3025:A1 *867:10 3.57366e-05
13 *3026:A *3434:A 0
14 *3026:A *867:10 1.72894e-05
15 *445:89 *867:10 0.000244114
16 *445:106 *2692:B2 4.4545e-05
17 *445:106 *867:10 1.58163e-05
*RES
1 *3194:Q *867:10 13.1571 
2 *867:10 *3434:A 23.1036 
3 *867:10 *2692:B2 10.6571 
*END

*D_NET *868 0.00292281
*CONN
*I *3449:A I *D sky130_fd_sc_hd__dlygate4sd3_1
*I *2774:A1 I *D sky130_fd_sc_hd__a31o_1
*I *3193:Q O *D sky130_fd_sc_hd__dfxtp_1
*CAP
1 *3449:A 0.000158716
2 *2774:A1 0.000274834
3 *3193:Q 0.000246424
4 *868:6 0.000679975
5 *3080:A *2774:A1 4.26759e-05
6 *3193:D *3449:A 0.000124521
7 *3193:D *868:6 0.000353079
8 *181:32 *3449:A 0.000121953
9 *209:18 *2774:A1 0.000176204
10 *235:20 *2774:A1 0.000607322
11 *399:34 *2774:A1 1.6806e-05
12 *399:34 *3449:A 0.000120299
*RES
1 *3193:Q *868:6 12.7107 
2 *868:6 *2774:A1 26.3179 
3 *868:6 *3449:A 21.3 
*END

*D_NET *869 0.00214724
*CONN
*I *3394:A I *D sky130_fd_sc_hd__dlygate4sd3_1
*I *2712:A1 I *D sky130_fd_sc_hd__a31o_1
*I *3192:Q O *D sky130_fd_sc_hd__dfxtp_1
*CAP
1 *3394:A 0.000155419
2 *2712:A1 0.000275948
3 *3192:Q 7.73739e-05
4 *869:8 0.000508741
5 *3018:A0 *3394:A 0.000230568
6 *3018:A1 *3394:A 4.01528e-05
7 *3019:A *3394:A 1.19813e-05
8 *3020:S *869:8 0
9 *202:77 *2712:A1 9.84729e-05
10 *285:22 *2712:A1 0.000196184
11 *285:22 *869:8 5.75957e-05
12 *450:6 *3394:A 0.000348865
13 *474:49 *3394:A 0.000145935
*RES
1 *3192:Q *869:8 15.4429 
2 *869:8 *2712:A1 19.7286 
3 *869:8 *3394:A 19.2821 
*END

*D_NET *870 0.00553143
*CONN
*I *2805:B2 I *D sky130_fd_sc_hd__a22o_1
*I *3367:A I *D sky130_fd_sc_hd__dlygate4sd3_1
*I *3265:Q O *D sky130_fd_sc_hd__dfxtp_1
*CAP
1 *2805:B2 0.0015032
2 *3367:A 1.65889e-05
3 *3265:Q 0.000290817
4 *870:10 0.00181061
5 *2605:A1 *2805:B2 0.000268521
6 *2608:S *2805:B2 0
7 *2610:A1 *2805:B2 0
8 *2610:S *2805:B2 0
9 *2618:A0 *2805:B2 4.25809e-05
10 *2620:S *2805:B2 0
11 *2620:S *870:10 0
12 *2798:B1 *2805:B2 0
13 *2896:A *3367:A 2.85321e-05
14 *3259:D *2805:B2 0
15 *3265:CLK *2805:B2 0
16 *3265:CLK *870:10 0
17 *181:50 *2805:B2 0.000552565
18 *316:70 *2805:B2 5.10215e-05
19 *316:72 *2805:B2 2.79092e-05
20 *316:78 *2805:B2 0.000168125
21 *316:89 *2805:B2 0.000129314
22 *345:79 *3367:A 2.89114e-05
23 *358:22 *2805:B2 0
24 *511:30 *2805:B2 0.000266092
25 *527:26 *2805:B2 0.000314114
26 *527:40 *2805:B2 0
27 *599:14 *2805:B2 0
28 *600:26 *2805:B2 0
29 *693:32 *870:10 3.25229e-05
30 *748:24 *2805:B2 0
*RES
1 *3265:Q *870:10 17.925 
2 *870:10 *3367:A 14.3357 
3 *870:10 *2805:B2 46.175 
*END

*D_NET *871 0.00167816
*CONN
*I *2727:A1 I *D sky130_fd_sc_hd__a22o_1
*I *3358:A I *D sky130_fd_sc_hd__dlygate4sd3_1
*I *3264:Q O *D sky130_fd_sc_hd__dfxtp_1
*CAP
1 *2727:A1 0.000129786
2 *3358:A 0
3 *3264:Q 0.000477988
4 *871:10 0.000607773
5 *2618:A1 *2727:A1 0
6 *2619:A *2727:A1 0
7 *2727:B2 *2727:A1 2.24904e-05
8 *2727:B2 *871:10 1.50223e-05
9 *2805:B1 *2727:A1 0
10 *3264:D *871:10 0.000272756
11 *345:79 *2727:A1 0.00015234
*RES
1 *3264:Q *871:10 21.2821 
2 *871:10 *3358:A 13.8 
3 *871:10 *2727:A1 16.6571 
*END

*D_NET *872 0.00299532
*CONN
*I *3398:A I *D sky130_fd_sc_hd__dlygate4sd3_1
*I *2771:A I *D sky130_fd_sc_hd__and3_1
*I *3191:Q O *D sky130_fd_sc_hd__dfxtp_1
*CAP
1 *3398:A 0.000218949
2 *2771:A 0.000522281
3 *3191:Q 0
4 *872:4 0.00074123
5 *2905:A *2771:A 0.000362373
6 *3015:A1 *2771:A 0.000126963
7 *3015:S *2771:A 0.000363475
8 *3096:A0 *2771:A 5.50052e-05
9 *194:26 *2771:A 5.66971e-05
10 *194:41 *2771:A 9.8126e-05
11 *202:8 *2771:A 0.000151861
12 *202:14 *2771:A 2.74395e-05
13 *321:22 *3398:A 0.000102676
14 *759:12 *2771:A 0.000168242
*RES
1 *3191:Q *872:4 9.3 
2 *872:4 *2771:A 32.6214 
3 *872:4 *3398:A 12.7286 
*END

*D_NET *873 0.00184318
*CONN
*I *2708:A I *D sky130_fd_sc_hd__and3_1
*I *3402:A I *D sky130_fd_sc_hd__dlygate4sd3_1
*I *3190:Q O *D sky130_fd_sc_hd__dfxtp_1
*CAP
1 *2708:A 7.87598e-05
2 *3402:A 0
3 *3190:Q 0.000315713
4 *873:14 0.000394473
5 *3058:A *2708:A 1.05731e-05
6 *3468:A *873:14 5.49489e-05
7 *194:26 *873:14 5.02646e-05
8 *336:25 *873:14 1.00073e-05
9 *352:34 *2708:A 0.000277216
10 *352:34 *873:14 9.41642e-05
11 *403:28 *873:14 8.38264e-05
12 *403:49 *873:14 0.000115446
13 *447:12 *2708:A 0.000261978
14 *447:12 *873:14 9.58126e-05
*RES
1 *3190:Q *873:14 23.4786 
2 *873:14 *3402:A 9.3 
3 *873:14 *2708:A 12.6214 
*END

*D_NET *874 0.0032365
*CONN
*I *2795:A I *D sky130_fd_sc_hd__and3_1
*I *3371:A I *D sky130_fd_sc_hd__dlygate4sd3_1
*I *3189:Q O *D sky130_fd_sc_hd__dfxtp_1
*CAP
1 *2795:A 0.00028014
2 *3371:A 6.45103e-05
3 *3189:Q 0.000171762
4 *874:8 0.000516413
5 *2795:A *2796:A1 0.00026432
6 *2795:A *3397:A 4.08637e-05
7 *2748:A1 *3371:A 1.18064e-05
8 *2796:A2 *2795:A 0.00030693
9 *3007:A0 *2795:A 0.000126566
10 *3007:A0 *874:8 9.90431e-05
11 *3007:A1 *3371:A 0.000174805
12 *3007:S *3371:A 0.000127439
13 *3008:A *874:8 5.52238e-05
14 *207:90 *3371:A 3.67548e-05
15 *212:65 *2795:A 0.000101271
16 *212:67 *2795:A 0.000299993
17 *212:71 *2795:A 0.000349895
18 *212:91 *2795:A 9.49989e-05
19 *212:91 *874:8 0.000102676
20 *231:26 *2795:A 1.10868e-05
*RES
1 *3189:Q *874:8 13.0321 
2 *874:8 *3371:A 20.8536 
3 *874:8 *2795:A 19.0143 
*END

*D_NET *875 0.00174469
*CONN
*I *3375:A I *D sky130_fd_sc_hd__dlygate4sd3_1
*I *2744:A I *D sky130_fd_sc_hd__and3_1
*I *3188:Q O *D sky130_fd_sc_hd__dfxtp_1
*CAP
1 *3375:A 0.000363227
2 *2744:A 2.23854e-05
3 *3188:Q 0.000205521
4 *875:6 0.000591133
5 *2744:C *3375:A 0.00012377
6 *2799:C1 *3375:A 3.93986e-05
7 *3188:CLK *3375:A 2.14658e-05
8 *3188:CLK *875:6 0.000137437
9 *3220:CLK *2744:A 0
10 *3220:CLK *3375:A 0.000141734
11 *231:38 *3375:A 5.64029e-05
12 *600:109 *3375:A 4.22142e-05
*RES
1 *3188:Q *875:6 11.8893 
2 *875:6 *2744:A 9.72857 
3 *875:6 *3375:A 23.7643 
*END

*D_NET *876 0.00360766
*CONN
*I *3319:A I *D sky130_fd_sc_hd__dlygate4sd3_1
*I *2775:A1 I *D sky130_fd_sc_hd__a22o_1
*I *3187:Q O *D sky130_fd_sc_hd__dfxtp_1
*CAP
1 *3319:A 0.000470906
2 *2775:A1 0.000466987
3 *3187:Q 0
4 *876:4 0.000937893
5 *2775:A2 *2775:A1 4.93029e-05
6 *3002:A *3319:A 0.000270257
7 *3003:A1 *2775:A1 0
8 *3003:S *3319:A 0.000444213
9 *3176:CLK *2775:A1 1.98839e-05
10 *3186:D *2775:A1 0
11 *3187:CLK *3319:A 7.44547e-05
12 *181:16 *2775:A1 8.22793e-06
13 *181:134 *2775:A1 0.000112439
14 *190:18 *2775:A1 0
15 *190:18 *3319:A 0.000125731
16 *207:12 *2775:A1 0.000139907
17 *207:39 *2775:A1 4.44237e-05
18 *365:64 *2775:A1 0.00022266
19 *424:22 *2775:A1 4.68841e-05
20 *590:246 *2775:A1 0
21 *604:10 *2775:A1 4.43898e-05
22 *604:12 *3319:A 3.17684e-05
23 *604:14 *3319:A 1.58163e-05
24 *604:40 *2775:A1 8.15095e-05
*RES
1 *3187:Q *876:4 9.3 
2 *876:4 *2775:A1 28.8536 
3 *876:4 *3319:A 27.5857 
*END

*D_NET *877 0.00382514
*CONN
*I *3360:A I *D sky130_fd_sc_hd__dlygate4sd3_1
*I *2717:A1 I *D sky130_fd_sc_hd__a22o_1
*I *3186:Q O *D sky130_fd_sc_hd__dfxtp_1
*CAP
1 *3360:A 0.000854195
2 *2717:A1 0.000687896
3 *3186:Q 0
4 *877:4 0.00154209
5 *3001:A0 *3360:A 0.000113067
6 *3001:A1 *3360:A 4.3041e-05
7 *3001:S *3360:A 5.33005e-05
8 *3002:A *3360:A 0.00014285
9 *3308:A *3360:A 1.40306e-05
10 *3309:A *3360:A 1.90303e-05
11 *207:39 *2717:A1 0.000219268
12 *207:47 *2717:A1 2.36784e-05
13 *208:139 *2717:A1 3.57366e-05
14 *603:8 *2717:A1 3.00145e-05
15 *603:8 *3360:A 4.69463e-05
*RES
1 *3186:Q *877:4 9.3 
2 *877:4 *2717:A1 18.2643 
3 *877:4 *3360:A 22.7286 
*END

*D_NET *878 0.000926735
*CONN
*I *2782:A I *D sky130_fd_sc_hd__and3_1
*I *3370:A I *D sky130_fd_sc_hd__dlygate4sd3_1
*I *3185:Q O *D sky130_fd_sc_hd__dfxtp_1
*CAP
1 *2782:A 7.31286e-05
2 *3370:A 3.26257e-05
3 *3185:Q 4.38994e-05
4 *878:8 0.000149654
5 *3370:A *2752:A1 9.41642e-05
6 *878:8 *2752:A1 8.00806e-05
7 *2752:A3 *3370:A 5.33005e-05
8 *2752:C1 *3370:A 1.98839e-05
9 *177:28 *2782:A 3.67356e-05
10 *177:28 *878:8 2.82057e-05
11 *218:112 *2782:A 0.000113038
12 *218:124 *2782:A 3.34366e-05
13 *218:124 *878:8 0.000125724
14 *411:14 *2782:A 1.31516e-05
15 *619:39 *2782:A 2.97074e-05
*RES
1 *3185:Q *878:8 15.4429 
2 *878:8 *3370:A 14.7464 
3 *878:8 *2782:A 16.05 
*END

*D_NET *879 0.00323038
*CONN
*I *2752:A1 I *D sky130_fd_sc_hd__a311o_1
*I *3408:A I *D sky130_fd_sc_hd__dlygate4sd3_1
*I *3184:Q O *D sky130_fd_sc_hd__dfxtp_1
*CAP
1 *2752:A1 0.000352429
2 *3408:A 0.000187587
3 *3184:Q 5.78887e-05
4 *879:8 0.000597904
5 *2752:A3 *2752:A1 8.58028e-05
6 *2752:C1 *2752:A1 6.09569e-05
7 *2996:A0 *3408:A 0.000313051
8 *2996:A1 *3408:A 0.000191583
9 *2996:S *3408:A 0.000346482
10 *2998:S *2752:A1 0
11 *3370:A *2752:A1 9.41642e-05
12 *177:28 *2752:A1 0.000136618
13 *177:28 *879:8 0.000122477
14 *218:124 *2752:A1 2.87085e-05
15 *218:124 *879:8 5.91386e-05
16 *241:32 *3408:A 0.000272174
17 *419:57 *3408:A 0.000135719
18 *619:39 *3408:A 0.000107617
19 *878:8 *2752:A1 8.00806e-05
*RES
1 *3184:Q *879:8 15.4429 
2 *879:8 *3408:A 21.7286 
3 *879:8 *2752:A1 20.9786 
*END

*D_NET *880 0.00257214
*CONN
*I *3443:A I *D sky130_fd_sc_hd__dlygate4sd3_1
*I *2775:B2 I *D sky130_fd_sc_hd__a22o_1
*I *3183:Q O *D sky130_fd_sc_hd__dfxtp_1
*CAP
1 *3443:A 0.000251989
2 *2775:B2 0.000384624
3 *3183:Q 0
4 *880:6 0.000636613
5 *2993:A0 *2775:B2 0.000178119
6 *2993:A0 *3443:A 7.29667e-05
7 *2993:A1 *2775:B2 0.000127446
8 *2993:A1 *3443:A 0.00020455
9 *3186:D *2775:B2 0.000203946
10 *181:32 *2775:B2 0.000198741
11 *181:134 *3443:A 0
12 *208:106 *2775:B2 2.09826e-05
13 *421:32 *2775:B2 2.65075e-05
14 *424:22 *2775:B2 0
15 *430:95 *3443:A 0.000177948
16 *442:108 *3443:A 5.52302e-05
17 *603:21 *2775:B2 3.24771e-05
*RES
1 *3183:Q *880:6 13.8 
2 *880:6 *2775:B2 23.3893 
3 *880:6 *3443:A 19.9607 
*END

*D_NET *881 0.00160898
*CONN
*I *3425:A I *D sky130_fd_sc_hd__dlygate4sd3_1
*I *2717:B2 I *D sky130_fd_sc_hd__a22o_1
*I *3182:Q O *D sky130_fd_sc_hd__dfxtp_1
*CAP
1 *3425:A 7.83854e-05
2 *2717:B2 0.000162355
3 *3182:Q 5.83463e-05
4 *881:10 0.000299087
5 *2991:A1 *2717:B2 7.16452e-05
6 *3022:A *2717:B2 0.000139913
7 *3022:A *3425:A 0.000169359
8 *3032:A *881:10 0.000175519
9 *181:32 *3425:A 1.92905e-05
10 *197:108 *2717:B2 1.82549e-05
11 *197:108 *3425:A 2.97829e-05
12 *208:139 *2717:B2 0.000128161
13 *421:32 *881:10 9.24395e-05
14 *433:10 *2717:B2 0.00015234
15 *445:89 *2717:B2 1.41029e-05
*RES
1 *3182:Q *881:10 20.55 
2 *881:10 *2717:B2 22.8536 
3 *881:10 *3425:A 11.4964 
*END

*D_NET *882 0.00275509
*CONN
*I *3380:A I *D sky130_fd_sc_hd__dlygate4sd3_1
*I *2785:A I *D sky130_fd_sc_hd__and3_1
*I *3181:Q O *D sky130_fd_sc_hd__dfxtp_1
*CAP
1 *3380:A 0.000245764
2 *2785:A 0.000210511
3 *3181:Q 0.000118387
4 *882:8 0.000574662
5 *2781:A *882:8 3.22964e-05
6 *2987:A0 *2785:A 4.18895e-05
7 *3068:A0 *2785:A 0.000153054
8 *3068:A0 *3380:A 0.000241665
9 *3238:CLK *3380:A 0.000437762
10 *191:10 *2785:A 1.08359e-05
11 *419:14 *2785:A 0.000173797
12 *419:14 *3380:A 0.000246064
13 *430:30 *2785:A 0.000268403
*RES
1 *3181:Q *882:8 15.1571 
2 *882:8 *2785:A 19.05 
3 *882:8 *3380:A 21.1929 
*END

*D_NET *883 0.00201818
*CONN
*I *3403:A I *D sky130_fd_sc_hd__dlygate4sd3_1
*I *2754:A I *D sky130_fd_sc_hd__and3_1
*I *3180:Q O *D sky130_fd_sc_hd__dfxtp_1
*CAP
1 *3403:A 0.000276646
2 *2754:A 0.000595976
3 *3180:Q 0
4 *883:4 0.000872622
5 *2754:C *2754:A 1.95435e-05
6 *2984:S *2754:A 3.18676e-05
7 *419:57 *2754:A 0.00022152
*RES
1 *3180:Q *883:4 9.3 
2 *883:4 *2754:A 18.8893 
3 *883:4 *3403:A 22.0143 
*END

*D_NET *884 0.00404373
*CONN
*I *3363:A I *D sky130_fd_sc_hd__dlygate4sd3_1
*I *2790:A1 I *D sky130_fd_sc_hd__a31o_1
*I *3179:Q O *D sky130_fd_sc_hd__dfxtp_1
*CAP
1 *3363:A 0
2 *2790:A1 0.000891509
3 *3179:Q 0.000168905
4 *884:10 0.00106041
5 *2630:S *2790:A1 9.58632e-05
6 *2631:A *2790:A1 0.000314225
7 *2790:A2 *2790:A1 5.50052e-05
8 *2877:B *2790:A1 0.000217698
9 *3179:D *2790:A1 2.27416e-05
10 *3179:D *884:10 0.000141611
11 *3268:CLK *2790:A1 5.58104e-05
12 *3268:D *2790:A1 1.64343e-05
13 *215:86 *2790:A1 9.58689e-05
14 *254:28 *2790:A1 0.000171355
15 *281:24 *2790:A1 0.000104253
16 *316:46 *2790:A1 0.00027514
17 *328:149 *2790:A1 0.000148444
18 *532:18 *2790:A1 5.49489e-05
19 *571:18 *2790:A1 9.41642e-05
20 *827:10 *2790:A1 5.93416e-05
*RES
1 *3179:Q *884:10 13.2643 
2 *884:10 *2790:A1 38.1214 
3 *884:10 *3363:A 9.3 
*END

*D_NET *885 0.00234437
*CONN
*I *2755:A1 I *D sky130_fd_sc_hd__a31o_1
*I *3331:A I *D sky130_fd_sc_hd__dlygate4sd3_1
*I *3178:Q O *D sky130_fd_sc_hd__dfxtp_1
*CAP
1 *2755:A1 0.000585327
2 *3331:A 0
3 *3178:Q 0.000174802
4 *885:10 0.000760129
5 *2984:A1 *2755:A1 9.87041e-05
6 *2985:A *2755:A1 0.000266284
7 *3393:A *2755:A1 0.000358964
8 *593:57 *885:10 0.000100165
*RES
1 *3178:Q *885:10 16.6929 
2 *885:10 *3331:A 13.8 
3 *885:10 *2755:A1 26.8357 
*END

*D_NET *886 0.00410675
*CONN
*I *3359:A I *D sky130_fd_sc_hd__dlygate4sd3_1
*I *2770:A1 I *D sky130_fd_sc_hd__a311o_1
*I *3177:Q O *D sky130_fd_sc_hd__dfxtp_1
*CAP
1 *3359:A 0.000288229
2 *2770:A1 0.000914257
3 *3177:Q 7.5262e-05
4 *886:10 0.00127775
5 *3359:A *887:10 6.57032e-05
6 *2770:A3 *2770:A1 4.82865e-05
7 *2770:B1 *2770:A1 5.46383e-06
8 *2778:A *2770:A1 6.88121e-05
9 *2778:B *2770:A1 2.68481e-05
10 *2778:C *2770:A1 2.592e-05
11 *2778:D *2770:A1 3.09889e-05
12 *2974:A0 *2770:A1 7.70035e-05
13 *3001:A1 *2770:A1 9.54121e-05
14 *3001:A1 *3359:A 8.33079e-05
15 *190:18 *2770:A1 0
16 *190:18 *3359:A 0
17 *207:12 *3359:A 0.000390584
18 *321:34 *2770:A1 2.06112e-05
19 *369:74 *2770:A1 0.000560244
20 *376:44 *886:10 5.20669e-05
*RES
1 *3177:Q *886:10 15.175 
2 *886:10 *2770:A1 29.8714 
3 *886:10 *3359:A 19.8714 
*END

*D_NET *887 0.00482375
*CONN
*I *3322:A I *D sky130_fd_sc_hd__dlygate4sd3_1
*I *2707:A1 I *D sky130_fd_sc_hd__a31o_1
*I *3176:Q O *D sky130_fd_sc_hd__dfxtp_1
*CAP
1 *3322:A 0
2 *2707:A1 0.000673164
3 *3176:Q 0.0001752
4 *887:10 0.000848364
5 *2777:A2 *2707:A1 5.37721e-05
6 *2973:B *2707:A1 0.000784606
7 *2974:A0 *2707:A1 0.000315114
8 *2974:S *2707:A1 6.83393e-05
9 *2975:A *2707:A1 0.00030899
10 *2976:S *2707:A1 0.000121411
11 *2976:S *887:10 0.000135912
12 *3017:B *2707:A1 0
13 *3027:A *2707:A1 4.45694e-05
14 *3027:A *887:10 0.000146053
15 *3359:A *887:10 6.57032e-05
16 *207:86 *2707:A1 1.85992e-05
17 *209:18 *2707:A1 0.000219733
18 *321:28 *2707:A1 0.000177545
19 *345:16 *2707:A1 1.45957e-05
20 *345:30 *2707:A1 4.15938e-05
21 *395:26 *2707:A1 0.000414227
22 *422:8 *2707:A1 0.000175892
23 *603:31 *2707:A1 2.03618e-05
*RES
1 *3176:Q *887:10 17.1036 
2 *887:10 *2707:A1 42.4429 
3 *887:10 *3322:A 13.8 
*END

*D_NET *888 0.00380424
*CONN
*I *2809:A1 I *D sky130_fd_sc_hd__a22o_1
*I *3357:A I *D sky130_fd_sc_hd__dlygate4sd3_1
*I *3175:Q O *D sky130_fd_sc_hd__dfxtp_1
*CAP
1 *2809:A1 0.000529873
2 *3357:A 0.000414983
3 *3175:Q 0.00023702
4 *888:8 0.00118188
5 *2809:A1 *2809:B2 4.35482e-05
6 *2809:A2 *2809:A1 0.000141729
7 *2879:A *2809:A1 6.47912e-05
8 *2879:A *3357:A 2.97756e-05
9 *2879:A *888:8 6.61173e-05
10 *2919:A0 *2809:A1 0.000128154
11 *2954:A0 *2809:A1 5.33005e-05
12 *2968:A1 *2809:A1 0
13 *2969:A *2809:A1 0
14 *3175:CLK *3357:A 2.44318e-05
15 *3175:D *3357:A 0.000398125
16 *300:20 *2809:A1 5.74499e-06
17 *351:22 *2809:A1 0.000145564
18 *351:24 *2809:A1 0.000223592
19 *416:12 *2809:A1 0.00011561
*RES
1 *3175:Q *888:8 16.8 
2 *888:8 *3357:A 21.9786 
3 *888:8 *2809:A1 25.425 
*END

*D_NET *889 0.00187171
*CONN
*I *3450:A I *D sky130_fd_sc_hd__dlygate4sd3_1
*I *2732:A1 I *D sky130_fd_sc_hd__a221o_1
*I *3174:Q O *D sky130_fd_sc_hd__dfxtp_1
*CAP
1 *3450:A 0
2 *2732:A1 0.000253495
3 *3174:Q 0.000381172
4 *889:14 0.000634667
5 *2732:A1 *2732:B2 1.64621e-05
6 *889:14 *920:8 1.50179e-05
7 *2732:A2 *2732:A1 7.8076e-05
8 *2732:C1 *2732:A1 9.28639e-05
9 *2732:C1 *889:14 0.000139202
10 *2879:A *889:14 8.38962e-05
11 *2919:A0 *889:14 9.83388e-05
12 *2966:A1 *889:14 7.85137e-05
13 *2967:A *889:14 0
*RES
1 *3174:Q *889:14 25.4964 
2 *889:14 *2732:A1 14.425 
3 *889:14 *3450:A 9.3 
*END

*D_NET *890 0.00196491
*CONN
*I *2810:A1 I *D sky130_fd_sc_hd__a221o_1
*I *3333:A I *D sky130_fd_sc_hd__dlygate4sd3_1
*I *3173:Q O *D sky130_fd_sc_hd__dfxtp_1
*CAP
1 *2810:A1 0.000151171
2 *3333:A 3.73841e-05
3 *3173:Q 0.000364759
4 *890:12 0.000553314
5 *890:12 *3445:A 0.000394559
6 *2810:A2 *2810:A1 3.28686e-05
7 *2810:B1 *2810:A1 6.05161e-06
8 *2962:A0 *2810:A1 6.96817e-05
9 *2962:A0 *3333:A 9.80173e-05
10 *2963:A *2810:A1 9.41642e-05
11 *350:42 *890:12 2.28598e-05
12 *351:16 *890:12 9.91086e-05
13 *356:14 *890:12 3.2534e-05
14 *359:96 *2810:A1 8.43535e-06
*RES
1 *3173:Q *890:12 23.8714 
2 *890:12 *3333:A 10.675 
3 *890:12 *2810:A1 12.3 
*END

*D_NET *891 0.00353077
*CONN
*I *3445:A I *D sky130_fd_sc_hd__dlygate4sd3_1
*I *2737:A1 I *D sky130_fd_sc_hd__a22o_1
*I *3172:Q O *D sky130_fd_sc_hd__dfxtp_1
*CAP
1 *3445:A 0.000191421
2 *2737:A1 0.000584723
3 *3172:Q 2.22847e-05
4 *891:6 0.00079843
5 *2737:A2 *2737:A1 0.000364166
6 *2738:C *2737:A1 9.90367e-05
7 *2963:A *3445:A 6.53781e-05
8 *3172:D *2737:A1 8.63855e-05
9 *187:98 *2737:A1 2.14757e-05
10 *232:14 *2737:A1 5.71472e-05
11 *300:20 *3445:A 3.51442e-05
12 *350:42 *2737:A1 0.000269385
13 *350:42 *3445:A 0.000423866
14 *356:14 *3445:A 0.000117369
15 *890:12 *3445:A 0.000394559
*RES
1 *3172:Q *891:6 9.72857 
2 *891:6 *2737:A1 20.925 
3 *891:6 *3445:A 25.3893 
*END

*D_NET *892 0.00215439
*CONN
*I *2804:A1 I *D sky130_fd_sc_hd__a21o_1
*I *3455:A I *D sky130_fd_sc_hd__dlygate4sd3_1
*I *3263:Q O *D sky130_fd_sc_hd__dfxtp_1
*CAP
1 *2804:A1 9.9279e-05
2 *3455:A 2.23854e-05
3 *3263:Q 0.000555393
4 *892:8 0.000677057
5 *2557:B *892:8 0.000252371
6 *2611:A *2804:A1 0.00010096
7 *2804:B1 *2804:A1 0.000139913
8 *2808:A2 *2804:A1 1.54142e-05
9 *2808:A2 *3455:A 0
10 *2808:A2 *892:8 0.000129595
11 *3263:CLK *2804:A1 3.48705e-05
12 *3263:CLK *892:8 3.23989e-05
13 *3263:D *892:8 9.47506e-05
*RES
1 *3263:Q *892:8 18.8893 
2 *892:8 *3455:A 9.72857 
3 *892:8 *2804:A1 11.8893 
*END

*D_NET *893 0.00885153
*CONN
*I *2760:A1 I *D sky130_fd_sc_hd__a311o_1
*I *3366:A I *D sky130_fd_sc_hd__dlygate4sd3_1
*I *3262:Q O *D sky130_fd_sc_hd__dfxtp_1
*CAP
1 *2760:A1 0
2 *3366:A 0
3 *3262:Q 0.000266436
4 *893:35 0.00240431
5 *893:12 0.00267074
6 *893:35 *918:6 8.87062e-05
7 *2805:B1 *893:12 0.000151333
8 *2808:A2 *893:12 0
9 *2819:A1 *893:35 1.97695e-05
10 *2819:A2 *893:35 7.35119e-05
11 *2887:A *893:35 0.000225609
12 *2888:A1 *893:35 0.000306311
13 *2935:B *893:35 0.000168394
14 *3149:CLK *893:35 0.000400023
15 *3149:D *893:35 0.000100695
16 *3260:CLK *893:35 0.000657852
17 *3261:D *893:35 3.06878e-06
18 *231:116 *893:35 0.000311933
19 *371:79 *893:12 8.35655e-05
20 *600:37 *893:35 0.000817931
21 *737:34 *893:35 0
22 *759:34 *893:35 0.000101341
*RES
1 *3262:Q *893:12 22.8357 
2 *893:12 *3366:A 9.3 
3 *893:12 *893:35 46.3929 
4 *893:35 *2760:A1 9.3 
*END

*D_NET *894 0.00183802
*CONN
*I *2810:B2 I *D sky130_fd_sc_hd__a221o_1
*I *3350:A I *D sky130_fd_sc_hd__dlygate4sd3_1
*I *3171:Q O *D sky130_fd_sc_hd__dfxtp_1
*CAP
1 *2810:B2 0.000487995
2 *3350:A 0
3 *3171:Q 0.000153934
4 *894:10 0.000641929
5 *2639:A *2810:B2 0
6 *2641:A *2810:B2 0
7 *2810:B1 *2810:B2 5.7661e-06
8 *2954:A1 *894:10 2.11336e-05
9 *300:20 *2810:B2 0
10 *350:20 *2810:B2 0.000312475
11 *351:150 *2810:B2 9.91086e-05
12 *359:96 *2810:B2 0.000115678
13 *592:28 *2810:B2 0
14 *592:87 *2810:B2 0
15 *592:102 *2810:B2 0
*RES
1 *3171:Q *894:10 16.2821 
2 *894:10 *3350:A 13.8 
3 *894:10 *2810:B2 24.1616 
*END

*D_NET *895 0.00220819
*CONN
*I *2731:A1 I *D sky130_fd_sc_hd__a22o_1
*I *3342:A I *D sky130_fd_sc_hd__dlygate4sd3_1
*I *3170:Q O *D sky130_fd_sc_hd__dfxtp_1
*CAP
1 *2731:A1 0.000610721
2 *3342:A 0
3 *3170:Q 0.000228268
4 *895:10 0.000838989
5 *2731:A1 *2731:B2 0.000108752
6 *2731:A2 *2731:A1 9.75679e-05
7 *2809:B1 *2731:A1 3.11088e-05
8 *2956:A1 *2731:A1 0.000100165
9 *2957:A *2731:A1 5.33005e-05
10 *3283:D *2731:A1 9.84673e-05
11 *693:24 *2731:A1 4.08545e-05
*RES
1 *3170:Q *895:10 17.1036 
2 *895:10 *3342:A 13.8 
3 *895:10 *2731:A1 25.4071 
*END

*D_NET *896 0.00167016
*CONN
*I *3401:A I *D sky130_fd_sc_hd__dlygate4sd3_1
*I *2815:A1 I *D sky130_fd_sc_hd__a22o_1
*I *3169:Q O *D sky130_fd_sc_hd__dfxtp_1
*CAP
1 *3401:A 0
2 *2815:A1 0.000275329
3 *3169:Q 0.000283797
4 *896:12 0.000559126
5 *896:12 *2732:B2 0
6 *2732:B1 *896:12 0
7 *2740:A1 *896:12 0.000149637
8 *2900:A1 *896:12 0
9 *2938:A1 *2815:A1 1.19813e-05
10 *2950:S *2815:A1 0.000147921
11 *372:14 *2815:A1 4.88284e-05
12 *374:18 *2815:A1 0.000181107
13 *374:20 *2815:A1 1.24368e-05
*RES
1 *3169:Q *896:12 23.6393 
2 *896:12 *2815:A1 23.9786 
3 *896:12 *3401:A 9.3 
*END

*D_NET *897 0.00196737
*CONN
*I *3395:A I *D sky130_fd_sc_hd__dlygate4sd3_1
*I *2737:B2 I *D sky130_fd_sc_hd__a22o_1
*I *3168:Q O *D sky130_fd_sc_hd__dfxtp_1
*CAP
1 *3395:A 0.000251447
2 *2737:B2 0.000142381
3 *3168:Q 2.88423e-05
4 *897:6 0.00042267
5 *2948:A0 *3395:A 0.000226274
6 *2950:S *2737:B2 7.24409e-05
7 *3150:CLK *2737:B2 0
8 *3172:D *3395:A 4.93118e-06
9 *187:100 *2737:B2 5.33005e-05
10 *328:20 *2737:B2 4.15161e-05
11 *369:132 *3395:A 0.000265445
12 *369:132 *897:6 3.50746e-05
13 *372:14 *2737:B2 0.000213719
14 *605:18 *3395:A 0.000209326
*RES
1 *3168:Q *897:6 10.0321 
2 *897:6 *2737:B2 21.6929 
3 *897:6 *3395:A 15.9964 
*END

*D_NET *898 0.00315505
*CONN
*I *3447:A I *D sky130_fd_sc_hd__dlygate4sd3_1
*I *2812:A1 I *D sky130_fd_sc_hd__a221o_1
*I *3167:Q O *D sky130_fd_sc_hd__dfxtp_1
*CAP
1 *3447:A 0.000148909
2 *2812:A1 0.000431772
3 *3167:Q 0
4 *898:6 0.000580681
5 *2736:A2 *2812:A1 0.000173182
6 *2812:A2 *2812:A1 0.000122168
7 *2816:A *2812:A1 9.87672e-05
8 *2819:A1 *3447:A 0.000175892
9 *2942:A1 *2812:A1 0.0001827
10 *2942:S *2812:A1 9.36336e-05
11 *2942:S *3447:A 7.54156e-05
12 *187:96 *3447:A 0
13 *231:116 *2812:A1 5.10822e-05
14 *232:14 *2812:A1 0.000139787
15 *351:95 *2812:A1 0.000268403
16 *351:114 *2812:A1 8.88834e-05
17 *400:6 *3447:A 0.000175892
18 *590:86 *3447:A 0.000210191
19 *590:92 *2812:A1 0.000102545
20 *590:92 *3447:A 3.51442e-05
*RES
1 *3167:Q *898:6 13.8 
2 *898:6 *2812:A1 25.5857 
3 *898:6 *3447:A 18.7286 
*END

*D_NET *899 0.00226233
*CONN
*I *3424:A I *D sky130_fd_sc_hd__dlygate4sd3_1
*I *2736:A1 I *D sky130_fd_sc_hd__a22o_1
*I *3166:Q O *D sky130_fd_sc_hd__dfxtp_1
*CAP
1 *3424:A 3.58421e-05
2 *2736:A1 0.000418121
3 *3166:Q 0.000174653
4 *899:10 0.000628617
5 *2738:A *2736:A1 7.65658e-05
6 *2817:B1 *2736:A1 0.000309266
7 *325:16 *2736:A1 0.000103267
8 *325:16 *899:10 0.000185297
9 *351:95 *3424:A 1.04232e-05
10 *590:92 *899:10 1.90303e-05
11 *605:8 *2736:A1 0.000103267
12 *605:8 *899:10 0.000197977
*RES
1 *3166:Q *899:10 17.3 
2 *899:10 *2736:A1 21.425 
3 *899:10 *3424:A 14.5321 
*END

*D_NET *900 0.00171947
*CONN
*I *2813:A1 I *D sky130_fd_sc_hd__a22o_1
*I *3417:A I *D sky130_fd_sc_hd__dlygate4sd3_1
*I *3165:Q O *D sky130_fd_sc_hd__dfxtp_1
*CAP
1 *2813:A1 0.000248264
2 *3417:A 0
3 *3165:Q 0.000215482
4 *900:12 0.000463746
5 *2813:A1 *2735:B2 3.45899e-05
6 *2813:A1 *2813:B2 0.000208347
7 *2813:A1 *906:10 9.15842e-06
8 *2813:B1 *2813:A1 3.46034e-05
9 *2921:A0 *2813:A1 5.27018e-05
10 *2921:A0 *900:12 0
11 *2938:A0 *900:12 5.50052e-05
12 *2938:S *2813:A1 5.49995e-05
13 *2938:S *900:12 0.000313215
14 *693:32 *2813:A1 2.93632e-05
*RES
1 *3165:Q *900:12 22.9429 
2 *900:12 *3417:A 9.3 
3 *900:12 *2813:A1 23.8893 
*END

*D_NET *901 0.00302833
*CONN
*I *2733:A1 I *D sky130_fd_sc_hd__a22o_1
*I *3321:A I *D sky130_fd_sc_hd__dlygate4sd3_1
*I *3164:Q O *D sky130_fd_sc_hd__dfxtp_1
*CAP
1 *2733:A1 0.000359486
2 *3321:A 0
3 *3164:Q 0.00045323
4 *901:16 0.000812716
5 *2733:A1 *2733:B2 7.03393e-05
6 *2733:A1 *2734:A1 5.33334e-05
7 *2733:A1 *905:12 2.44318e-05
8 *901:16 *906:10 0.000150625
9 *2733:A2 *2733:A1 0.000227532
10 *2733:B1 *2733:A1 0.00010096
11 *2734:B1 *2733:A1 0.000182694
12 *2919:A1 *901:16 5.80706e-06
13 *2919:S *901:16 0
14 *2920:A *901:16 1.72894e-05
15 *2921:A1 *2733:A1 1.33343e-05
16 *2921:A1 *901:16 7.03393e-05
17 *2921:S *2733:A1 1.54142e-05
18 *2921:S *901:16 0.000142856
19 *2937:A *901:16 5.30637e-06
20 *3158:D *901:16 0
21 *385:16 *2733:A1 0.000322639
*RES
1 *3164:Q *901:16 27.55 
2 *901:16 *3321:A 9.3 
3 *901:16 *2733:A1 18.0679 
*END

*D_NET *902 0.00200036
*CONN
*I *3388:A I *D sky130_fd_sc_hd__dlygate4sd3_1
*I *2811:A1 I *D sky130_fd_sc_hd__a22o_1
*I *3163:Q O *D sky130_fd_sc_hd__dfxtp_1
*CAP
1 *3388:A 0
2 *2811:A1 7.3389e-05
3 *3163:Q 0.000240227
4 *902:8 0.000313616
5 *2811:A2 *902:8 7.65719e-05
6 *2932:A0 *902:8 0.00022459
7 *2932:S *902:8 0.000352053
8 *371:79 *902:8 3.37729e-05
9 *374:76 *2811:A1 0.000190141
10 *374:76 *902:8 0.000130079
11 *374:90 *902:8 2.28499e-05
12 *606:27 *2811:A1 0.000160372
13 *606:27 *902:8 0.0001827
*RES
1 *3163:Q *902:8 17.1393 
2 *902:8 *2811:A1 12.4607 
3 *902:8 *3388:A 9.3 
*END

*D_NET *903 0.00126686
*CONN
*I *3392:A I *D sky130_fd_sc_hd__dlygate4sd3_1
*I *2735:A1 I *D sky130_fd_sc_hd__a22o_1
*I *3162:Q O *D sky130_fd_sc_hd__dfxtp_1
*CAP
1 *3392:A 0.000307322
2 *2735:A1 2.23854e-05
3 *3162:Q 0.000131004
4 *903:6 0.000460712
5 *903:6 *2735:B2 3.18676e-05
6 *2735:A2 *3392:A 1.39726e-05
7 *2735:A2 *903:6 4.70078e-05
8 *2738:A *3392:A 2.80341e-05
9 *2893:A *3392:A 2.89114e-05
10 *208:20 *3392:A 0.000128154
11 *385:10 *3392:A 6.74911e-05
*RES
1 *3162:Q *903:6 11.0679 
2 *903:6 *2735:A1 9.72857 
3 *903:6 *3392:A 22.9429 
*END

*D_NET *904 0.00381612
*CONN
*I *2812:B2 I *D sky130_fd_sc_hd__a221o_1
*I *3353:A I *D sky130_fd_sc_hd__dlygate4sd3_1
*I *3161:Q O *D sky130_fd_sc_hd__dfxtp_1
*CAP
1 *2812:B2 0.00121227
2 *3353:A 5.59217e-05
3 *3161:Q 0.000158346
4 *904:12 0.00142654
5 *2733:B1 *2812:B2 0
6 *2812:B1 *2812:B2 2.85551e-05
7 *2812:C1 *2812:B2 2.85551e-05
8 *2816:A *2812:B2 0.000114403
9 *2816:C *2812:B2 0.000331488
10 *2892:A1 *2812:B2 3.92854e-05
11 *2904:A *2812:B2 0
12 *2904:A *904:12 0
13 *2924:A0 *2812:B2 0
14 *2926:A0 *904:12 2.79092e-05
15 *2926:S *2812:B2 0
16 *2926:S *904:12 0
17 *2951:A *2812:B2 7.95153e-05
18 *3160:CLK *3353:A 0.000142856
19 *3160:D *2812:B2 3.2534e-05
20 *3161:CLK *904:12 2.27416e-05
21 *3168:D *2812:B2 4.79773e-05
22 *351:114 *2812:B2 6.19181e-05
23 *388:8 *2812:B2 0
24 *605:29 *2812:B2 0
25 *605:31 *2812:B2 0
26 *605:37 *904:12 5.30637e-06
27 *715:58 *2812:B2 0
*RES
1 *3161:Q *904:12 16.5143 
2 *904:12 *3353:A 15.1571 
3 *904:12 *2812:B2 36.0679 
*END

*D_NET *905 0.00199043
*CONN
*I *2734:A1 I *D sky130_fd_sc_hd__a21o_1
*I *3412:A I *D sky130_fd_sc_hd__dlygate4sd3_1
*I *3160:Q O *D sky130_fd_sc_hd__dfxtp_1
*CAP
1 *2734:A1 0.000239088
2 *3412:A 0
3 *3160:Q 0.000252106
4 *905:12 0.000491194
5 *2734:A1 *2733:B2 9.25014e-06
6 *905:12 *2733:B2 0
7 *2733:A1 *2734:A1 5.33334e-05
8 *2733:A1 *905:12 2.44318e-05
9 *2733:A2 *2734:A1 1.69115e-05
10 *2734:B1 *2734:A1 0.000170104
11 *2919:S *905:12 3.57844e-05
12 *2936:S *905:12 9.56968e-05
13 *369:104 *905:12 0.00025263
14 *385:10 *2734:A1 0.000122359
15 *385:16 *905:12 0.000227539
16 *388:8 *2734:A1 0
*RES
1 *3160:Q *905:12 24.9607 
2 *905:12 *3412:A 9.3 
3 *905:12 *2734:A1 24.5321 
*END

*D_NET *906 0.00237163
*CONN
*I *2813:B2 I *D sky130_fd_sc_hd__a22o_1
*I *3348:A I *D sky130_fd_sc_hd__dlygate4sd3_1
*I *3159:Q O *D sky130_fd_sc_hd__dfxtp_1
*CAP
1 *2813:B2 0.000120345
2 *3348:A 0.000157905
3 *3159:Q 0.00043523
4 *906:10 0.00071348
5 *2733:A2 *3348:A 0.000139344
6 *2813:A1 *2813:B2 0.000208347
7 *2813:A1 *906:10 9.15842e-06
8 *2921:A0 *906:10 0
9 *2921:A1 *906:10 0
10 *2936:S *3348:A 0.00021044
11 *2937:A *906:10 1.88619e-05
12 *2938:A1 *3348:A 2.24804e-05
13 *2938:S *3348:A 0.000185408
14 *369:104 *906:10 0
15 *901:16 *906:10 0.000150625
*RES
1 *3159:Q *906:10 20.4607 
2 *906:10 *3348:A 18.0321 
3 *906:10 *2813:B2 16.6571 
*END

*D_NET *907 0.00342982
*CONN
*I *2733:B2 I *D sky130_fd_sc_hd__a22o_1
*I *3327:A I *D sky130_fd_sc_hd__dlygate4sd3_1
*I *3158:Q O *D sky130_fd_sc_hd__dfxtp_1
*CAP
1 *2733:B2 0.000544047
2 *3327:A 0.000270947
3 *3158:Q 0.000466279
4 *907:8 0.00128127
5 *2733:A1 *2733:B2 7.03393e-05
6 *2733:A2 *2733:B2 0.000229456
7 *2733:B1 *2733:B2 1.74352e-05
8 *2734:A1 *2733:B2 9.25014e-06
9 *2926:S *2733:B2 0.000121169
10 *2926:S *3327:A 9.74027e-05
11 *2927:A *3327:A 0.000106455
12 *2936:A0 *2733:B2 0
13 *2936:S *2733:B2 0
14 *2951:A *2733:B2 1.7859e-05
15 *3161:CLK *907:8 0.00012389
16 *3161:D *907:8 1.32552e-05
17 *388:8 *2733:B2 6.07626e-05
18 *905:12 *2733:B2 0
*RES
1 *3158:Q *907:8 19.675 
2 *907:8 *3327:A 19.8536 
3 *907:8 *2733:B2 25.3714 
*END

*D_NET *908 0.00218905
*CONN
*I *3423:A I *D sky130_fd_sc_hd__dlygate4sd3_1
*I *2798:A1 I *D sky130_fd_sc_hd__a32o_1
*I *3157:Q O *D sky130_fd_sc_hd__dfxtp_1
*CAP
1 *3423:A 0.000164829
2 *2798:A1 0.000608597
3 *3157:Q 0
4 *908:4 0.000773426
5 *2572:A *2798:A1 5.42243e-05
6 *2572:A *3423:A 0.000171888
7 *2798:A3 *2798:A1 4.84159e-05
8 *2914:A *2798:A1 3.54697e-06
9 *2916:A *2798:A1 4.01978e-05
10 *3156:D *2798:A1 0.000181899
11 *395:57 *2798:A1 9.15842e-06
12 *600:18 *2798:A1 1.92789e-05
13 *600:66 *2798:A1 9.88016e-05
14 *600:81 *2798:A1 1.47872e-05
*RES
1 *3157:Q *908:4 9.3 
2 *908:4 *2798:A1 27.7286 
3 *908:4 *3423:A 13.0321 
*END

*D_NET *909 0.0024869
*CONN
*I *3437:A I *D sky130_fd_sc_hd__dlygate4sd3_1
*I *2747:A1 I *D sky130_fd_sc_hd__a32o_1
*I *3156:Q O *D sky130_fd_sc_hd__dfxtp_1
*CAP
1 *3437:A 0.000183613
2 *2747:A1 0.000420591
3 *3156:Q 0
4 *909:4 0.000604205
5 *2747:B1 *2747:A1 0.000136422
6 *2747:B2 *2747:A1 5.49489e-05
7 *2798:A2 *2747:A1 1.00733e-05
8 *2915:A0 *2747:A1 0
9 *2916:A *2747:A1 3.2062e-05
10 *174:83 *2747:A1 0.000140243
11 *174:104 *2747:A1 4.60232e-06
12 *183:75 *3437:A 5.86649e-05
13 *212:142 *2747:A1 0.000321243
14 *316:60 *2747:A1 0.000357466
15 *316:60 *3437:A 0.000127779
16 *369:28 *3437:A 3.4983e-05
*RES
1 *3156:Q *909:4 9.3 
2 *909:4 *2747:A1 27.3357 
3 *909:4 *3437:A 21.3 
*END

*D_NET *910 0.00148948
*CONN
*I *3397:A I *D sky130_fd_sc_hd__dlygate4sd3_1
*I *2796:A1 I *D sky130_fd_sc_hd__a31o_1
*I *3155:Q O *D sky130_fd_sc_hd__dfxtp_1
*CAP
1 *3397:A 5.51605e-05
2 *2796:A1 7.2901e-05
3 *3155:Q 8.11797e-05
4 *910:10 0.000209241
5 *2744:B *910:10 0.000241191
6 *2795:A *2796:A1 0.00026432
7 *2795:A *3397:A 4.08637e-05
8 *2796:B1 *2796:A1 9.83388e-05
9 *183:75 *910:10 0.000242899
10 *212:65 *3397:A 3.97677e-05
11 *231:26 *2796:A1 2.36643e-05
12 *380:38 *2796:A1 5.42547e-05
13 *380:38 *3397:A 6.57032e-05
*RES
1 *3155:Q *910:10 21.4607 
2 *910:10 *2796:A1 11.8893 
3 *910:10 *3397:A 10.6571 
*END

*D_NET *911 0.0021057
*CONN
*I *3391:A I *D sky130_fd_sc_hd__dlygate4sd3_1
*I *2745:A1 I *D sky130_fd_sc_hd__a31o_1
*I *3154:Q O *D sky130_fd_sc_hd__dfxtp_1
*CAP
1 *3391:A 0.0004133
2 *2745:A1 0.000247416
3 *3154:Q 0
4 *911:4 0.000660715
5 *2745:B1 *2745:A1 9.96487e-05
6 *2799:C1 *2745:A1 0
7 *2907:A0 *3391:A 1.69142e-05
8 *2907:A1 *3391:A 4.22349e-05
9 *2907:S *3391:A 0.000222666
10 *2908:A *3391:A 2.24469e-05
11 *2996:A1 *3391:A 3.01348e-05
12 *3255:D *3391:A 1.97695e-05
13 *212:142 *2745:A1 0.00024468
14 *231:38 *2745:A1 8.5777e-05
*RES
1 *3154:Q *911:4 9.3 
2 *911:4 *2745:A1 23.3536 
3 *911:4 *3391:A 16.425 
*END

*D_NET *912 0.00244426
*CONN
*I *3432:A I *D sky130_fd_sc_hd__dlygate4sd3_1
*I *2815:B2 I *D sky130_fd_sc_hd__a22o_1
*I *3153:Q O *D sky130_fd_sc_hd__dfxtp_1
*CAP
1 *3432:A 0.000210272
2 *2815:B2 0.000498914
3 *3153:Q 0
4 *912:4 0.000709186
5 *2815:B1 *2815:B2 9.41642e-05
6 *2900:A1 *2815:B2 0.000316462
7 *2903:A0 *2815:B2 0.000150857
8 *2903:A0 *3432:A 5.52302e-05
9 *2926:A1 *2815:B2 0
10 *3146:CLK *2815:B2 0
11 *372:14 *2815:B2 0.000193333
12 *374:18 *2815:B2 0.000215838
*RES
1 *3153:Q *912:4 9.3 
2 *912:4 *2815:B2 31.2107 
3 *912:4 *3432:A 12.7286 
*END

*D_NET *913 0.00131632
*CONN
*I *3411:A I *D sky130_fd_sc_hd__dlygate4sd3_1
*I *2732:B2 I *D sky130_fd_sc_hd__a221o_1
*I *3152:Q O *D sky130_fd_sc_hd__dfxtp_1
*CAP
1 *3411:A 0
2 *2732:B2 0.000231515
3 *3152:Q 0.000268637
4 *913:10 0.000500153
5 *2732:A1 *2732:B2 1.64621e-05
6 *2732:A2 *2732:B2 1.40065e-05
7 *2732:B1 *2732:B2 1.00332e-05
8 *2919:A0 *913:10 0.000275513
9 *896:12 *2732:B2 0
*RES
1 *3152:Q *913:10 18.0321 
2 *913:10 *2732:B2 18.1393 
3 *913:10 *3411:A 13.8 
*END

*D_NET *914 0.00128756
*CONN
*I *3332:A I *D sky130_fd_sc_hd__dlygate4sd3_1
*I *2797:A1 I *D sky130_fd_sc_hd__a22o_1
*I *3261:Q O *D sky130_fd_sc_hd__dfxtp_1
*CAP
1 *3332:A 0
2 *2797:A1 0.000198956
3 *3261:Q 0.000184577
4 *914:8 0.000383533
5 *2797:A1 *2746:A1 3.17163e-05
6 *914:8 *2746:A1 3.32631e-05
7 *2797:A2 *2797:A1 3.08664e-05
8 *2797:B1 *2797:A1 5.65955e-05
9 *2798:B1 *2797:A1 7.20829e-05
10 *181:56 *914:8 5.71472e-05
11 *183:85 *914:8 0
12 *371:79 *914:8 6.57326e-05
13 *528:66 *2797:A1 0.00017309
*RES
1 *3261:Q *914:8 12.7286 
2 *914:8 *2797:A1 22.7286 
3 *914:8 *3332:A 9.3 
*END

*D_NET *915 0.00257005
*CONN
*I *3330:A I *D sky130_fd_sc_hd__dlygate4sd3_1
*I *2746:A1 I *D sky130_fd_sc_hd__a22o_1
*I *3260:Q O *D sky130_fd_sc_hd__dfxtp_1
*CAP
1 *3330:A 0.000230572
2 *2746:A1 0.00015767
3 *3260:Q 0.000128933
4 *915:10 0.000517174
5 *2607:A *915:10 5.33005e-05
6 *2797:A1 *2746:A1 3.17163e-05
7 *2798:B1 *2746:A1 0.000177234
8 *2798:B1 *3330:A 0.000374045
9 *3260:CLK *915:10 5.30637e-06
10 *181:50 *2746:A1 8.00806e-05
11 *181:50 *3330:A 0.000290279
12 *181:56 *2746:A1 3.36651e-05
13 *183:85 *2746:A1 2.84109e-05
14 *371:79 *2746:A1 0.000307543
15 *395:57 *3330:A 4.8936e-05
16 *528:28 *3330:A 1.92905e-05
17 *528:66 *2746:A1 1.27784e-05
18 *600:37 *915:10 3.98547e-05
19 *914:8 *2746:A1 3.32631e-05
*RES
1 *3260:Q *915:10 15.9964 
2 *915:10 *2746:A1 19.05 
3 *915:10 *3330:A 20.05 
*END

*D_NET *916 0.00102685
*CONN
*I *3328:A I *D sky130_fd_sc_hd__dlygate4sd3_1
*I *2814:A1 I *D sky130_fd_sc_hd__a221o_1
*I *3151:Q O *D sky130_fd_sc_hd__dfxtp_1
*CAP
1 *3328:A 8.65472e-05
2 *2814:A1 2.30826e-05
3 *3151:Q 0.000166587
4 *916:6 0.000276217
5 *2814:B1 *916:6 0.000181796
6 *3150:D *3328:A 3.51442e-05
7 *208:26 *3328:A 0.000153047
8 *208:58 *3328:A 2.28598e-05
9 *208:58 *916:6 1.98839e-05
10 *385:10 *3328:A 6.1684e-05
*RES
1 *3151:Q *916:6 11.4786 
2 *916:6 *2814:A1 9.72857 
3 *916:6 *3328:A 20.7821 
*END

*D_NET *917 0.00122373
*CONN
*I *3435:A I *D sky130_fd_sc_hd__dlygate4sd3_1
*I *2736:B2 I *D sky130_fd_sc_hd__a22o_1
*I *3150:Q O *D sky130_fd_sc_hd__dfxtp_1
*CAP
1 *3435:A 1.12434e-05
2 *2736:B2 0.000202166
3 *3150:Q 8.32882e-05
4 *917:8 0.000296698
5 *2736:A2 *2736:B2 2.8266e-06
6 *2736:B1 *2736:B2 5.49489e-05
7 *2816:A *2736:B2 0
8 *3150:CLK *917:8 0.00022403
9 *307:18 *2736:B2 1.65558e-05
10 *325:28 *3435:A 2.28598e-05
11 *325:28 *917:8 1.98839e-05
12 *358:22 *3435:A 5.52302e-05
13 *358:22 *917:8 0.000233999
14 *372:14 *2736:B2 0
*RES
1 *3150:Q *917:8 12.3179 
2 *917:8 *2736:B2 21.3893 
3 *917:8 *3435:A 9.83571 
*END

*D_NET *918 0.0012955
*CONN
*I *2811:B2 I *D sky130_fd_sc_hd__a22o_1
*I *3448:A I *D sky130_fd_sc_hd__dlygate4sd3_1
*I *3149:Q O *D sky130_fd_sc_hd__dfxtp_1
*CAP
1 *2811:B2 0.000112226
2 *3448:A 2.23854e-05
3 *3149:Q 8.56942e-05
4 *918:6 0.000220305
5 *2819:A2 *2811:B2 0.000128496
6 *2819:A2 *3448:A 0
7 *2819:A2 *918:6 0.000309266
8 *2887:A *2811:B2 7.48091e-05
9 *2887:A *918:6 2.89016e-05
10 *202:14 *2811:B2 5.4061e-05
11 *715:58 *2811:B2 0.000170654
12 *893:35 *918:6 8.87062e-05
*RES
1 *3149:Q *918:6 12.3 
2 *918:6 *3448:A 9.72857 
3 *918:6 *2811:B2 21.9071 
*END

*D_NET *919 0.000797867
*CONN
*I *3381:A I *D sky130_fd_sc_hd__dlygate4sd3_1
*I *2759:A I *D sky130_fd_sc_hd__and3_1
*I *3148:Q O *D sky130_fd_sc_hd__dfxtp_1
*CAP
1 *3381:A 9.51828e-05
2 *2759:A 6.75026e-05
3 *3148:Q 8.53457e-05
4 *919:6 0.000248031
5 *2759:C *2759:A 3.95141e-05
6 *2759:C *3381:A 3.69047e-06
7 *2760:C1 *2759:A 0
8 *2811:B1 *3381:A 9.25014e-06
9 *215:130 *3381:A 0.000113685
10 *231:98 *3381:A 0.000122935
11 *359:12 *3381:A 2.87555e-06
12 *359:12 *919:6 9.85396e-06
*RES
1 *3148:Q *919:6 10.2464 
2 *919:6 *2759:A 10.6393 
3 *919:6 *3381:A 20.4786 
*END

*D_NET *920 0.00289475
*CONN
*I *2809:B2 I *D sky130_fd_sc_hd__a22o_1
*I *3352:A I *D sky130_fd_sc_hd__dlygate4sd3_1
*I *3147:Q O *D sky130_fd_sc_hd__dfxtp_1
*CAP
1 *2809:B2 0.00024495
2 *3352:A 0.000282426
3 *3147:Q 0.000131193
4 *920:8 0.000658569
5 *2732:A2 *2809:B2 0.000113627
6 *2732:A2 *920:8 9.25014e-06
7 *2732:C1 *3352:A 0.000283293
8 *2809:A1 *2809:B2 4.35482e-05
9 *2809:A2 *2809:B2 0.000141729
10 *2878:A1 *3352:A 1.15281e-05
11 *2878:S *3352:A 1.39726e-05
12 *2879:A *920:8 0.000267814
13 *2919:A0 *920:8 0.000128154
14 *2955:A *3352:A 6.10501e-05
15 *300:20 *2809:B2 4.82865e-05
16 *351:20 *2809:B2 2.28343e-05
17 *351:22 *2809:B2 0.000124406
18 *351:22 *920:8 4.56437e-05
19 *351:24 *920:8 0.000216057
20 *608:37 *2809:B2 3.14003e-05
21 *889:14 *920:8 1.50179e-05
*RES
1 *3147:Q *920:8 18.7821 
2 *920:8 *3352:A 17.9429 
3 *920:8 *2809:B2 19.5857 
*END

*D_NET *921 0.00360731
*CONN
*I *2731:B2 I *D sky130_fd_sc_hd__a22o_1
*I *3349:A I *D sky130_fd_sc_hd__dlygate4sd3_1
*I *3146:Q O *D sky130_fd_sc_hd__dfxtp_1
*CAP
1 *2731:B2 0.000479038
2 *3349:A 0.000135031
3 *3146:Q 0.000674516
4 *921:10 0.00128859
5 *2731:A1 *2731:B2 0.000108752
6 *2809:B1 *2731:B2 1.87331e-05
7 *2878:A1 *2731:B2 0.00010326
8 *2883:A *921:10 0.000113897
9 *2957:A *2731:B2 5.49995e-05
10 *3147:D *921:10 0.000128154
11 *592:28 *2731:B2 6.88561e-05
12 *592:30 *2731:B2 5.73123e-05
13 *592:32 *2731:B2 3.28534e-05
14 *592:32 *921:10 3.01126e-05
15 *693:20 *2731:B2 4.51633e-05
16 *693:24 *2731:B2 0.000268049
*RES
1 *3146:Q *921:10 24.8357 
2 *921:10 *3349:A 15.9786 
3 *921:10 *2731:B2 24.6571 
*END

*D_NET *922 0.0018431
*CONN
*I *2814:B2 I *D sky130_fd_sc_hd__a221o_1
*I *3422:A I *D sky130_fd_sc_hd__dlygate4sd3_1
*I *3135:Q O *D sky130_fd_sc_hd__dfxtp_1
*CAP
1 *2814:B2 0.000156086
2 *3422:A 0
3 *3135:Q 0.000112127
4 *922:10 0.000268213
5 *2814:B1 *2814:B2 1.28809e-05
6 *2814:C1 *2814:B2 0.000190991
7 *2842:A0 *922:10 5.71472e-05
8 *2896:A *2814:B2 0.000116665
9 *2896:A *922:10 0.000149743
10 *181:75 *2814:B2 0.000189467
11 *208:58 *2814:B2 1.28809e-05
12 *345:79 *2814:B2 0.00030926
13 *345:79 *922:10 0.000239816
14 *369:10 *2814:B2 2.05612e-05
15 *369:132 *2814:B2 7.25873e-06
*RES
1 *3135:Q *922:10 13.2643 
2 *922:10 *3422:A 9.3 
3 *922:10 *2814:B2 23.983 
*END

*D_NET *923 0.0025057
*CONN
*I *3343:A I *D sky130_fd_sc_hd__dlygate4sd3_1
*I *2735:B2 I *D sky130_fd_sc_hd__a22o_1
*I *3134:Q O *D sky130_fd_sc_hd__dfxtp_1
*CAP
1 *3343:A 0
2 *2735:B2 0.000501245
3 *3134:Q 0.000118319
4 *923:8 0.000619564
5 *2735:A2 *2735:B2 9.90431e-05
6 *2813:A1 *2735:B2 3.45899e-05
7 *2814:B1 *2735:B2 0
8 *2839:A0 *923:8 1.52013e-05
9 *2895:A *2735:B2 0
10 *2921:A0 *2735:B2 7.46072e-05
11 *3151:D *2735:B2 6.8448e-05
12 *369:10 *2735:B2 0.000627905
13 *693:32 *923:8 0.000314907
14 *903:6 *2735:B2 3.18676e-05
*RES
1 *3134:Q *923:8 12.7286 
2 *923:8 *2735:B2 29.3893 
3 *923:8 *3343:A 9.3 
*END

*D_NET *924 0.00225165
*CONN
*I *2797:B2 I *D sky130_fd_sc_hd__a22o_1
*I *3356:A I *D sky130_fd_sc_hd__dlygate4sd3_1
*I *3259:Q O *D sky130_fd_sc_hd__dfxtp_1
*CAP
1 *2797:B2 0.000545813
2 *3356:A 0
3 *3259:Q 0.000114144
4 *924:8 0.000659956
5 *2797:B2 *2746:B2 0
6 *2797:B2 *925:10 0
7 *2605:A1 *924:8 5.71472e-05
8 *2838:A *2797:B2 0
9 *2839:A1 *2797:B2 0.000272603
10 *2839:A1 *924:8 0.000180249
11 *3151:CLK *2797:B2 0
12 *3162:D *2797:B2 0
13 *181:60 *2797:B2 1.6271e-05
14 *321:63 *2797:B2 0
15 *358:22 *2797:B2 0.000138984
16 *358:22 *924:8 0.000266479
17 *528:72 *2797:B2 0
18 *599:59 *2797:B2 0
*RES
1 *3259:Q *924:8 13.1393 
2 *924:8 *3356:A 9.3 
3 *924:8 *2797:B2 28.3 
*END

*D_NET *925 0.00198172
*CONN
*I *2746:B2 I *D sky130_fd_sc_hd__a22o_1
*I *3354:A I *D sky130_fd_sc_hd__dlygate4sd3_1
*I *3258:Q O *D sky130_fd_sc_hd__dfxtp_1
*CAP
1 *2746:B2 0.00018438
2 *3354:A 2.04426e-05
3 *3258:Q 0.000305643
4 *925:10 0.000510466
5 *2797:B1 *2746:B2 6.32633e-05
6 *2797:B2 *2746:B2 0
7 *2797:B2 *925:10 0
8 *181:60 *2746:B2 0
9 *321:75 *3354:A 5.33005e-05
10 *528:66 *2746:B2 0.000348429
11 *528:66 *925:10 7.90803e-05
12 *528:72 *925:10 7.6644e-05
13 *556:8 *3354:A 2.59355e-05
14 *599:53 *925:10 0.000314139
*RES
1 *3258:Q *925:10 18.7464 
2 *925:10 *3354:A 14.3357 
3 *925:10 *2746:B2 18.4786 
*END

*D_NET *926 0.00184192
*CONN
*I *2803:B2 I *D sky130_fd_sc_hd__a22o_1
*I *3410:A I *D sky130_fd_sc_hd__dlygate4sd3_1
*I *3257:Q O *D sky130_fd_sc_hd__dfxtp_1
*CAP
1 *2803:B2 0.000191403
2 *3410:A 5.509e-05
3 *3257:Q 0.000234951
4 *926:8 0.000481444
5 *2598:S *926:8 0
6 *2599:A *926:8 0.00017806
7 *2601:A *926:8 8.11424e-05
8 *2725:A1 *3410:A 9.90431e-05
9 *2803:A1 *3410:A 0.000183726
10 *3334:A *2803:B2 0.000118339
11 *3334:A *926:8 1.17968e-05
12 *358:36 *2803:B2 8.08376e-05
13 *358:36 *926:8 7.26935e-05
14 *553:10 *926:8 0
15 *811:10 *926:8 5.33882e-05
*RES
1 *3257:Q *926:8 20.3 
2 *926:8 *3410:A 15.5679 
3 *926:8 *2803:B2 18.0143 
*END

*D_NET *927 0.00183214
*CONN
*I *2725:B2 I *D sky130_fd_sc_hd__a22o_1
*I *3405:A I *D sky130_fd_sc_hd__dlygate4sd3_1
*I *3256:Q O *D sky130_fd_sc_hd__dfxtp_1
*CAP
1 *2725:B2 0.000268733
2 *3405:A 0
3 *3256:Q 0.000427481
4 *927:10 0.000696215
5 *2578:A1 *927:10 5.03772e-05
6 *2725:A1 *2725:B2 9.2047e-05
7 *2727:B1 *2725:B2 0.000103253
8 *2727:B2 *2725:B2 1.99099e-05
9 *2727:B2 *927:10 6.42338e-05
10 *2896:A *927:10 4.5447e-05
11 *208:58 *2725:B2 5.52238e-05
12 *345:79 *2725:B2 0
13 *350:120 *2725:B2 0
14 *350:120 *927:10 0
15 *553:10 *2725:B2 9.22103e-06
*RES
1 *3256:Q *927:10 19.675 
2 *927:10 *3405:A 13.8 
3 *927:10 *2725:B2 18.6571 
*END

*D_NET *928 0.00108157
*CONN
*I *3379:A I *D sky130_fd_sc_hd__dlygate4sd3_1
*I *2784:A I *D sky130_fd_sc_hd__and3_1
*I *3255:Q O *D sky130_fd_sc_hd__dfxtp_1
*CAP
1 *3379:A 9.08886e-05
2 *2784:A 6.21827e-05
3 *3255:Q 0
4 *928:6 0.000153071
5 *2595:A1 *2784:A 5.99125e-05
6 *2595:A1 *3379:A 3.48235e-05
7 *2761:C *3379:A 0.00018077
8 *2996:A1 *2784:A 5.49995e-05
9 *212:42 *3379:A 0.00018077
10 *231:98 *3379:A 1.69115e-05
11 *436:14 *2784:A 1.58163e-05
12 *737:34 *2784:A 0.000105696
13 *737:34 *3379:A 0.000125724
*RES
1 *3255:Q *928:6 13.8 
2 *928:6 *2784:A 15.675 
3 *928:6 *3379:A 17.2107 
*END

*D_NET *929 0.00142905
*CONN
*I *3373:A I *D sky130_fd_sc_hd__dlygate4sd3_1
*I *2756:A I *D sky130_fd_sc_hd__and3_1
*I *3254:Q O *D sky130_fd_sc_hd__dfxtp_1
*CAP
1 *3373:A 2.00023e-05
2 *2756:A 8.89707e-05
3 *3254:Q 0.000111476
4 *929:12 0.000220449
5 *2593:S *3373:A 9.67754e-05
6 *2593:S *929:12 0.000224582
7 *2784:B *3373:A 8.43386e-05
8 *2784:B *929:12 0.000226274
9 *202:14 *929:12 0.000121208
10 *231:98 *2756:A 0.000124326
11 *231:98 *929:12 3.25862e-05
12 *737:34 *2756:A 7.80622e-05
*RES
1 *3254:Q *929:12 22.1214 
2 *929:12 *2756:A 20.55 
3 *929:12 *3373:A 10.2464 
*END

*D_NET *930 0.00265901
*CONN
*I *3454:A I *D sky130_fd_sc_hd__dlygate4sd3_1
*I *2801:A1 I *D sky130_fd_sc_hd__a22o_1
*I *3253:Q O *D sky130_fd_sc_hd__dfxtp_1
*CAP
1 *3454:A 0.000260039
2 *2801:A1 0.00062032
3 *3253:Q 0
4 *930:4 0.000880359
5 *2590:A1 *2801:A1 9.60939e-05
6 *2590:A1 *3454:A 5.71472e-05
7 *2722:A2 *2801:A1 0.00014678
8 *2722:B1 *2801:A1 0.000118117
9 *2801:A2 *2801:A1 2.09495e-05
10 *358:57 *2801:A1 0.00025794
11 *544:22 *2801:A1 4.62198e-05
12 *598:122 *2801:A1 8.93488e-05
13 *598:122 *3454:A 6.5694e-05
*RES
1 *3253:Q *930:4 9.3 
2 *930:4 *2801:A1 29.7464 
3 *930:4 *3454:A 13.0321 
*END

*D_NET *931 0.00190802
*CONN
*I *2721:B2 I *D sky130_fd_sc_hd__a22o_1
*I *3430:A I *D sky130_fd_sc_hd__dlygate4sd3_1
*I *3252:Q O *D sky130_fd_sc_hd__dfxtp_1
*CAP
1 *2721:B2 0.000152012
2 *3430:A 0
3 *3252:Q 0.000376668
4 *931:8 0.000528679
5 *2588:A0 *931:8 2.59355e-05
6 *2588:A1 *931:8 2.65105e-05
7 *2588:S *931:8 0.000315152
8 *2801:A2 *2721:B2 4.43256e-05
9 *2801:A2 *931:8 1.02936e-05
10 *2802:A2 *2721:B2 0.000175446
11 *3008:A *2721:B2 3.99614e-06
12 *212:91 *2721:B2 5.25774e-05
13 *212:91 *931:8 0
14 *511:96 *931:8 9.7659e-05
15 *726:38 *2721:B2 9.87672e-05
*RES
1 *3252:Q *931:8 16.425 
2 *931:8 *3430:A 9.3 
3 *931:8 *2721:B2 13.1393 
*END

*D_NET *932 0.000636342
*CONN
*I *3374:A I *D sky130_fd_sc_hd__buf_1
*I *3279:Q O *D sky130_fd_sc_hd__dfrtp_1
*CAP
1 *3374:A 0.000318171
2 *3279:Q 0.000318171
3 *359:83 *3374:A 0
4 *630:8 *3374:A 0
5 *630:10 *3374:A 0
*RES
1 *3279:Q *3374:A 31.8321 
*END

*D_NET *933 0.000475616
*CONN
*I *3279:D I *D sky130_fd_sc_hd__dfrtp_1
*I *2678:X O *D sky130_fd_sc_hd__clkbuf_1
*CAP
1 *3279:D 0.000155275
2 *2678:X 0.000155275
3 *3280:RESET_B *3279:D 0.00010241
4 *590:138 *3279:D 0
5 *593:34 *3279:D 6.26559e-05
*RES
1 *2678:X *3279:D 31.3679 
*END
