*SPEF "ieee 1481-1999"
*DESIGN "bist_top"
*DATE "11:11:11 Fri 11 11, 1111"
*VENDOR "OpenRCX"
*PROGRAM "Parallel Extraction"
*VERSION "1.0"
*DESIGN_FLOW "NAME_SCOPE LOCAL" "PIN_CAP NONE"
*DIVIDER /
*DELIMITER :
*BUS_DELIMITER []
*T_UNIT 1 NS
*C_UNIT 1 PF
*R_UNIT 1 OHM
*L_UNIT 1 HENRY

*NAME_MAP
*3 clk
*4 done
*5 pass_fail
*6 rst_n
*7 start
*8 _0000_
*9 _0001_
*10 _0002_
*11 _0003_
*12 _0004_
*13 _0005_
*14 _0006_
*15 _0007_
*16 _0008_
*17 _0009_
*18 _0010_
*19 _0011_
*20 _0012_
*21 _0013_
*22 _0014_
*23 _0015_
*24 _0016_
*25 _0017_
*26 _0018_
*27 _0019_
*28 _0020_
*29 _0021_
*30 _0022_
*31 _0023_
*32 _0024_
*33 _0025_
*34 _0026_
*35 _0027_
*36 _0028_
*37 _0029_
*38 _0030_
*39 _0031_
*40 _0032_
*41 _0033_
*42 _0034_
*43 _0035_
*44 _0036_
*45 _0037_
*46 _0038_
*47 _0039_
*48 _0040_
*49 _0041_
*50 _0042_
*51 _0043_
*52 _0044_
*53 _0045_
*54 _0046_
*55 _0047_
*56 _0048_
*57 _0049_
*58 _0050_
*59 _0051_
*60 _0052_
*61 _0053_
*62 _0054_
*63 _0055_
*64 _0056_
*65 _0057_
*66 _0058_
*67 _0059_
*68 _0060_
*69 _0061_
*70 _0062_
*71 _0063_
*72 _0064_
*73 _0065_
*74 _0066_
*75 _0067_
*76 _0068_
*77 _0069_
*78 _0070_
*79 _0071_
*80 _0072_
*81 _0073_
*82 _0074_
*83 _0075_
*84 _0076_
*85 _0077_
*86 _0078_
*87 _0079_
*88 _0080_
*89 _0081_
*90 _0082_
*91 _0083_
*92 _0084_
*93 _0085_
*94 _0086_
*95 _0087_
*96 _0088_
*97 _0089_
*98 _0090_
*99 _0091_
*100 _0092_
*101 _0093_
*102 _0094_
*103 _0095_
*104 _0096_
*105 _0097_
*106 _0098_
*107 _0099_
*108 _0100_
*109 _0101_
*110 _0102_
*111 _0103_
*112 _0104_
*113 _0105_
*114 _0106_
*115 _0107_
*116 _0108_
*117 _0109_
*118 _0110_
*119 _0111_
*120 _0112_
*121 _0113_
*122 _0114_
*123 _0115_
*124 _0116_
*125 _0117_
*126 _0118_
*127 _0119_
*128 _0120_
*129 _0121_
*130 _0122_
*131 _0123_
*132 _0124_
*133 _0125_
*134 _0126_
*135 _0127_
*136 _0128_
*137 _0129_
*138 _0130_
*139 _0131_
*140 _0132_
*141 _0133_
*142 _0134_
*143 _0135_
*144 _0136_
*145 _0137_
*146 _0138_
*147 _0139_
*148 _0140_
*149 _0141_
*150 _0142_
*151 _0143_
*152 _0144_
*153 _0145_
*154 _0146_
*155 _0147_
*156 _0148_
*157 _0149_
*158 _0150_
*159 _0151_
*160 _0152_
*161 _0153_
*162 _0154_
*163 _0155_
*164 _0156_
*165 _0157_
*166 _0158_
*167 _0159_
*168 _0160_
*169 _0161_
*170 _0162_
*171 _0163_
*172 _0164_
*173 _0165_
*174 _0166_
*175 _0167_
*176 _0168_
*177 _0169_
*178 _0170_
*179 _0171_
*180 _0172_
*181 _0173_
*182 _0174_
*183 _0175_
*184 _0176_
*185 _0177_
*186 _0178_
*187 _0179_
*188 _0180_
*189 _0181_
*190 _0182_
*191 _0183_
*192 _0184_
*193 _0185_
*194 _0186_
*195 _0187_
*196 _0188_
*197 _0189_
*198 _0190_
*199 _0191_
*200 _0192_
*201 _0193_
*202 _0194_
*203 _0195_
*204 _0196_
*205 _0197_
*206 _0198_
*207 _0199_
*208 _0200_
*209 _0201_
*210 _0202_
*211 _0203_
*212 _0204_
*213 _0205_
*214 _0206_
*215 _0207_
*216 _0208_
*217 _0209_
*218 _0210_
*219 _0211_
*220 _0212_
*221 _0213_
*222 _0214_
*223 _0215_
*224 _0216_
*225 _0217_
*226 _0218_
*227 _0219_
*228 _0220_
*229 _0221_
*230 _0222_
*231 _0223_
*232 _0224_
*233 _0225_
*234 _0226_
*235 _0227_
*236 _0228_
*237 _0229_
*238 _0230_
*239 _0231_
*240 _0232_
*241 _0233_
*242 _0234_
*243 _0235_
*244 _0236_
*245 _0237_
*246 _0238_
*247 _0239_
*248 _0240_
*249 _0241_
*250 _0242_
*251 _0243_
*252 _0244_
*253 _0245_
*254 _0246_
*255 _0247_
*256 _0248_
*257 _0249_
*258 _0250_
*259 _0251_
*260 _0252_
*261 _0253_
*262 _0254_
*263 _0255_
*264 _0256_
*265 _0257_
*266 _0258_
*267 _0259_
*268 _0260_
*269 _0261_
*270 _0262_
*271 _0263_
*272 _0264_
*273 _0265_
*274 _0266_
*275 _0267_
*276 _0268_
*277 _0269_
*278 _0270_
*279 _0271_
*280 _0272_
*281 _0273_
*282 _0274_
*283 _0275_
*284 _0276_
*285 _0277_
*286 _0278_
*287 _0279_
*288 _0280_
*289 _0281_
*290 _0282_
*291 _0283_
*292 _0284_
*293 _0285_
*294 _0286_
*295 _0287_
*296 _0288_
*297 _0289_
*298 _0290_
*299 _0291_
*300 _0292_
*301 _0293_
*302 _0294_
*303 _0295_
*304 _0296_
*305 _0297_
*306 _0298_
*307 _0299_
*308 _0300_
*309 _0301_
*310 _0302_
*311 _0303_
*312 _0304_
*313 _0305_
*314 _0306_
*315 _0307_
*316 _0308_
*317 _0309_
*318 _0310_
*319 _0311_
*320 _0312_
*321 _0313_
*322 _0314_
*323 _0315_
*324 _0316_
*325 _0317_
*326 _0318_
*327 _0319_
*328 _0320_
*329 _0321_
*330 _0322_
*331 _0323_
*332 _0324_
*333 _0325_
*334 _0326_
*335 _0327_
*336 _0328_
*337 _0329_
*338 _0330_
*339 _0331_
*340 _0332_
*341 _0333_
*342 _0334_
*343 _0335_
*344 _0336_
*345 _0337_
*346 _0338_
*347 _0339_
*348 _0340_
*349 _0341_
*350 _0342_
*351 _0343_
*352 _0344_
*353 _0345_
*354 _0346_
*355 _0347_
*356 _0348_
*357 _0349_
*358 _0350_
*359 _0351_
*360 _0352_
*361 _0353_
*362 _0354_
*363 _0355_
*364 _0356_
*365 _0357_
*366 _0358_
*367 _0359_
*368 _0360_
*369 _0361_
*370 _0362_
*371 _0363_
*372 _0364_
*373 _0365_
*374 _0366_
*375 _0367_
*376 _0368_
*377 _0369_
*378 _0370_
*379 _0371_
*380 _0372_
*381 _0373_
*382 _0374_
*383 _0375_
*384 _0376_
*385 _0377_
*386 _0378_
*387 _0379_
*388 _0380_
*389 _0381_
*390 _0382_
*391 _0383_
*392 _0384_
*393 _0385_
*394 _0386_
*395 _0387_
*396 _0388_
*397 _0389_
*398 _0390_
*399 _0391_
*400 _0392_
*401 _0393_
*402 _0394_
*403 _0395_
*404 _0396_
*405 _0397_
*406 _0398_
*407 _0399_
*408 _0400_
*409 _0401_
*410 _0402_
*411 _0403_
*412 _0404_
*413 _0405_
*414 _0406_
*415 _0407_
*416 _0408_
*417 _0409_
*418 _0410_
*419 _0411_
*420 _0412_
*421 _0413_
*422 _0414_
*423 _0415_
*424 _0416_
*425 _0417_
*426 _0418_
*427 _0419_
*428 _0420_
*429 _0421_
*430 _0422_
*431 _0423_
*432 _0424_
*433 _0425_
*434 _0426_
*435 _0427_
*436 _0428_
*437 _0429_
*438 _0430_
*439 _0431_
*440 _0432_
*441 _0433_
*442 _0434_
*443 _0435_
*444 _0436_
*445 _0437_
*446 _0438_
*447 _0439_
*448 _0440_
*449 _0441_
*450 _0442_
*451 _0443_
*452 _0444_
*453 _0445_
*454 _0446_
*455 _0447_
*456 _0448_
*457 _0449_
*458 _0450_
*459 _0451_
*460 _0452_
*461 _0453_
*462 _0454_
*463 _0455_
*464 _0456_
*465 _0457_
*466 _0458_
*467 _0459_
*468 _0460_
*469 _0461_
*470 _0462_
*471 _0463_
*472 _0464_
*473 _0465_
*474 _0466_
*475 _0467_
*476 _0468_
*477 _0469_
*478 _0470_
*479 _0471_
*480 _0472_
*481 _0473_
*482 _0474_
*483 _0475_
*484 _0476_
*485 _0477_
*486 _0478_
*487 _0479_
*488 _0480_
*489 _0481_
*490 _0482_
*491 _0483_
*492 _0484_
*493 _0485_
*494 _0486_
*495 _0487_
*496 _0488_
*497 _0489_
*498 _0490_
*499 _0491_
*500 _0492_
*501 _0493_
*502 _0494_
*503 _0495_
*504 _0496_
*505 _0497_
*506 _0498_
*507 _0499_
*508 _0500_
*509 _0501_
*510 _0502_
*511 _0503_
*512 _0504_
*513 _0505_
*514 _0506_
*515 _0507_
*516 _0508_
*517 _0509_
*518 _0510_
*519 _0511_
*520 _0512_
*521 _0513_
*522 _0514_
*523 _0515_
*524 _0516_
*525 _0517_
*526 _0518_
*527 _0519_
*528 _0520_
*529 _0521_
*530 _0522_
*531 _0523_
*532 _0524_
*533 _0525_
*534 _0526_
*535 _0527_
*536 _0528_
*537 _0529_
*538 _0530_
*539 _0531_
*540 _0532_
*541 _0533_
*542 _0534_
*543 _0535_
*544 _0536_
*545 _0537_
*546 _0538_
*547 _0539_
*548 _0540_
*549 _0541_
*550 _0542_
*551 _0543_
*552 _0544_
*553 _0545_
*554 _0546_
*555 _0547_
*556 _0548_
*557 _0549_
*558 _0550_
*559 _0551_
*560 _0552_
*561 _0553_
*562 _0554_
*563 _0555_
*564 _0556_
*565 _0557_
*566 _0558_
*567 _0559_
*568 _0560_
*569 _0561_
*570 _0562_
*571 _0563_
*572 _0564_
*573 _0565_
*574 _0566_
*575 _0567_
*576 _0568_
*577 _0569_
*578 _0570_
*579 _0571_
*580 _0572_
*581 _0573_
*582 _0574_
*583 _0575_
*584 _0576_
*585 _0577_
*586 _0578_
*587 _0579_
*588 _0580_
*589 _0581_
*590 _0582_
*591 clknet_0_clk
*592 clknet_4_0_0_clk
*593 clknet_4_10_0_clk
*594 clknet_4_11_0_clk
*595 clknet_4_12_0_clk
*596 clknet_4_13_0_clk
*597 clknet_4_14_0_clk
*598 clknet_4_15_0_clk
*599 clknet_4_1_0_clk
*600 clknet_4_2_0_clk
*601 clknet_4_3_0_clk
*602 clknet_4_4_0_clk
*603 clknet_4_5_0_clk
*604 clknet_4_6_0_clk
*605 clknet_4_7_0_clk
*606 clknet_4_8_0_clk
*607 clknet_4_9_0_clk
*608 net1
*609 net10
*610 net100
*611 net101
*612 net102
*613 net103
*614 net104
*615 net105
*616 net106
*617 net107
*618 net108
*619 net109
*620 net11
*621 net110
*622 net111
*623 net112
*624 net113
*625 net114
*626 net115
*627 net116
*628 net117
*629 net118
*630 net119
*631 net12
*632 net120
*633 net121
*634 net122
*635 net123
*636 net124
*637 net125
*638 net126
*639 net127
*640 net128
*641 net129
*642 net13
*643 net130
*644 net131
*645 net132
*646 net133
*647 net134
*648 net135
*649 net136
*650 net137
*651 net138
*652 net139
*653 net14
*654 net140
*655 net141
*656 net142
*657 net143
*658 net144
*659 net145
*660 net146
*661 net147
*662 net148
*663 net149
*664 net15
*665 net150
*666 net151
*667 net152
*668 net153
*669 net154
*670 net155
*671 net156
*672 net157
*673 net158
*674 net159
*675 net16
*676 net160
*677 net161
*678 net162
*679 net163
*680 net164
*681 net165
*682 net166
*683 net167
*684 net17
*685 net18
*686 net19
*687 net2
*688 net20
*689 net21
*690 net22
*691 net23
*692 net24
*693 net25
*694 net26
*695 net27
*696 net28
*697 net29
*698 net3
*699 net30
*700 net31
*701 net32
*702 net33
*703 net34
*704 net35
*705 net36
*706 net37
*707 net38
*708 net39
*709 net4
*710 net40
*711 net41
*712 net42
*713 net43
*714 net44
*715 net45
*716 net46
*717 net47
*718 net48
*719 net49
*720 net5
*721 net50
*722 net51
*723 net52
*724 net53
*725 net54
*726 net55
*727 net56
*728 net57
*729 net58
*730 net59
*731 net6
*732 net60
*733 net61
*734 net62
*735 net63
*736 net64
*737 net65
*738 net66
*739 net67
*740 net68
*741 net69
*742 net7
*743 net70
*744 net71
*745 net72
*746 net73
*747 net74
*748 net75
*749 net76
*750 net77
*751 net78
*752 net79
*753 net8
*754 net80
*755 net81
*756 net82
*757 net83
*758 net84
*759 net85
*760 net86
*761 net87
*762 net88
*763 net89
*764 net9
*765 net90
*766 net91
*767 net92
*768 net93
*769 net94
*770 net95
*771 net96
*772 net97
*773 net98
*774 net99
*775 u_addr_gen\.addr\[0\]
*776 u_addr_gen\.addr\[1\]
*777 u_addr_gen\.addr\[2\]
*778 u_addr_gen\.addr\[3\]
*779 u_addr_gen\.addr\[4\]
*780 u_addr_gen\.addr\[5\]
*781 u_addr_gen\.addr_valid
*782 u_addr_gen\.done
*783 u_addr_gen\.start
*784 u_addr_gen\.state\[0\]
*785 u_addr_gen\.state\[1\]
*786 u_comparator\.compare_done
*787 u_comparator\.enable
*788 u_comparator\.pass_fail
*789 u_comparator\.read_data\[0\]
*790 u_comparator\.read_data\[1\]
*791 u_fsm\.addr_done_seen
*792 u_fsm\.fail_latch
*793 u_fsm\.next_state\[0\]
*794 u_fsm\.next_state\[1\]
*795 u_fsm\.next_state\[2\]
*796 u_fsm\.protocol_error
*797 u_fsm\.rvalid
*798 u_fsm\.state\[0\]
*799 u_fsm\.state\[1\]
*800 u_fsm\.state\[2\]
*801 u_pattern_gen\.state_r\[0\]
*802 u_pattern_gen\.state_r\[1\]
*803 u_sram\.addr_r\[0\]
*804 u_sram\.addr_r\[1\]
*805 u_sram\.addr_r\[2\]
*806 u_sram\.addr_r\[3\]
*807 u_sram\.addr_r\[4\]
*808 u_sram\.addr_r\[5\]
*809 u_sram\.mem\[0\]\[0\]
*810 u_sram\.mem\[0\]\[1\]
*811 u_sram\.mem\[10\]\[0\]
*812 u_sram\.mem\[10\]\[1\]
*813 u_sram\.mem\[11\]\[0\]
*814 u_sram\.mem\[11\]\[1\]
*815 u_sram\.mem\[12\]\[0\]
*816 u_sram\.mem\[12\]\[1\]
*817 u_sram\.mem\[13\]\[0\]
*818 u_sram\.mem\[13\]\[1\]
*819 u_sram\.mem\[14\]\[0\]
*820 u_sram\.mem\[14\]\[1\]
*821 u_sram\.mem\[15\]\[0\]
*822 u_sram\.mem\[15\]\[1\]
*823 u_sram\.mem\[16\]\[0\]
*824 u_sram\.mem\[16\]\[1\]
*825 u_sram\.mem\[17\]\[0\]
*826 u_sram\.mem\[17\]\[1\]
*827 u_sram\.mem\[18\]\[0\]
*828 u_sram\.mem\[18\]\[1\]
*829 u_sram\.mem\[19\]\[0\]
*830 u_sram\.mem\[19\]\[1\]
*831 u_sram\.mem\[1\]\[0\]
*832 u_sram\.mem\[1\]\[1\]
*833 u_sram\.mem\[20\]\[0\]
*834 u_sram\.mem\[20\]\[1\]
*835 u_sram\.mem\[21\]\[0\]
*836 u_sram\.mem\[21\]\[1\]
*837 u_sram\.mem\[22\]\[0\]
*838 u_sram\.mem\[22\]\[1\]
*839 u_sram\.mem\[23\]\[0\]
*840 u_sram\.mem\[23\]\[1\]
*841 u_sram\.mem\[24\]\[0\]
*842 u_sram\.mem\[24\]\[1\]
*843 u_sram\.mem\[25\]\[0\]
*844 u_sram\.mem\[25\]\[1\]
*845 u_sram\.mem\[26\]\[0\]
*846 u_sram\.mem\[26\]\[1\]
*847 u_sram\.mem\[27\]\[0\]
*848 u_sram\.mem\[27\]\[1\]
*849 u_sram\.mem\[28\]\[0\]
*850 u_sram\.mem\[28\]\[1\]
*851 u_sram\.mem\[29\]\[0\]
*852 u_sram\.mem\[29\]\[1\]
*853 u_sram\.mem\[2\]\[0\]
*854 u_sram\.mem\[2\]\[1\]
*855 u_sram\.mem\[30\]\[0\]
*856 u_sram\.mem\[30\]\[1\]
*857 u_sram\.mem\[31\]\[0\]
*858 u_sram\.mem\[31\]\[1\]
*859 u_sram\.mem\[32\]\[0\]
*860 u_sram\.mem\[32\]\[1\]
*861 u_sram\.mem\[33\]\[0\]
*862 u_sram\.mem\[33\]\[1\]
*863 u_sram\.mem\[34\]\[0\]
*864 u_sram\.mem\[34\]\[1\]
*865 u_sram\.mem\[35\]\[0\]
*866 u_sram\.mem\[35\]\[1\]
*867 u_sram\.mem\[36\]\[0\]
*868 u_sram\.mem\[36\]\[1\]
*869 u_sram\.mem\[37\]\[0\]
*870 u_sram\.mem\[37\]\[1\]
*871 u_sram\.mem\[38\]\[0\]
*872 u_sram\.mem\[38\]\[1\]
*873 u_sram\.mem\[39\]\[0\]
*874 u_sram\.mem\[39\]\[1\]
*875 u_sram\.mem\[3\]\[0\]
*876 u_sram\.mem\[3\]\[1\]
*877 u_sram\.mem\[40\]\[0\]
*878 u_sram\.mem\[40\]\[1\]
*879 u_sram\.mem\[41\]\[0\]
*880 u_sram\.mem\[41\]\[1\]
*881 u_sram\.mem\[42\]\[0\]
*882 u_sram\.mem\[42\]\[1\]
*883 u_sram\.mem\[43\]\[0\]
*884 u_sram\.mem\[43\]\[1\]
*885 u_sram\.mem\[44\]\[0\]
*886 u_sram\.mem\[44\]\[1\]
*887 u_sram\.mem\[45\]\[0\]
*888 u_sram\.mem\[45\]\[1\]
*889 u_sram\.mem\[46\]\[0\]
*890 u_sram\.mem\[46\]\[1\]
*891 u_sram\.mem\[47\]\[0\]
*892 u_sram\.mem\[47\]\[1\]
*893 u_sram\.mem\[48\]\[0\]
*894 u_sram\.mem\[48\]\[1\]
*895 u_sram\.mem\[49\]\[0\]
*896 u_sram\.mem\[49\]\[1\]
*897 u_sram\.mem\[4\]\[0\]
*898 u_sram\.mem\[4\]\[1\]
*899 u_sram\.mem\[50\]\[0\]
*900 u_sram\.mem\[50\]\[1\]
*901 u_sram\.mem\[51\]\[0\]
*902 u_sram\.mem\[51\]\[1\]
*903 u_sram\.mem\[52\]\[0\]
*904 u_sram\.mem\[52\]\[1\]
*905 u_sram\.mem\[53\]\[0\]
*906 u_sram\.mem\[53\]\[1\]
*907 u_sram\.mem\[54\]\[0\]
*908 u_sram\.mem\[54\]\[1\]
*909 u_sram\.mem\[55\]\[0\]
*910 u_sram\.mem\[55\]\[1\]
*911 u_sram\.mem\[56\]\[0\]
*912 u_sram\.mem\[56\]\[1\]
*913 u_sram\.mem\[57\]\[0\]
*914 u_sram\.mem\[57\]\[1\]
*915 u_sram\.mem\[58\]\[0\]
*916 u_sram\.mem\[58\]\[1\]
*917 u_sram\.mem\[59\]\[0\]
*918 u_sram\.mem\[59\]\[1\]
*919 u_sram\.mem\[5\]\[0\]
*920 u_sram\.mem\[5\]\[1\]
*921 u_sram\.mem\[60\]\[0\]
*922 u_sram\.mem\[60\]\[1\]
*923 u_sram\.mem\[61\]\[0\]
*924 u_sram\.mem\[61\]\[1\]
*925 u_sram\.mem\[62\]\[0\]
*926 u_sram\.mem\[62\]\[1\]
*927 u_sram\.mem\[63\]\[0\]
*928 u_sram\.mem\[63\]\[1\]
*929 u_sram\.mem\[6\]\[0\]
*930 u_sram\.mem\[6\]\[1\]
*931 u_sram\.mem\[7\]\[0\]
*932 u_sram\.mem\[7\]\[1\]
*933 u_sram\.mem\[8\]\[0\]
*934 u_sram\.mem\[8\]\[1\]
*935 u_sram\.mem\[9\]\[0\]
*936 u_sram\.mem\[9\]\[1\]
*937 u_sram\.re_r
*938 u_sram\.read_req
*939 FILLER_0_0_109
*940 FILLER_0_0_113
*941 FILLER_0_0_125
*942 FILLER_0_0_137
*943 FILLER_0_0_141
*944 FILLER_0_0_153
*945 FILLER_0_0_165
*946 FILLER_0_0_169
*947 FILLER_0_0_181
*948 FILLER_0_0_193
*949 FILLER_0_0_197
*950 FILLER_0_0_209
*951 FILLER_0_0_21
*952 FILLER_0_0_221
*953 FILLER_0_0_225
*954 FILLER_0_0_237
*955 FILLER_0_0_249
*956 FILLER_0_0_253
*957 FILLER_0_0_258
*958 FILLER_0_0_27
*959 FILLER_0_0_270
*960 FILLER_0_0_278
*961 FILLER_0_0_281
*962 FILLER_0_0_29
*963 FILLER_0_0_293
*964 FILLER_0_0_305
*965 FILLER_0_0_41
*966 FILLER_0_0_53
*967 FILLER_0_0_57
*968 FILLER_0_0_69
*969 FILLER_0_0_81
*970 FILLER_0_0_85
*971 FILLER_0_0_9
*972 FILLER_0_0_97
*973 FILLER_0_10_118
*974 FILLER_0_10_122
*975 FILLER_0_10_139
*976 FILLER_0_10_149
*977 FILLER_0_10_15
*978 FILLER_0_10_178
*979 FILLER_0_10_188
*980 FILLER_0_10_218
*981 FILLER_0_10_240
*982 FILLER_0_10_249
*983 FILLER_0_10_260
*984 FILLER_0_10_268
*985 FILLER_0_10_27
*986 FILLER_0_10_29
*987 FILLER_0_10_290
*988 FILLER_0_10_3
*989 FILLER_0_10_302
*990 FILLER_0_10_306
*991 FILLER_0_10_41
*992 FILLER_0_10_63
*993 FILLER_0_10_75
*994 FILLER_0_10_85
*995 FILLER_0_10_98
*996 FILLER_0_11_108
*997 FILLER_0_11_113
*998 FILLER_0_11_128
*999 FILLER_0_11_15
*1000 FILLER_0_11_156
*1001 FILLER_0_11_169
*1002 FILLER_0_11_179
*1003 FILLER_0_11_219
*1004 FILLER_0_11_223
*1005 FILLER_0_11_253
*1006 FILLER_0_11_27
*1007 FILLER_0_11_272
*1008 FILLER_0_11_284
*1009 FILLER_0_11_296
*1010 FILLER_0_11_3
*1011 FILLER_0_11_304
*1012 FILLER_0_11_39
*1013 FILLER_0_11_57
*1014 FILLER_0_11_69
*1015 FILLER_0_12_100
*1016 FILLER_0_12_111
*1017 FILLER_0_12_118
*1018 FILLER_0_12_15
*1019 FILLER_0_12_156
*1020 FILLER_0_12_165
*1021 FILLER_0_12_177
*1022 FILLER_0_12_189
*1023 FILLER_0_12_195
*1024 FILLER_0_12_219
*1025 FILLER_0_12_231
*1026 FILLER_0_12_244
*1027 FILLER_0_12_253
*1028 FILLER_0_12_265
*1029 FILLER_0_12_27
*1030 FILLER_0_12_29
*1031 FILLER_0_12_291
*1032 FILLER_0_12_3
*1033 FILLER_0_12_303
*1034 FILLER_0_12_41
*1035 FILLER_0_12_48
*1036 FILLER_0_12_70
*1037 FILLER_0_12_82
*1038 FILLER_0_12_85
*1039 FILLER_0_12_89
*1040 FILLER_0_13_110
*1041 FILLER_0_13_118
*1042 FILLER_0_13_143
*1043 FILLER_0_13_151
*1044 FILLER_0_13_178
*1045 FILLER_0_13_186
*1046 FILLER_0_13_196
*1047 FILLER_0_13_219
*1048 FILLER_0_13_223
*1049 FILLER_0_13_225
*1050 FILLER_0_13_254
*1051 FILLER_0_13_266
*1052 FILLER_0_13_278
*1053 FILLER_0_13_3
*1054 FILLER_0_13_301
*1055 FILLER_0_13_43
*1056 FILLER_0_13_71
*1057 FILLER_0_13_83
*1058 FILLER_0_13_9
*1059 FILLER_0_13_90
*1060 FILLER_0_13_99
*1061 FILLER_0_14_101
*1062 FILLER_0_14_137
*1063 FILLER_0_14_147
*1064 FILLER_0_14_193
*1065 FILLER_0_14_217
*1066 FILLER_0_14_224
*1067 FILLER_0_14_248
*1068 FILLER_0_14_259
*1069 FILLER_0_14_271
*1070 FILLER_0_14_3
*1071 FILLER_0_14_300
*1072 FILLER_0_14_306
*1073 FILLER_0_14_54
*1074 FILLER_0_14_74
*1075 FILLER_0_14_82
*1076 FILLER_0_15_128
*1077 FILLER_0_15_140
*1078 FILLER_0_15_148
*1079 FILLER_0_15_18
*1080 FILLER_0_15_198
*1081 FILLER_0_15_223
*1082 FILLER_0_15_225
*1083 FILLER_0_15_240
*1084 FILLER_0_15_259
*1085 FILLER_0_15_267
*1086 FILLER_0_15_279
*1087 FILLER_0_15_3
*1088 FILLER_0_15_306
*1089 FILLER_0_15_55
*1090 FILLER_0_15_81
*1091 FILLER_0_16_116
*1092 FILLER_0_16_126
*1093 FILLER_0_16_138
*1094 FILLER_0_16_141
*1095 FILLER_0_16_150
*1096 FILLER_0_16_175
*1097 FILLER_0_16_214
*1098 FILLER_0_16_222
*1099 FILLER_0_16_248
*1100 FILLER_0_16_259
*1101 FILLER_0_16_26
*1102 FILLER_0_16_265
*1103 FILLER_0_16_290
*1104 FILLER_0_16_3
*1105 FILLER_0_16_302
*1106 FILLER_0_16_306
*1107 FILLER_0_16_56
*1108 FILLER_0_16_62
*1109 FILLER_0_16_68
*1110 FILLER_0_16_80
*1111 FILLER_0_16_85
*1112 FILLER_0_16_9
*1113 FILLER_0_16_91
*1114 FILLER_0_17_107
*1115 FILLER_0_17_116
*1116 FILLER_0_17_148
*1117 FILLER_0_17_160
*1118 FILLER_0_17_169
*1119 FILLER_0_17_173
*1120 FILLER_0_17_181
*1121 FILLER_0_17_203
*1122 FILLER_0_17_215
*1123 FILLER_0_17_223
*1124 FILLER_0_17_234
*1125 FILLER_0_17_242
*1126 FILLER_0_17_253
*1127 FILLER_0_17_270
*1128 FILLER_0_17_278
*1129 FILLER_0_17_281
*1130 FILLER_0_17_285
*1131 FILLER_0_17_3
*1132 FILLER_0_17_306
*1133 FILLER_0_17_32
*1134 FILLER_0_17_44
*1135 FILLER_0_17_57
*1136 FILLER_0_17_69
*1137 FILLER_0_17_84
*1138 FILLER_0_17_90
*1139 FILLER_0_18_105
*1140 FILLER_0_18_11
*1141 FILLER_0_18_137
*1142 FILLER_0_18_147
*1143 FILLER_0_18_15
*1144 FILLER_0_18_159
*1145 FILLER_0_18_188
*1146 FILLER_0_18_197
*1147 FILLER_0_18_214
*1148 FILLER_0_18_247
*1149 FILLER_0_18_251
*1150 FILLER_0_18_27
*1151 FILLER_0_18_276
*1152 FILLER_0_18_282
*1153 FILLER_0_18_3
*1154 FILLER_0_18_303
*1155 FILLER_0_18_37
*1156 FILLER_0_18_57
*1157 FILLER_0_19_100
*1158 FILLER_0_19_113
*1159 FILLER_0_19_124
*1160 FILLER_0_19_133
*1161 FILLER_0_19_15
*1162 FILLER_0_19_157
*1163 FILLER_0_19_165
*1164 FILLER_0_19_169
*1165 FILLER_0_19_177
*1166 FILLER_0_19_183
*1167 FILLER_0_19_191
*1168 FILLER_0_19_205
*1169 FILLER_0_19_211
*1170 FILLER_0_19_23
*1171 FILLER_0_19_241
*1172 FILLER_0_19_263
*1173 FILLER_0_19_275
*1174 FILLER_0_19_279
*1175 FILLER_0_19_281
*1176 FILLER_0_19_293
*1177 FILLER_0_19_3
*1178 FILLER_0_19_305
*1179 FILLER_0_19_57
*1180 FILLER_0_19_70
*1181 FILLER_0_1_103
*1182 FILLER_0_1_121
*1183 FILLER_0_1_139
*1184 FILLER_0_1_15
*1185 FILLER_0_1_151
*1186 FILLER_0_1_163
*1187 FILLER_0_1_167
*1188 FILLER_0_1_189
*1189 FILLER_0_1_201
*1190 FILLER_0_1_213
*1191 FILLER_0_1_221
*1192 FILLER_0_1_225
*1193 FILLER_0_1_231
*1194 FILLER_0_1_248
*1195 FILLER_0_1_27
*1196 FILLER_0_1_281
*1197 FILLER_0_1_293
*1198 FILLER_0_1_3
*1199 FILLER_0_1_305
*1200 FILLER_0_1_39
*1201 FILLER_0_1_51
*1202 FILLER_0_1_55
*1203 FILLER_0_1_57
*1204 FILLER_0_1_69
*1205 FILLER_0_1_81
*1206 FILLER_0_1_93
*1207 FILLER_0_1_99
*1208 FILLER_0_20_11
*1209 FILLER_0_20_110
*1210 FILLER_0_20_119
*1211 FILLER_0_20_127
*1212 FILLER_0_20_15
*1213 FILLER_0_20_166
*1214 FILLER_0_20_174
*1215 FILLER_0_20_192
*1216 FILLER_0_20_221
*1217 FILLER_0_20_225
*1218 FILLER_0_20_246
*1219 FILLER_0_20_253
*1220 FILLER_0_20_265
*1221 FILLER_0_20_27
*1222 FILLER_0_20_277
*1223 FILLER_0_20_289
*1224 FILLER_0_20_29
*1225 FILLER_0_20_3
*1226 FILLER_0_20_301
*1227 FILLER_0_20_36
*1228 FILLER_0_20_48
*1229 FILLER_0_20_67
*1230 FILLER_0_20_74
*1231 FILLER_0_20_83
*1232 FILLER_0_20_85
*1233 FILLER_0_20_89
*1234 FILLER_0_20_98
*1235 FILLER_0_21_116
*1236 FILLER_0_21_128
*1237 FILLER_0_21_136
*1238 FILLER_0_21_161
*1239 FILLER_0_21_169
*1240 FILLER_0_21_217
*1241 FILLER_0_21_22
*1242 FILLER_0_21_225
*1243 FILLER_0_21_235
*1244 FILLER_0_21_244
*1245 FILLER_0_21_256
*1246 FILLER_0_21_268
*1247 FILLER_0_21_281
*1248 FILLER_0_21_293
*1249 FILLER_0_21_3
*1250 FILLER_0_21_305
*1251 FILLER_0_21_40
*1252 FILLER_0_21_57
*1253 FILLER_0_21_71
*1254 FILLER_0_21_79
*1255 FILLER_0_21_86
*1256 FILLER_0_22_125
*1257 FILLER_0_22_137
*1258 FILLER_0_22_141
*1259 FILLER_0_22_173
*1260 FILLER_0_22_214
*1261 FILLER_0_22_22
*1262 FILLER_0_22_224
*1263 FILLER_0_22_250
*1264 FILLER_0_22_253
*1265 FILLER_0_22_265
*1266 FILLER_0_22_277
*1267 FILLER_0_22_289
*1268 FILLER_0_22_29
*1269 FILLER_0_22_3
*1270 FILLER_0_22_301
*1271 FILLER_0_22_34
*1272 FILLER_0_22_69
*1273 FILLER_0_22_80
*1274 FILLER_0_22_90
*1275 FILLER_0_22_98
*1276 FILLER_0_23_101
*1277 FILLER_0_23_107
*1278 FILLER_0_23_11
*1279 FILLER_0_23_111
*1280 FILLER_0_23_116
*1281 FILLER_0_23_124
*1282 FILLER_0_23_130
*1283 FILLER_0_23_136
*1284 FILLER_0_23_142
*1285 FILLER_0_23_15
*1286 FILLER_0_23_167
*1287 FILLER_0_23_186
*1288 FILLER_0_23_205
*1289 FILLER_0_23_217
*1290 FILLER_0_23_257
*1291 FILLER_0_23_269
*1292 FILLER_0_23_277
*1293 FILLER_0_23_281
*1294 FILLER_0_23_293
*1295 FILLER_0_23_3
*1296 FILLER_0_23_305
*1297 FILLER_0_23_35
*1298 FILLER_0_23_55
*1299 FILLER_0_23_57
*1300 FILLER_0_23_63
*1301 FILLER_0_23_71
*1302 FILLER_0_23_81
*1303 FILLER_0_23_93
*1304 FILLER_0_24_134
*1305 FILLER_0_24_141
*1306 FILLER_0_24_15
*1307 FILLER_0_24_156
*1308 FILLER_0_24_182
*1309 FILLER_0_24_19
*1310 FILLER_0_24_191
*1311 FILLER_0_24_195
*1312 FILLER_0_24_197
*1313 FILLER_0_24_209
*1314 FILLER_0_24_221
*1315 FILLER_0_24_233
*1316 FILLER_0_24_251
*1317 FILLER_0_24_269
*1318 FILLER_0_24_281
*1319 FILLER_0_24_293
*1320 FILLER_0_24_3
*1321 FILLER_0_24_305
*1322 FILLER_0_24_37
*1323 FILLER_0_24_49
*1324 FILLER_0_24_80
*1325 FILLER_0_24_85
*1326 FILLER_0_24_97
*1327 FILLER_0_25_137
*1328 FILLER_0_25_15
*1329 FILLER_0_25_154
*1330 FILLER_0_25_166
*1331 FILLER_0_25_169
*1332 FILLER_0_25_181
*1333 FILLER_0_25_193
*1334 FILLER_0_25_197
*1335 FILLER_0_25_221
*1336 FILLER_0_25_225
*1337 FILLER_0_25_23
*1338 FILLER_0_25_232
*1339 FILLER_0_25_238
*1340 FILLER_0_25_258
*1341 FILLER_0_25_270
*1342 FILLER_0_25_278
*1343 FILLER_0_25_281
*1344 FILLER_0_25_293
*1345 FILLER_0_25_3
*1346 FILLER_0_25_305
*1347 FILLER_0_25_33
*1348 FILLER_0_25_39
*1349 FILLER_0_25_51
*1350 FILLER_0_25_55
*1351 FILLER_0_25_67
*1352 FILLER_0_25_99
*1353 FILLER_0_26_108
*1354 FILLER_0_26_123
*1355 FILLER_0_26_141
*1356 FILLER_0_26_147
*1357 FILLER_0_26_15
*1358 FILLER_0_26_172
*1359 FILLER_0_26_184
*1360 FILLER_0_26_194
*1361 FILLER_0_26_197
*1362 FILLER_0_26_230
*1363 FILLER_0_26_236
*1364 FILLER_0_26_244
*1365 FILLER_0_26_249
*1366 FILLER_0_26_253
*1367 FILLER_0_26_265
*1368 FILLER_0_26_277
*1369 FILLER_0_26_289
*1370 FILLER_0_26_29
*1371 FILLER_0_26_3
*1372 FILLER_0_26_301
*1373 FILLER_0_26_64
*1374 FILLER_0_26_85
*1375 FILLER_0_26_96
*1376 FILLER_0_27_100
*1377 FILLER_0_27_104
*1378 FILLER_0_27_113
*1379 FILLER_0_27_124
*1380 FILLER_0_27_148
*1381 FILLER_0_27_154
*1382 FILLER_0_27_225
*1383 FILLER_0_27_233
*1384 FILLER_0_27_254
*1385 FILLER_0_27_266
*1386 FILLER_0_27_27
*1387 FILLER_0_27_278
*1388 FILLER_0_27_281
*1389 FILLER_0_27_293
*1390 FILLER_0_27_3
*1391 FILLER_0_27_305
*1392 FILLER_0_27_64
*1393 FILLER_0_27_96
*1394 FILLER_0_28_109
*1395 FILLER_0_28_11
*1396 FILLER_0_28_119
*1397 FILLER_0_28_138
*1398 FILLER_0_28_156
*1399 FILLER_0_28_164
*1400 FILLER_0_28_218
*1401 FILLER_0_28_224
*1402 FILLER_0_28_260
*1403 FILLER_0_28_272
*1404 FILLER_0_28_284
*1405 FILLER_0_28_296
*1406 FILLER_0_28_3
*1407 FILLER_0_28_304
*1408 FILLER_0_28_57
*1409 FILLER_0_28_65
*1410 FILLER_0_29_106
*1411 FILLER_0_29_113
*1412 FILLER_0_29_147
*1413 FILLER_0_29_15
*1414 FILLER_0_29_156
*1415 FILLER_0_29_19
*1416 FILLER_0_29_192
*1417 FILLER_0_29_200
*1418 FILLER_0_29_221
*1419 FILLER_0_29_225
*1420 FILLER_0_29_23
*1421 FILLER_0_29_233
*1422 FILLER_0_29_239
*1423 FILLER_0_29_255
*1424 FILLER_0_29_267
*1425 FILLER_0_29_279
*1426 FILLER_0_29_281
*1427 FILLER_0_29_293
*1428 FILLER_0_29_3
*1429 FILLER_0_29_305
*1430 FILLER_0_29_35
*1431 FILLER_0_29_47
*1432 FILLER_0_29_55
*1433 FILLER_0_29_57
*1434 FILLER_0_29_69
*1435 FILLER_0_29_80
*1436 FILLER_0_29_94
*1437 FILLER_0_2_139
*1438 FILLER_0_2_149
*1439 FILLER_0_2_15
*1440 FILLER_0_2_161
*1441 FILLER_0_2_183
*1442 FILLER_0_2_195
*1443 FILLER_0_2_220
*1444 FILLER_0_2_253
*1445 FILLER_0_2_261
*1446 FILLER_0_2_27
*1447 FILLER_0_2_285
*1448 FILLER_0_2_29
*1449 FILLER_0_2_297
*1450 FILLER_0_2_3
*1451 FILLER_0_2_305
*1452 FILLER_0_2_41
*1453 FILLER_0_2_53
*1454 FILLER_0_2_65
*1455 FILLER_0_2_77
*1456 FILLER_0_2_83
*1457 FILLER_0_2_85
*1458 FILLER_0_30_108
*1459 FILLER_0_30_120
*1460 FILLER_0_30_138
*1461 FILLER_0_30_15
*1462 FILLER_0_30_156
*1463 FILLER_0_30_187
*1464 FILLER_0_30_194
*1465 FILLER_0_30_197
*1466 FILLER_0_30_225
*1467 FILLER_0_30_231
*1468 FILLER_0_30_237
*1469 FILLER_0_30_249
*1470 FILLER_0_30_253
*1471 FILLER_0_30_257
*1472 FILLER_0_30_27
*1473 FILLER_0_30_274
*1474 FILLER_0_30_286
*1475 FILLER_0_30_29
*1476 FILLER_0_30_298
*1477 FILLER_0_30_3
*1478 FILLER_0_30_306
*1479 FILLER_0_30_41
*1480 FILLER_0_30_53
*1481 FILLER_0_30_72
*1482 FILLER_0_30_85
*1483 FILLER_0_30_97
*1484 FILLER_0_31_104
*1485 FILLER_0_31_118
*1486 FILLER_0_31_130
*1487 FILLER_0_31_142
*1488 FILLER_0_31_148
*1489 FILLER_0_31_15
*1490 FILLER_0_31_161
*1491 FILLER_0_31_167
*1492 FILLER_0_31_174
*1493 FILLER_0_31_178
*1494 FILLER_0_31_184
*1495 FILLER_0_31_196
*1496 FILLER_0_31_220
*1497 FILLER_0_31_230
*1498 FILLER_0_31_245
*1499 FILLER_0_31_252
*1500 FILLER_0_31_27
*1501 FILLER_0_31_273
*1502 FILLER_0_31_279
*1503 FILLER_0_31_281
*1504 FILLER_0_31_293
*1505 FILLER_0_31_3
*1506 FILLER_0_31_305
*1507 FILLER_0_31_39
*1508 FILLER_0_31_80
*1509 FILLER_0_31_84
*1510 FILLER_0_31_96
*1511 FILLER_0_32_122
*1512 FILLER_0_32_137
*1513 FILLER_0_32_15
*1514 FILLER_0_32_164
*1515 FILLER_0_32_170
*1516 FILLER_0_32_191
*1517 FILLER_0_32_195
*1518 FILLER_0_32_197
*1519 FILLER_0_32_209
*1520 FILLER_0_32_227
*1521 FILLER_0_32_235
*1522 FILLER_0_32_269
*1523 FILLER_0_32_27
*1524 FILLER_0_32_281
*1525 FILLER_0_32_29
*1526 FILLER_0_32_293
*1527 FILLER_0_32_3
*1528 FILLER_0_32_301
*1529 FILLER_0_32_37
*1530 FILLER_0_32_82
*1531 FILLER_0_33_110
*1532 FILLER_0_33_128
*1533 FILLER_0_33_15
*1534 FILLER_0_33_161
*1535 FILLER_0_33_169
*1536 FILLER_0_33_175
*1537 FILLER_0_33_196
*1538 FILLER_0_33_209
*1539 FILLER_0_33_219
*1540 FILLER_0_33_223
*1541 FILLER_0_33_225
*1542 FILLER_0_33_242
*1543 FILLER_0_33_254
*1544 FILLER_0_33_266
*1545 FILLER_0_33_27
*1546 FILLER_0_33_278
*1547 FILLER_0_33_281
*1548 FILLER_0_33_293
*1549 FILLER_0_33_3
*1550 FILLER_0_33_305
*1551 FILLER_0_33_39
*1552 FILLER_0_33_57
*1553 FILLER_0_33_80
*1554 FILLER_0_33_84
*1555 FILLER_0_34_134
*1556 FILLER_0_34_138
*1557 FILLER_0_34_15
*1558 FILLER_0_34_161
*1559 FILLER_0_34_165
*1560 FILLER_0_34_194
*1561 FILLER_0_34_197
*1562 FILLER_0_34_203
*1563 FILLER_0_34_225
*1564 FILLER_0_34_247
*1565 FILLER_0_34_251
*1566 FILLER_0_34_253
*1567 FILLER_0_34_265
*1568 FILLER_0_34_27
*1569 FILLER_0_34_277
*1570 FILLER_0_34_289
*1571 FILLER_0_34_29
*1572 FILLER_0_34_3
*1573 FILLER_0_34_301
*1574 FILLER_0_34_41
*1575 FILLER_0_34_49
*1576 FILLER_0_34_53
*1577 FILLER_0_34_64
*1578 FILLER_0_34_81
*1579 FILLER_0_34_85
*1580 FILLER_0_34_99
*1581 FILLER_0_35_122
*1582 FILLER_0_35_134
*1583 FILLER_0_35_142
*1584 FILLER_0_35_15
*1585 FILLER_0_35_159
*1586 FILLER_0_35_201
*1587 FILLER_0_35_228
*1588 FILLER_0_35_27
*1589 FILLER_0_35_272
*1590 FILLER_0_35_281
*1591 FILLER_0_35_293
*1592 FILLER_0_35_3
*1593 FILLER_0_35_305
*1594 FILLER_0_35_39
*1595 FILLER_0_35_54
*1596 FILLER_0_35_57
*1597 FILLER_0_35_69
*1598 FILLER_0_35_84
*1599 FILLER_0_36_114
*1600 FILLER_0_36_129
*1601 FILLER_0_36_138
*1602 FILLER_0_36_15
*1603 FILLER_0_36_167
*1604 FILLER_0_36_175
*1605 FILLER_0_36_186
*1606 FILLER_0_36_192
*1607 FILLER_0_36_205
*1608 FILLER_0_36_250
*1609 FILLER_0_36_253
*1610 FILLER_0_36_265
*1611 FILLER_0_36_27
*1612 FILLER_0_36_277
*1613 FILLER_0_36_289
*1614 FILLER_0_36_29
*1615 FILLER_0_36_3
*1616 FILLER_0_36_301
*1617 FILLER_0_36_51
*1618 FILLER_0_36_72
*1619 FILLER_0_36_77
*1620 FILLER_0_36_83
*1621 FILLER_0_36_85
*1622 FILLER_0_36_97
*1623 FILLER_0_37_104
*1624 FILLER_0_37_118
*1625 FILLER_0_37_126
*1626 FILLER_0_37_15
*1627 FILLER_0_37_166
*1628 FILLER_0_37_169
*1629 FILLER_0_37_181
*1630 FILLER_0_37_193
*1631 FILLER_0_37_222
*1632 FILLER_0_37_238
*1633 FILLER_0_37_242
*1634 FILLER_0_37_246
*1635 FILLER_0_37_258
*1636 FILLER_0_37_270
*1637 FILLER_0_37_278
*1638 FILLER_0_37_281
*1639 FILLER_0_37_293
*1640 FILLER_0_37_3
*1641 FILLER_0_37_305
*1642 FILLER_0_37_55
*1643 FILLER_0_38_112
*1644 FILLER_0_38_124
*1645 FILLER_0_38_136
*1646 FILLER_0_38_15
*1647 FILLER_0_38_150
*1648 FILLER_0_38_176
*1649 FILLER_0_38_195
*1650 FILLER_0_38_197
*1651 FILLER_0_38_209
*1652 FILLER_0_38_220
*1653 FILLER_0_38_229
*1654 FILLER_0_38_235
*1655 FILLER_0_38_247
*1656 FILLER_0_38_251
*1657 FILLER_0_38_253
*1658 FILLER_0_38_265
*1659 FILLER_0_38_27
*1660 FILLER_0_38_277
*1661 FILLER_0_38_289
*1662 FILLER_0_38_29
*1663 FILLER_0_38_3
*1664 FILLER_0_38_301
*1665 FILLER_0_38_37
*1666 FILLER_0_38_44
*1667 FILLER_0_38_62
*1668 FILLER_0_38_79
*1669 FILLER_0_39_110
*1670 FILLER_0_39_113
*1671 FILLER_0_39_125
*1672 FILLER_0_39_137
*1673 FILLER_0_39_141
*1674 FILLER_0_39_15
*1675 FILLER_0_39_200
*1676 FILLER_0_39_215
*1677 FILLER_0_39_223
*1678 FILLER_0_39_241
*1679 FILLER_0_39_259
*1680 FILLER_0_39_27
*1681 FILLER_0_39_271
*1682 FILLER_0_39_279
*1683 FILLER_0_39_281
*1684 FILLER_0_39_293
*1685 FILLER_0_39_3
*1686 FILLER_0_39_305
*1687 FILLER_0_39_35
*1688 FILLER_0_39_53
*1689 FILLER_0_39_57
*1690 FILLER_0_39_76
*1691 FILLER_0_39_81
*1692 FILLER_0_3_102
*1693 FILLER_0_3_113
*1694 FILLER_0_3_15
*1695 FILLER_0_3_150
*1696 FILLER_0_3_154
*1697 FILLER_0_3_189
*1698 FILLER_0_3_27
*1699 FILLER_0_3_289
*1700 FILLER_0_3_3
*1701 FILLER_0_3_301
*1702 FILLER_0_3_39
*1703 FILLER_0_3_51
*1704 FILLER_0_3_55
*1705 FILLER_0_3_57
*1706 FILLER_0_3_69
*1707 FILLER_0_3_81
*1708 FILLER_0_3_85
*1709 FILLER_0_40_123
*1710 FILLER_0_40_135
*1711 FILLER_0_40_15
*1712 FILLER_0_40_191
*1713 FILLER_0_40_195
*1714 FILLER_0_40_214
*1715 FILLER_0_40_224
*1716 FILLER_0_40_239
*1717 FILLER_0_40_27
*1718 FILLER_0_40_273
*1719 FILLER_0_40_285
*1720 FILLER_0_40_29
*1721 FILLER_0_40_297
*1722 FILLER_0_40_3
*1723 FILLER_0_40_305
*1724 FILLER_0_40_41
*1725 FILLER_0_40_47
*1726 FILLER_0_40_56
*1727 FILLER_0_40_69
*1728 FILLER_0_40_81
*1729 FILLER_0_41_111
*1730 FILLER_0_41_15
*1731 FILLER_0_41_153
*1732 FILLER_0_41_165
*1733 FILLER_0_41_175
*1734 FILLER_0_41_187
*1735 FILLER_0_41_208
*1736 FILLER_0_41_218
*1737 FILLER_0_41_241
*1738 FILLER_0_41_269
*1739 FILLER_0_41_27
*1740 FILLER_0_41_277
*1741 FILLER_0_41_281
*1742 FILLER_0_41_293
*1743 FILLER_0_41_3
*1744 FILLER_0_41_305
*1745 FILLER_0_41_39
*1746 FILLER_0_41_43
*1747 FILLER_0_41_53
*1748 FILLER_0_41_57
*1749 FILLER_0_41_71
*1750 FILLER_0_41_83
*1751 FILLER_0_42_118
*1752 FILLER_0_42_122
*1753 FILLER_0_42_130
*1754 FILLER_0_42_138
*1755 FILLER_0_42_144
*1756 FILLER_0_42_15
*1757 FILLER_0_42_152
*1758 FILLER_0_42_169
*1759 FILLER_0_42_177
*1760 FILLER_0_42_195
*1761 FILLER_0_42_197
*1762 FILLER_0_42_201
*1763 FILLER_0_42_248
*1764 FILLER_0_42_253
*1765 FILLER_0_42_265
*1766 FILLER_0_42_27
*1767 FILLER_0_42_277
*1768 FILLER_0_42_289
*1769 FILLER_0_42_29
*1770 FILLER_0_42_3
*1771 FILLER_0_42_301
*1772 FILLER_0_42_47
*1773 FILLER_0_42_51
*1774 FILLER_0_42_61
*1775 FILLER_0_42_73
*1776 FILLER_0_42_81
*1777 FILLER_0_42_85
*1778 FILLER_0_42_97
*1779 FILLER_0_43_113
*1780 FILLER_0_43_134
*1781 FILLER_0_43_146
*1782 FILLER_0_43_15
*1783 FILLER_0_43_154
*1784 FILLER_0_43_176
*1785 FILLER_0_43_188
*1786 FILLER_0_43_200
*1787 FILLER_0_43_211
*1788 FILLER_0_43_259
*1789 FILLER_0_43_27
*1790 FILLER_0_43_271
*1791 FILLER_0_43_279
*1792 FILLER_0_43_281
*1793 FILLER_0_43_293
*1794 FILLER_0_43_3
*1795 FILLER_0_43_305
*1796 FILLER_0_43_53
*1797 FILLER_0_43_90
*1798 FILLER_0_43_98
*1799 FILLER_0_44_106
*1800 FILLER_0_44_134
*1801 FILLER_0_44_141
*1802 FILLER_0_44_147
*1803 FILLER_0_44_15
*1804 FILLER_0_44_165
*1805 FILLER_0_44_179
*1806 FILLER_0_44_183
*1807 FILLER_0_44_194
*1808 FILLER_0_44_202
*1809 FILLER_0_44_214
*1810 FILLER_0_44_242
*1811 FILLER_0_44_250
*1812 FILLER_0_44_253
*1813 FILLER_0_44_265
*1814 FILLER_0_44_27
*1815 FILLER_0_44_277
*1816 FILLER_0_44_289
*1817 FILLER_0_44_29
*1818 FILLER_0_44_3
*1819 FILLER_0_44_301
*1820 FILLER_0_44_72
*1821 FILLER_0_44_82
*1822 FILLER_0_44_98
*1823 FILLER_0_45_108
*1824 FILLER_0_45_120
*1825 FILLER_0_45_132
*1826 FILLER_0_45_140
*1827 FILLER_0_45_15
*1828 FILLER_0_45_167
*1829 FILLER_0_45_169
*1830 FILLER_0_45_177
*1831 FILLER_0_45_188
*1832 FILLER_0_45_211
*1833 FILLER_0_45_223
*1834 FILLER_0_45_228
*1835 FILLER_0_45_235
*1836 FILLER_0_45_247
*1837 FILLER_0_45_259
*1838 FILLER_0_45_27
*1839 FILLER_0_45_271
*1840 FILLER_0_45_279
*1841 FILLER_0_45_281
*1842 FILLER_0_45_293
*1843 FILLER_0_45_3
*1844 FILLER_0_45_305
*1845 FILLER_0_45_39
*1846 FILLER_0_45_50
*1847 FILLER_0_45_55
*1848 FILLER_0_45_57
*1849 FILLER_0_45_91
*1850 FILLER_0_45_99
*1851 FILLER_0_46_127
*1852 FILLER_0_46_134
*1853 FILLER_0_46_141
*1854 FILLER_0_46_15
*1855 FILLER_0_46_159
*1856 FILLER_0_46_171
*1857 FILLER_0_46_175
*1858 FILLER_0_46_221
*1859 FILLER_0_46_233
*1860 FILLER_0_46_245
*1861 FILLER_0_46_251
*1862 FILLER_0_46_253
*1863 FILLER_0_46_265
*1864 FILLER_0_46_27
*1865 FILLER_0_46_277
*1866 FILLER_0_46_289
*1867 FILLER_0_46_29
*1868 FILLER_0_46_3
*1869 FILLER_0_46_301
*1870 FILLER_0_46_41
*1871 FILLER_0_46_53
*1872 FILLER_0_46_65
*1873 FILLER_0_46_93
*1874 FILLER_0_47_107
*1875 FILLER_0_47_111
*1876 FILLER_0_47_122
*1877 FILLER_0_47_134
*1878 FILLER_0_47_15
*1879 FILLER_0_47_152
*1880 FILLER_0_47_158
*1881 FILLER_0_47_169
*1882 FILLER_0_47_214
*1883 FILLER_0_47_222
*1884 FILLER_0_47_225
*1885 FILLER_0_47_237
*1886 FILLER_0_47_249
*1887 FILLER_0_47_261
*1888 FILLER_0_47_27
*1889 FILLER_0_47_273
*1890 FILLER_0_47_279
*1891 FILLER_0_47_281
*1892 FILLER_0_47_293
*1893 FILLER_0_47_3
*1894 FILLER_0_47_305
*1895 FILLER_0_47_39
*1896 FILLER_0_47_51
*1897 FILLER_0_47_55
*1898 FILLER_0_47_57
*1899 FILLER_0_47_69
*1900 FILLER_0_47_76
*1901 FILLER_0_47_88
*1902 FILLER_0_47_97
*1903 FILLER_0_48_105
*1904 FILLER_0_48_134
*1905 FILLER_0_48_141
*1906 FILLER_0_48_149
*1907 FILLER_0_48_15
*1908 FILLER_0_48_167
*1909 FILLER_0_48_173
*1910 FILLER_0_48_200
*1911 FILLER_0_48_210
*1912 FILLER_0_48_222
*1913 FILLER_0_48_234
*1914 FILLER_0_48_246
*1915 FILLER_0_48_253
*1916 FILLER_0_48_265
*1917 FILLER_0_48_27
*1918 FILLER_0_48_277
*1919 FILLER_0_48_289
*1920 FILLER_0_48_29
*1921 FILLER_0_48_3
*1922 FILLER_0_48_301
*1923 FILLER_0_48_41
*1924 FILLER_0_48_53
*1925 FILLER_0_48_65
*1926 FILLER_0_48_77
*1927 FILLER_0_48_83
*1928 FILLER_0_48_85
*1929 FILLER_0_49_122
*1930 FILLER_0_49_134
*1931 FILLER_0_49_15
*1932 FILLER_0_49_177
*1933 FILLER_0_49_189
*1934 FILLER_0_49_201
*1935 FILLER_0_49_213
*1936 FILLER_0_49_221
*1937 FILLER_0_49_225
*1938 FILLER_0_49_237
*1939 FILLER_0_49_249
*1940 FILLER_0_49_261
*1941 FILLER_0_49_27
*1942 FILLER_0_49_273
*1943 FILLER_0_49_279
*1944 FILLER_0_49_281
*1945 FILLER_0_49_293
*1946 FILLER_0_49_3
*1947 FILLER_0_49_305
*1948 FILLER_0_49_39
*1949 FILLER_0_49_51
*1950 FILLER_0_49_55
*1951 FILLER_0_49_57
*1952 FILLER_0_49_69
*1953 FILLER_0_49_81
*1954 FILLER_0_4_112
*1955 FILLER_0_4_122
*1956 FILLER_0_4_131
*1957 FILLER_0_4_139
*1958 FILLER_0_4_141
*1959 FILLER_0_4_149
*1960 FILLER_0_4_15
*1961 FILLER_0_4_192
*1962 FILLER_0_4_197
*1963 FILLER_0_4_250
*1964 FILLER_0_4_253
*1965 FILLER_0_4_27
*1966 FILLER_0_4_286
*1967 FILLER_0_4_29
*1968 FILLER_0_4_298
*1969 FILLER_0_4_3
*1970 FILLER_0_4_306
*1971 FILLER_0_4_41
*1972 FILLER_0_4_53
*1973 FILLER_0_4_65
*1974 FILLER_0_4_77
*1975 FILLER_0_4_85
*1976 FILLER_0_50_123
*1977 FILLER_0_50_135
*1978 FILLER_0_50_139
*1979 FILLER_0_50_141
*1980 FILLER_0_50_15
*1981 FILLER_0_50_153
*1982 FILLER_0_50_174
*1983 FILLER_0_50_186
*1984 FILLER_0_50_194
*1985 FILLER_0_50_197
*1986 FILLER_0_50_209
*1987 FILLER_0_50_221
*1988 FILLER_0_50_233
*1989 FILLER_0_50_245
*1990 FILLER_0_50_251
*1991 FILLER_0_50_253
*1992 FILLER_0_50_265
*1993 FILLER_0_50_27
*1994 FILLER_0_50_277
*1995 FILLER_0_50_289
*1996 FILLER_0_50_29
*1997 FILLER_0_50_3
*1998 FILLER_0_50_301
*1999 FILLER_0_50_41
*2000 FILLER_0_50_53
*2001 FILLER_0_50_65
*2002 FILLER_0_50_77
*2003 FILLER_0_50_83
*2004 FILLER_0_50_85
*2005 FILLER_0_51_109
*2006 FILLER_0_51_113
*2007 FILLER_0_51_125
*2008 FILLER_0_51_137
*2009 FILLER_0_51_141
*2010 FILLER_0_51_15
*2011 FILLER_0_51_153
*2012 FILLER_0_51_165
*2013 FILLER_0_51_169
*2014 FILLER_0_51_181
*2015 FILLER_0_51_188
*2016 FILLER_0_51_197
*2017 FILLER_0_51_209
*2018 FILLER_0_51_221
*2019 FILLER_0_51_225
*2020 FILLER_0_51_237
*2021 FILLER_0_51_249
*2022 FILLER_0_51_253
*2023 FILLER_0_51_265
*2024 FILLER_0_51_27
*2025 FILLER_0_51_277
*2026 FILLER_0_51_281
*2027 FILLER_0_51_29
*2028 FILLER_0_51_293
*2029 FILLER_0_51_3
*2030 FILLER_0_51_305
*2031 FILLER_0_51_41
*2032 FILLER_0_51_53
*2033 FILLER_0_51_57
*2034 FILLER_0_51_69
*2035 FILLER_0_51_81
*2036 FILLER_0_51_85
*2037 FILLER_0_51_97
*2038 FILLER_0_5_121
*2039 FILLER_0_5_130
*2040 FILLER_0_5_142
*2041 FILLER_0_5_15
*2042 FILLER_0_5_154
*2043 FILLER_0_5_167
*2044 FILLER_0_5_180
*2045 FILLER_0_5_192
*2046 FILLER_0_5_200
*2047 FILLER_0_5_213
*2048 FILLER_0_5_221
*2049 FILLER_0_5_225
*2050 FILLER_0_5_259
*2051 FILLER_0_5_263
*2052 FILLER_0_5_27
*2053 FILLER_0_5_274
*2054 FILLER_0_5_281
*2055 FILLER_0_5_293
*2056 FILLER_0_5_3
*2057 FILLER_0_5_305
*2058 FILLER_0_5_39
*2059 FILLER_0_5_51
*2060 FILLER_0_5_55
*2061 FILLER_0_5_57
*2062 FILLER_0_5_69
*2063 FILLER_0_5_81
*2064 FILLER_0_5_89
*2065 FILLER_0_5_94
*2066 FILLER_0_6_109
*2067 FILLER_0_6_121
*2068 FILLER_0_6_139
*2069 FILLER_0_6_141
*2070 FILLER_0_6_15
*2071 FILLER_0_6_153
*2072 FILLER_0_6_164
*2073 FILLER_0_6_181
*2074 FILLER_0_6_187
*2075 FILLER_0_6_205
*2076 FILLER_0_6_212
*2077 FILLER_0_6_224
*2078 FILLER_0_6_236
*2079 FILLER_0_6_249
*2080 FILLER_0_6_253
*2081 FILLER_0_6_261
*2082 FILLER_0_6_267
*2083 FILLER_0_6_27
*2084 FILLER_0_6_275
*2085 FILLER_0_6_287
*2086 FILLER_0_6_29
*2087 FILLER_0_6_299
*2088 FILLER_0_6_3
*2089 FILLER_0_6_41
*2090 FILLER_0_6_53
*2091 FILLER_0_6_65
*2092 FILLER_0_6_77
*2093 FILLER_0_6_83
*2094 FILLER_0_6_85
*2095 FILLER_0_6_97
*2096 FILLER_0_7_108
*2097 FILLER_0_7_15
*2098 FILLER_0_7_156
*2099 FILLER_0_7_169
*2100 FILLER_0_7_179
*2101 FILLER_0_7_185
*2102 FILLER_0_7_202
*2103 FILLER_0_7_214
*2104 FILLER_0_7_222
*2105 FILLER_0_7_225
*2106 FILLER_0_7_237
*2107 FILLER_0_7_253
*2108 FILLER_0_7_27
*2109 FILLER_0_7_277
*2110 FILLER_0_7_281
*2111 FILLER_0_7_293
*2112 FILLER_0_7_3
*2113 FILLER_0_7_305
*2114 FILLER_0_7_39
*2115 FILLER_0_7_51
*2116 FILLER_0_7_55
*2117 FILLER_0_7_57
*2118 FILLER_0_7_69
*2119 FILLER_0_7_77
*2120 FILLER_0_7_96
*2121 FILLER_0_8_138
*2122 FILLER_0_8_149
*2123 FILLER_0_8_15
*2124 FILLER_0_8_157
*2125 FILLER_0_8_165
*2126 FILLER_0_8_171
*2127 FILLER_0_8_183
*2128 FILLER_0_8_195
*2129 FILLER_0_8_220
*2130 FILLER_0_8_232
*2131 FILLER_0_8_238
*2132 FILLER_0_8_247
*2133 FILLER_0_8_251
*2134 FILLER_0_8_27
*2135 FILLER_0_8_29
*2136 FILLER_0_8_290
*2137 FILLER_0_8_3
*2138 FILLER_0_8_302
*2139 FILLER_0_8_306
*2140 FILLER_0_8_41
*2141 FILLER_0_8_53
*2142 FILLER_0_8_65
*2143 FILLER_0_8_77
*2144 FILLER_0_9_110
*2145 FILLER_0_9_133
*2146 FILLER_0_9_144
*2147 FILLER_0_9_15
*2148 FILLER_0_9_156
*2149 FILLER_0_9_160
*2150 FILLER_0_9_184
*2151 FILLER_0_9_206
*2152 FILLER_0_9_218
*2153 FILLER_0_9_225
*2154 FILLER_0_9_27
*2155 FILLER_0_9_288
*2156 FILLER_0_9_3
*2157 FILLER_0_9_300
*2158 FILLER_0_9_306
*2159 FILLER_0_9_39
*2160 FILLER_0_9_51
*2161 FILLER_0_9_55
*2162 FILLER_0_9_57
*2163 FILLER_0_9_69
*2164 PHY_0
*2165 PHY_1
*2166 PHY_10
*2167 PHY_100
*2168 PHY_101
*2169 PHY_102
*2170 PHY_103
*2171 PHY_11
*2172 PHY_12
*2173 PHY_13
*2174 PHY_14
*2175 PHY_15
*2176 PHY_16
*2177 PHY_17
*2178 PHY_18
*2179 PHY_19
*2180 PHY_2
*2181 PHY_20
*2182 PHY_21
*2183 PHY_22
*2184 PHY_23
*2185 PHY_24
*2186 PHY_25
*2187 PHY_26
*2188 PHY_27
*2189 PHY_28
*2190 PHY_29
*2191 PHY_3
*2192 PHY_30
*2193 PHY_31
*2194 PHY_32
*2195 PHY_33
*2196 PHY_34
*2197 PHY_35
*2198 PHY_36
*2199 PHY_37
*2200 PHY_38
*2201 PHY_39
*2202 PHY_4
*2203 PHY_40
*2204 PHY_41
*2205 PHY_42
*2206 PHY_43
*2207 PHY_44
*2208 PHY_45
*2209 PHY_46
*2210 PHY_47
*2211 PHY_48
*2212 PHY_49
*2213 PHY_5
*2214 PHY_50
*2215 PHY_51
*2216 PHY_52
*2217 PHY_53
*2218 PHY_54
*2219 PHY_55
*2220 PHY_56
*2221 PHY_57
*2222 PHY_58
*2223 PHY_59
*2224 PHY_6
*2225 PHY_60
*2226 PHY_61
*2227 PHY_62
*2228 PHY_63
*2229 PHY_64
*2230 PHY_65
*2231 PHY_66
*2232 PHY_67
*2233 PHY_68
*2234 PHY_69
*2235 PHY_7
*2236 PHY_70
*2237 PHY_71
*2238 PHY_72
*2239 PHY_73
*2240 PHY_74
*2241 PHY_75
*2242 PHY_76
*2243 PHY_77
*2244 PHY_78
*2245 PHY_79
*2246 PHY_8
*2247 PHY_80
*2248 PHY_81
*2249 PHY_82
*2250 PHY_83
*2251 PHY_84
*2252 PHY_85
*2253 PHY_86
*2254 PHY_87
*2255 PHY_88
*2256 PHY_89
*2257 PHY_9
*2258 PHY_90
*2259 PHY_91
*2260 PHY_92
*2261 PHY_93
*2262 PHY_94
*2263 PHY_95
*2264 PHY_96
*2265 PHY_97
*2266 PHY_98
*2267 PHY_99
*2268 TAP_104
*2269 TAP_105
*2270 TAP_106
*2271 TAP_107
*2272 TAP_108
*2273 TAP_109
*2274 TAP_110
*2275 TAP_111
*2276 TAP_112
*2277 TAP_113
*2278 TAP_114
*2279 TAP_115
*2280 TAP_116
*2281 TAP_117
*2282 TAP_118
*2283 TAP_119
*2284 TAP_120
*2285 TAP_121
*2286 TAP_122
*2287 TAP_123
*2288 TAP_124
*2289 TAP_125
*2290 TAP_126
*2291 TAP_127
*2292 TAP_128
*2293 TAP_129
*2294 TAP_130
*2295 TAP_131
*2296 TAP_132
*2297 TAP_133
*2298 TAP_134
*2299 TAP_135
*2300 TAP_136
*2301 TAP_137
*2302 TAP_138
*2303 TAP_139
*2304 TAP_140
*2305 TAP_141
*2306 TAP_142
*2307 TAP_143
*2308 TAP_144
*2309 TAP_145
*2310 TAP_146
*2311 TAP_147
*2312 TAP_148
*2313 TAP_149
*2314 TAP_150
*2315 TAP_151
*2316 TAP_152
*2317 TAP_153
*2318 TAP_154
*2319 TAP_155
*2320 TAP_156
*2321 TAP_157
*2322 TAP_158
*2323 TAP_159
*2324 TAP_160
*2325 TAP_161
*2326 TAP_162
*2327 TAP_163
*2328 TAP_164
*2329 TAP_165
*2330 TAP_166
*2331 TAP_167
*2332 TAP_168
*2333 TAP_169
*2334 TAP_170
*2335 TAP_171
*2336 TAP_172
*2337 TAP_173
*2338 TAP_174
*2339 TAP_175
*2340 TAP_176
*2341 TAP_177
*2342 TAP_178
*2343 TAP_179
*2344 TAP_180
*2345 TAP_181
*2346 TAP_182
*2347 TAP_183
*2348 TAP_184
*2349 TAP_185
*2350 TAP_186
*2351 TAP_187
*2352 TAP_188
*2353 TAP_189
*2354 TAP_190
*2355 TAP_191
*2356 TAP_192
*2357 TAP_193
*2358 TAP_194
*2359 TAP_195
*2360 TAP_196
*2361 TAP_197
*2362 TAP_198
*2363 TAP_199
*2364 TAP_200
*2365 TAP_201
*2366 TAP_202
*2367 TAP_203
*2368 TAP_204
*2369 TAP_205
*2370 TAP_206
*2371 TAP_207
*2372 TAP_208
*2373 TAP_209
*2374 TAP_210
*2375 TAP_211
*2376 TAP_212
*2377 TAP_213
*2378 TAP_214
*2379 TAP_215
*2380 TAP_216
*2381 TAP_217
*2382 TAP_218
*2383 TAP_219
*2384 TAP_220
*2385 TAP_221
*2386 TAP_222
*2387 TAP_223
*2388 TAP_224
*2389 TAP_225
*2390 TAP_226
*2391 TAP_227
*2392 TAP_228
*2393 TAP_229
*2394 TAP_230
*2395 TAP_231
*2396 TAP_232
*2397 TAP_233
*2398 TAP_234
*2399 TAP_235
*2400 TAP_236
*2401 TAP_237
*2402 TAP_238
*2403 TAP_239
*2404 TAP_240
*2405 TAP_241
*2406 TAP_242
*2407 TAP_243
*2408 TAP_244
*2409 TAP_245
*2410 TAP_246
*2411 TAP_247
*2412 TAP_248
*2413 TAP_249
*2414 TAP_250
*2415 TAP_251
*2416 TAP_252
*2417 TAP_253
*2418 TAP_254
*2419 TAP_255
*2420 TAP_256
*2421 TAP_257
*2422 TAP_258
*2423 TAP_259
*2424 TAP_260
*2425 TAP_261
*2426 TAP_262
*2427 TAP_263
*2428 TAP_264
*2429 TAP_265
*2430 TAP_266
*2431 TAP_267
*2432 TAP_268
*2433 TAP_269
*2434 TAP_270
*2435 TAP_271
*2436 TAP_272
*2437 TAP_273
*2438 TAP_274
*2439 TAP_275
*2440 TAP_276
*2441 TAP_277
*2442 TAP_278
*2443 TAP_279
*2444 TAP_280
*2445 TAP_281
*2446 TAP_282
*2447 TAP_283
*2448 TAP_284
*2449 TAP_285
*2450 TAP_286
*2451 TAP_287
*2452 TAP_288
*2453 TAP_289
*2454 TAP_290
*2455 TAP_291
*2456 TAP_292
*2457 TAP_293
*2458 TAP_294
*2459 TAP_295
*2460 TAP_296
*2461 TAP_297
*2462 TAP_298
*2463 TAP_299
*2464 TAP_300
*2465 TAP_301
*2466 TAP_302
*2467 TAP_303
*2468 TAP_304
*2469 TAP_305
*2470 TAP_306
*2471 TAP_307
*2472 TAP_308
*2473 TAP_309
*2474 TAP_310
*2475 TAP_311
*2476 TAP_312
*2477 TAP_313
*2478 TAP_314
*2479 TAP_315
*2480 TAP_316
*2481 TAP_317
*2482 TAP_318
*2483 TAP_319
*2484 TAP_320
*2485 TAP_321
*2486 TAP_322
*2487 TAP_323
*2488 TAP_324
*2489 TAP_325
*2490 TAP_326
*2491 TAP_327
*2492 TAP_328
*2493 TAP_329
*2494 TAP_330
*2495 TAP_331
*2496 TAP_332
*2497 TAP_333
*2498 TAP_334
*2499 TAP_335
*2500 TAP_336
*2501 TAP_337
*2502 TAP_338
*2503 TAP_339
*2504 TAP_340
*2505 TAP_341
*2506 TAP_342
*2507 TAP_343
*2508 TAP_344
*2509 TAP_345
*2510 TAP_346
*2511 TAP_347
*2512 TAP_348
*2513 TAP_349
*2514 TAP_350
*2515 TAP_351
*2516 TAP_352
*2517 TAP_353
*2518 TAP_354
*2519 TAP_355
*2520 TAP_356
*2521 TAP_357
*2522 TAP_358
*2523 TAP_359
*2524 TAP_360
*2525 TAP_361
*2526 TAP_362
*2527 TAP_363
*2528 TAP_364
*2529 TAP_365
*2530 TAP_366
*2531 TAP_367
*2532 TAP_368
*2533 TAP_369
*2534 TAP_370
*2535 TAP_371
*2536 TAP_372
*2537 TAP_373
*2538 _0583_
*2539 _0584_
*2540 _0585_
*2541 _0586_
*2542 _0587_
*2543 _0588_
*2544 _0589_
*2545 _0590_
*2546 _0591_
*2547 _0592_
*2548 _0593_
*2549 _0594_
*2550 _0595_
*2551 _0596_
*2552 _0597_
*2553 _0598_
*2554 _0599_
*2555 _0600_
*2556 _0601_
*2557 _0602_
*2558 _0603_
*2559 _0604_
*2560 _0605_
*2561 _0606_
*2562 _0607_
*2563 _0608_
*2564 _0609_
*2565 _0610_
*2566 _0611_
*2567 _0612_
*2568 _0613_
*2569 _0614_
*2570 _0615_
*2571 _0616_
*2572 _0617_
*2573 _0618_
*2574 _0619_
*2575 _0620_
*2576 _0621_
*2577 _0622_
*2578 _0623_
*2579 _0624_
*2580 _0625_
*2581 _0626_
*2582 _0627_
*2583 _0628_
*2584 _0629_
*2585 _0630_
*2586 _0631_
*2587 _0632_
*2588 _0633_
*2589 _0634_
*2590 _0635_
*2591 _0636_
*2592 _0637_
*2593 _0638_
*2594 _0639_
*2595 _0640_
*2596 _0641_
*2597 _0642_
*2598 _0643_
*2599 _0644_
*2600 _0645_
*2601 _0646_
*2602 _0647_
*2603 _0648_
*2604 _0649_
*2605 _0650_
*2606 _0651_
*2607 _0652_
*2608 _0653_
*2609 _0654_
*2610 _0655_
*2611 _0656_
*2612 _0657_
*2613 _0658_
*2614 _0659_
*2615 _0660_
*2616 _0661_
*2617 _0662_
*2618 _0663_
*2619 _0664_
*2620 _0665_
*2621 _0666_
*2622 _0667_
*2623 _0668_
*2624 _0669_
*2625 _0670_
*2626 _0671_
*2627 _0672_
*2628 _0673_
*2629 _0674_
*2630 _0675_
*2631 _0676_
*2632 _0677_
*2633 _0678_
*2634 _0679_
*2635 _0680_
*2636 _0681_
*2637 _0682_
*2638 _0683_
*2639 _0684_
*2640 _0685_
*2641 _0686_
*2642 _0687_
*2643 _0688_
*2644 _0689_
*2645 _0690_
*2646 _0691_
*2647 _0692_
*2648 _0693_
*2649 _0694_
*2650 _0695_
*2651 _0696_
*2652 _0697_
*2653 _0698_
*2654 _0699_
*2655 _0700_
*2656 _0701_
*2657 _0702_
*2658 _0703_
*2659 _0704_
*2660 _0705_
*2661 _0706_
*2662 _0707_
*2663 _0708_
*2664 _0709_
*2665 _0710_
*2666 _0711_
*2667 _0712_
*2668 _0713_
*2669 _0714_
*2670 _0715_
*2671 _0716_
*2672 _0717_
*2673 _0718_
*2674 _0719_
*2675 _0720_
*2676 _0721_
*2677 _0722_
*2678 _0723_
*2679 _0724_
*2680 _0725_
*2681 _0726_
*2682 _0727_
*2683 _0728_
*2684 _0729_
*2685 _0730_
*2686 _0731_
*2687 _0732_
*2688 _0733_
*2689 _0734_
*2690 _0735_
*2691 _0736_
*2692 _0737_
*2693 _0738_
*2694 _0739_
*2695 _0740_
*2696 _0741_
*2697 _0742_
*2698 _0743_
*2699 _0744_
*2700 _0745_
*2701 _0746_
*2702 _0747_
*2703 _0748_
*2704 _0749_
*2705 _0750_
*2706 _0751_
*2707 _0752_
*2708 _0753_
*2709 _0754_
*2710 _0755_
*2711 _0756_
*2712 _0757_
*2713 _0758_
*2714 _0759_
*2715 _0760_
*2716 _0761_
*2717 _0762_
*2718 _0763_
*2719 _0764_
*2720 _0765_
*2721 _0766_
*2722 _0767_
*2723 _0768_
*2724 _0769_
*2725 _0770_
*2726 _0771_
*2727 _0772_
*2728 _0773_
*2729 _0774_
*2730 _0775_
*2731 _0776_
*2732 _0777_
*2733 _0778_
*2734 _0779_
*2735 _0780_
*2736 _0781_
*2737 _0782_
*2738 _0783_
*2739 _0784_
*2740 _0785_
*2741 _0786_
*2742 _0787_
*2743 _0788_
*2744 _0789_
*2745 _0790_
*2746 _0791_
*2747 _0792_
*2748 _0793_
*2749 _0794_
*2750 _0795_
*2751 _0796_
*2752 _0797_
*2753 _0798_
*2754 _0799_
*2755 _0800_
*2756 _0801_
*2757 _0802_
*2758 _0803_
*2759 _0804_
*2760 _0805_
*2761 _0806_
*2762 _0807_
*2763 _0808_
*2764 _0809_
*2765 _0810_
*2766 _0811_
*2767 _0812_
*2768 _0813_
*2769 _0814_
*2770 _0815_
*2771 _0816_
*2772 _0817_
*2773 _0818_
*2774 _0819_
*2775 _0820_
*2776 _0821_
*2777 _0822_
*2778 _0823_
*2779 _0824_
*2780 _0825_
*2781 _0826_
*2782 _0827_
*2783 _0828_
*2784 _0829_
*2785 _0830_
*2786 _0831_
*2787 _0832_
*2788 _0833_
*2789 _0834_
*2790 _0835_
*2791 _0836_
*2792 _0837_
*2793 _0838_
*2794 _0839_
*2795 _0840_
*2796 _0841_
*2797 _0842_
*2798 _0843_
*2799 _0844_
*2800 _0845_
*2801 _0846_
*2802 _0847_
*2803 _0848_
*2804 _0849_
*2805 _0850_
*2806 _0851_
*2807 _0852_
*2808 _0853_
*2809 _0854_
*2810 _0855_
*2811 _0856_
*2812 _0857_
*2813 _0858_
*2814 _0859_
*2815 _0860_
*2816 _0861_
*2817 _0862_
*2818 _0863_
*2819 _0864_
*2820 _0865_
*2821 _0866_
*2822 _0867_
*2823 _0868_
*2824 _0869_
*2825 _0870_
*2826 _0871_
*2827 _0872_
*2828 _0873_
*2829 _0874_
*2830 _0875_
*2831 _0876_
*2832 _0877_
*2833 _0878_
*2834 _0879_
*2835 _0880_
*2836 _0881_
*2837 _0882_
*2838 _0883_
*2839 _0884_
*2840 _0885_
*2841 _0886_
*2842 _0887_
*2843 _0888_
*2844 _0889_
*2845 _0890_
*2846 _0891_
*2847 _0892_
*2848 _0893_
*2849 _0894_
*2850 _0895_
*2851 _0896_
*2852 _0897_
*2853 _0898_
*2854 _0899_
*2855 _0900_
*2856 _0901_
*2857 _0902_
*2858 _0903_
*2859 _0904_
*2860 _0905_
*2861 _0906_
*2862 _0907_
*2863 _0908_
*2864 _0909_
*2865 _0910_
*2866 _0911_
*2867 _0912_
*2868 _0913_
*2869 _0914_
*2870 _0915_
*2871 _0916_
*2872 _0917_
*2873 _0918_
*2874 _0919_
*2875 _0920_
*2876 _0921_
*2877 _0922_
*2878 _0923_
*2879 _0924_
*2880 _0925_
*2881 _0926_
*2882 _0927_
*2883 _0928_
*2884 _0929_
*2885 _0930_
*2886 _0931_
*2887 _0932_
*2888 _0933_
*2889 _0934_
*2890 _0935_
*2891 _0936_
*2892 _0937_
*2893 _0938_
*2894 _0939_
*2895 _0940_
*2896 _0941_
*2897 _0942_
*2898 _0943_
*2899 _0944_
*2900 _0945_
*2901 _0946_
*2902 _0947_
*2903 _0948_
*2904 _0949_
*2905 _0950_
*2906 _0951_
*2907 _0952_
*2908 _0953_
*2909 _0954_
*2910 _0955_
*2911 _0956_
*2912 _0957_
*2913 _0958_
*2914 _0959_
*2915 _0960_
*2916 _0961_
*2917 _0962_
*2918 _0963_
*2919 _0964_
*2920 _0965_
*2921 _0966_
*2922 _0967_
*2923 _0968_
*2924 _0969_
*2925 _0970_
*2926 _0971_
*2927 _0972_
*2928 _0973_
*2929 _0974_
*2930 _0975_
*2931 _0976_
*2932 _0977_
*2933 _0978_
*2934 _0979_
*2935 _0980_
*2936 _0981_
*2937 _0982_
*2938 _0983_
*2939 _0984_
*2940 _0985_
*2941 _0986_
*2942 _0987_
*2943 _0988_
*2944 _0989_
*2945 _0990_
*2946 _0991_
*2947 _0992_
*2948 _0993_
*2949 _0994_
*2950 _0995_
*2951 _0996_
*2952 _0997_
*2953 _0998_
*2954 _0999_
*2955 _1000_
*2956 _1001_
*2957 _1002_
*2958 _1003_
*2959 _1004_
*2960 _1005_
*2961 _1006_
*2962 _1007_
*2963 _1008_
*2964 _1009_
*2965 _1010_
*2966 _1011_
*2967 _1012_
*2968 _1013_
*2969 _1014_
*2970 _1015_
*2971 _1016_
*2972 _1017_
*2973 _1018_
*2974 _1019_
*2975 _1020_
*2976 _1021_
*2977 _1022_
*2978 _1023_
*2979 _1024_
*2980 _1025_
*2981 _1026_
*2982 _1027_
*2983 _1028_
*2984 _1029_
*2985 _1030_
*2986 _1031_
*2987 _1032_
*2988 _1033_
*2989 _1034_
*2990 _1035_
*2991 _1036_
*2992 _1037_
*2993 _1038_
*2994 _1039_
*2995 _1040_
*2996 _1041_
*2997 _1042_
*2998 _1043_
*2999 _1044_
*3000 _1045_
*3001 _1046_
*3002 _1047_
*3003 _1048_
*3004 _1049_
*3005 _1050_
*3006 _1051_
*3007 _1052_
*3008 _1053_
*3009 _1054_
*3010 _1055_
*3011 _1056_
*3012 _1057_
*3013 _1058_
*3014 _1059_
*3015 _1060_
*3016 _1061_
*3017 _1062_
*3018 _1063_
*3019 _1064_
*3020 _1065_
*3021 _1066_
*3022 _1067_
*3023 _1068_
*3024 _1069_
*3025 _1070_
*3026 _1071_
*3027 _1072_
*3028 _1073_
*3029 _1074_
*3030 _1075_
*3031 _1076_
*3032 _1077_
*3033 _1078_
*3034 _1079_
*3035 _1080_
*3036 _1081_
*3037 _1082_
*3038 _1083_
*3039 _1084_
*3040 _1085_
*3041 _1086_
*3042 _1087_
*3043 _1088_
*3044 _1089_
*3045 _1090_
*3046 _1091_
*3047 _1092_
*3048 _1093_
*3049 _1094_
*3050 _1095_
*3051 _1096_
*3052 _1097_
*3053 _1098_
*3054 _1099_
*3055 _1100_
*3056 _1101_
*3057 _1102_
*3058 _1103_
*3059 _1104_
*3060 _1105_
*3061 _1106_
*3062 _1107_
*3063 _1108_
*3064 _1109_
*3065 _1110_
*3066 _1111_
*3067 _1112_
*3068 _1113_
*3069 _1114_
*3070 _1115_
*3071 _1116_
*3072 _1117_
*3073 _1118_
*3074 _1119_
*3075 _1120_
*3076 _1121_
*3077 _1122_
*3078 _1123_
*3079 _1124_
*3080 _1125_
*3081 _1126_
*3082 _1127_
*3083 _1128_
*3084 _1129_
*3085 _1130_
*3086 _1131_
*3087 _1132_
*3088 _1133_
*3089 _1134_
*3090 _1135_
*3091 _1136_
*3092 _1137_
*3093 _1138_
*3094 _1139_
*3095 _1140_
*3096 _1141_
*3097 _1142_
*3098 _1143_
*3099 _1144_
*3100 _1145_
*3101 _1146_
*3102 _1147_
*3103 _1148_
*3104 _1149_
*3105 _1150_
*3106 _1151_
*3107 _1152_
*3108 _1153_
*3109 _1154_
*3110 _1155_
*3111 _1156_
*3112 _1157_
*3113 _1158_
*3114 _1159_
*3115 _1160_
*3116 _1161_
*3117 _1162_
*3118 _1163_
*3119 _1164_
*3120 _1165_
*3121 _1166_
*3122 _1167_
*3123 _1168_
*3124 _1169_
*3125 _1170_
*3126 _1171_
*3127 _1172_
*3128 _1173_
*3129 _1174_
*3130 _1175_
*3131 _1176_
*3132 _1177_
*3133 _1178_
*3134 _1179_
*3135 _1180_
*3136 _1181_
*3137 _1182_
*3138 _1183_
*3139 _1184_
*3140 _1185_
*3141 _1186_
*3142 _1187_
*3143 _1188_
*3144 _1189_
*3145 _1190_
*3146 _1191_
*3147 _1192_
*3148 _1193_
*3149 _1194_
*3150 _1195_
*3151 _1196_
*3152 _1197_
*3153 _1198_
*3154 _1199_
*3155 _1200_
*3156 _1201_
*3157 _1202_
*3158 _1203_
*3159 _1204_
*3160 _1205_
*3161 _1206_
*3162 _1207_
*3163 _1208_
*3164 _1209_
*3165 _1210_
*3166 _1211_
*3167 _1212_
*3168 _1213_
*3169 _1214_
*3170 _1215_
*3171 _1216_
*3172 _1217_
*3173 _1218_
*3174 _1219_
*3175 _1220_
*3176 _1221_
*3177 _1222_
*3178 _1223_
*3179 _1224_
*3180 _1225_
*3181 _1226_
*3182 _1227_
*3183 _1228_
*3184 _1229_
*3185 _1230_
*3186 _1231_
*3187 _1232_
*3188 _1233_
*3189 _1234_
*3190 _1235_
*3191 _1236_
*3192 _1237_
*3193 _1238_
*3194 _1239_
*3195 _1240_
*3196 _1241_
*3197 _1242_
*3198 _1243_
*3199 _1244_
*3200 _1245_
*3201 _1246_
*3202 _1247_
*3203 _1248_
*3204 _1249_
*3205 _1250_
*3206 _1251_
*3207 _1252_
*3208 _1253_
*3209 _1254_
*3210 _1255_
*3211 _1256_
*3212 _1257_
*3213 _1258_
*3214 _1259_
*3215 _1260_
*3216 _1261_
*3217 _1262_
*3218 _1263_
*3219 _1264_
*3220 _1265_
*3221 _1266_
*3222 _1267_
*3223 _1268_
*3224 _1269_
*3225 _1270_
*3226 _1271_
*3227 _1272_
*3228 _1273_
*3229 _1274_
*3230 _1275_
*3231 _1276_
*3232 _1277_
*3233 _1278_
*3234 _1279_
*3235 _1280_
*3236 _1281_
*3237 _1282_
*3238 _1283_
*3239 _1284_
*3240 _1285_
*3241 _1286_
*3242 _1287_
*3243 _1288_
*3244 _1289_
*3245 _1290_
*3246 _1291_
*3247 _1292_
*3248 _1293_
*3249 _1294_
*3250 _1295_
*3251 _1296_
*3252 _1297_
*3253 _1298_
*3254 _1299_
*3255 _1300_
*3256 _1301_
*3257 _1302_
*3258 _1303_
*3259 _1304_
*3260 _1305_
*3261 _1306_
*3262 _1307_
*3263 _1308_
*3264 _1309_
*3265 _1310_
*3266 _1311_
*3267 _1312_
*3268 _1313_
*3269 _1314_
*3270 _1315_
*3271 _1316_
*3272 _1317_
*3273 _1318_
*3274 _1319_
*3275 _1320_
*3276 _1321_
*3277 _1322_
*3278 _1323_
*3279 _1324_
*3280 _1325_
*3281 _1326_
*3282 _1327_
*3283 _1328_
*3284 _1329_
*3285 _1330_
*3286 _1331_
*3287 clkbuf_0_clk
*3288 clkbuf_4_0_0_clk
*3289 clkbuf_4_10_0_clk
*3290 clkbuf_4_11_0_clk
*3291 clkbuf_4_12_0_clk
*3292 clkbuf_4_13_0_clk
*3293 clkbuf_4_14_0_clk
*3294 clkbuf_4_15_0_clk
*3295 clkbuf_4_1_0_clk
*3296 clkbuf_4_2_0_clk
*3297 clkbuf_4_3_0_clk
*3298 clkbuf_4_4_0_clk
*3299 clkbuf_4_5_0_clk
*3300 clkbuf_4_6_0_clk
*3301 clkbuf_4_7_0_clk
*3302 clkbuf_4_8_0_clk
*3303 clkbuf_4_9_0_clk
*3304 fanout13
*3305 fanout14
*3306 fanout15
*3307 fanout16
*3308 fanout17
*3309 hold1
*3310 hold10
*3311 hold100
*3312 hold101
*3313 hold102
*3314 hold103
*3315 hold104
*3316 hold105
*3317 hold106
*3318 hold107
*3319 hold108
*3320 hold109
*3321 hold11
*3322 hold110
*3323 hold111
*3324 hold112
*3325 hold113
*3326 hold114
*3327 hold115
*3328 hold116
*3329 hold117
*3330 hold118
*3331 hold119
*3332 hold12
*3333 hold120
*3334 hold121
*3335 hold122
*3336 hold123
*3337 hold124
*3338 hold125
*3339 hold126
*3340 hold127
*3341 hold128
*3342 hold129
*3343 hold13
*3344 hold130
*3345 hold131
*3346 hold132
*3347 hold133
*3348 hold134
*3349 hold135
*3350 hold136
*3351 hold137
*3352 hold138
*3353 hold139
*3354 hold14
*3355 hold140
*3356 hold141
*3357 hold142
*3358 hold143
*3359 hold144
*3360 hold145
*3361 hold146
*3362 hold15
*3363 hold16
*3364 hold17
*3365 hold18
*3366 hold19
*3367 hold2
*3368 hold20
*3369 hold21
*3370 hold22
*3371 hold23
*3372 hold24
*3373 hold25
*3374 hold26
*3375 hold27
*3376 hold28
*3377 hold29
*3378 hold3
*3379 hold30
*3380 hold31
*3381 hold32
*3382 hold33
*3383 hold34
*3384 hold35
*3385 hold36
*3386 hold37
*3387 hold38
*3388 hold39
*3389 hold4
*3390 hold40
*3391 hold41
*3392 hold42
*3393 hold43
*3394 hold44
*3395 hold45
*3396 hold46
*3397 hold47
*3398 hold48
*3399 hold49
*3400 hold5
*3401 hold50
*3402 hold51
*3403 hold52
*3404 hold53
*3405 hold54
*3406 hold55
*3407 hold56
*3408 hold57
*3409 hold58
*3410 hold59
*3411 hold6
*3412 hold60
*3413 hold61
*3414 hold62
*3415 hold63
*3416 hold64
*3417 hold65
*3418 hold66
*3419 hold67
*3420 hold68
*3421 hold69
*3422 hold7
*3423 hold70
*3424 hold71
*3425 hold72
*3426 hold73
*3427 hold74
*3428 hold75
*3429 hold76
*3430 hold77
*3431 hold78
*3432 hold79
*3433 hold8
*3434 hold80
*3435 hold81
*3436 hold82
*3437 hold83
*3438 hold84
*3439 hold85
*3440 hold86
*3441 hold87
*3442 hold88
*3443 hold89
*3444 hold9
*3445 hold90
*3446 hold91
*3447 hold92
*3448 hold93
*3449 hold94
*3450 hold95
*3451 hold96
*3452 hold97
*3453 hold98
*3454 hold99
*3455 input1
*3456 input2
*3457 max_cap1
*3458 max_cap10
*3459 max_cap12
*3460 max_cap3
*3461 max_cap4
*3462 max_cap5
*3463 max_cap6
*3464 max_cap7
*3465 max_cap8
*3466 output3
*3467 output4
*3468 wire11
*3469 wire2
*3470 wire9

*PORTS
clk I
done O
pass_fail O
rst_n I
start I

*D_NET *3 0.0187493
*CONN
*P clk I
*I *3287:A I *D sky130_fd_sc_hd__clkbuf_16
*CAP
1 clk 0.00913242
2 *3287:A 0.00913242
3 *3287:A *2755:B1 0
4 *3287:A *2896:A 9.58678e-06
5 *3287:A *2931:B 4.34795e-05
6 *3287:A *3018:A 0.000372504
7 *3287:A *356:67 4.00045e-05
8 *3287:A *374:45 1.88656e-05
9 *3287:A *393:50 0
10 *3287:A *591:132 0
*RES
1 clk *3287:A 20.3729 
*END

*D_NET *4 0.00132797
*CONN
*P done O
*I *3466:X O *D sky130_fd_sc_hd__clkbuf_4
*CAP
1 done 0.000663984
2 *3466:X 0.000663984
*RES
1 *3466:X done 14.925 
*END

*D_NET *5 0.000650406
*CONN
*P pass_fail O
*I *3467:X O *D sky130_fd_sc_hd__buf_2
*CAP
1 pass_fail 0.000325203
2 *3467:X 0.000325203
*RES
1 *3467:X pass_fail 7.3137 
*END

*D_NET *6 0.000906684
*CONN
*P rst_n I
*I *3455:A I *D sky130_fd_sc_hd__buf_1
*CAP
1 rst_n 0.000453342
2 *3455:A 0.000453342
*RES
1 rst_n *3455:A 11.475 
*END

*D_NET *7 0.000763257
*CONN
*P start I
*I *3456:A I *D sky130_fd_sc_hd__buf_1
*CAP
1 start 0.000381629
2 *3456:A 0.000381629
*RES
1 start *3456:A 10.455 
*END

*D_NET *8 0.00437888
*CONN
*I *2635:A2 I *D sky130_fd_sc_hd__a22o_1
*I *3128:D I *D sky130_fd_sc_hd__dfstp_1
*I *2840:B1_N I *D sky130_fd_sc_hd__o21ba_2
*I *2818:X O *D sky130_fd_sc_hd__buf_1
*CAP
1 *2635:A2 0.000283821
2 *3128:D 1.83035e-05
3 *2840:B1_N 0.000564958
4 *2818:X 0.000116664
5 *8:27 0.000495638
6 *8:10 0.000875135
7 *2635:A2 *2635:B1 0
8 *2635:A2 *2635:B2 0.000317582
9 *2635:A2 *3277:D 7.1165e-05
10 *2635:A2 *3354:A 5.94041e-05
11 *2635:A2 *311:8 5.84573e-05
12 *2635:A2 *653:40 0
13 *2840:B1_N *2837:A 1.61831e-05
14 *2840:B1_N *2839:A1 0.000193806
15 *2840:B1_N *2856:B 4.21973e-05
16 *2840:B1_N *3128:SET_B 0.000218667
17 *2840:B1_N *337:14 0.00011379
18 *2840:B1_N *603:22 3.96284e-05
19 *2840:B1_N *780:14 0.000113797
20 *2840:B1_N *784:6 3.34294e-06
21 *3128:D *3354:A 2.90837e-05
22 *3128:D *311:8 2.90837e-05
23 *8:10 *2813:B 0.000249914
24 *8:10 *2818:A 0.000360604
25 *8:10 *311:8 0
26 *8:27 *603:22 0.000107652
*RES
1 *2818:X *8:10 9.785 
2 *8:10 *2840:B1_N 13.64 
3 *8:10 *8:27 4.52 
4 *8:27 *3128:D 4.215 
5 *8:27 *2635:A2 10.2 
*END

*D_NET *9 0.000265237
*CONN
*I *3129:D I *D sky130_fd_sc_hd__dfrtp_1
*I *2661:X O *D sky130_fd_sc_hd__clkbuf_1
*CAP
1 *3129:D 0.000123925
2 *2661:X 0.000123925
3 *3129:D *2660:B 0
4 *3129:D *698:14 1.7386e-05
*RES
1 *2661:X *3129:D 8.775 
*END

*D_NET *10 0.00471855
*CONN
*I *2637:A I *D sky130_fd_sc_hd__inv_2
*I *2665:C1 I *D sky130_fd_sc_hd__a211o_1
*I *3284:D I *D sky130_fd_sc_hd__dfrtp_1
*I *2663:X O *D sky130_fd_sc_hd__buf_1
*CAP
1 *2637:A 0.00077687
2 *2665:C1 0.000166742
3 *3284:D 0.000518923
4 *2663:X 0
5 *10:10 0.000880343
6 *10:4 0.000971548
7 *2637:A *2638:B2 9.13951e-05
8 *2637:A *2663:A 5.0876e-05
9 *2637:A *2666:A2 0.000296088
10 *2637:A *3281:D 9.54399e-05
11 *2637:A *3283:RESET_B 0.000142807
12 *2637:A *3332:A 8.53113e-06
13 *2637:A *603:86 8.6099e-05
14 *2637:A *603:95 3.39944e-05
15 *2637:A *664:54 0.000126407
16 *2665:C1 *2665:A1 9.72897e-05
17 *2665:C1 *2665:A2 4.57056e-05
18 *3284:D *2665:A1 8.06305e-05
19 *3284:D *3284:CLK 1.83847e-05
20 *3284:D *11:57 0.000201162
21 *3284:D *687:18 0
22 *10:10 *2662:B 8.30853e-06
23 *10:10 *2663:A 6.72833e-06
24 *10:10 *2665:A1 1.42807e-05
*RES
1 *2663:X *10:4 1.6 
2 *10:4 *10:10 4.85 
3 *10:10 *3284:D 11.355 
4 *10:10 *2665:C1 6.045 
5 *10:4 *2637:A 21.245 
*END

*D_NET *11 0.00934133
*CONN
*I *2860:A2 I *D sky130_fd_sc_hd__o21bai_1
*I *3286:D I *D sky130_fd_sc_hd__dfrtp_1
*I *2640:S I *D sky130_fd_sc_hd__mux2_1
*I *2658:A I *D sky130_fd_sc_hd__or3b_1
*I *2655:C1 I *D sky130_fd_sc_hd__a221o_1
*I *2654:X O *D sky130_fd_sc_hd__clkbuf_2
*CAP
1 *2860:A2 0.000103743
2 *3286:D 0.000351297
3 *2640:S 0.00157828
4 *2658:A 7.40892e-05
5 *2655:C1 6.17988e-05
6 *2654:X 0
7 *11:57 0.000573322
8 *11:23 0.00171889
9 *11:10 0.000908168
10 *11:4 0.000898133
11 *2640:S *2638:B1 0
12 *2640:S *2638:B2 0.000207201
13 *2640:S *2640:A0 8.8266e-05
14 *2640:S *2641:A 4.99619e-05
15 *2640:S *2646:A0 5.02217e-05
16 *2640:S *2646:S 0
17 *2640:S *2658:B 8.23457e-05
18 *2640:S *3264:CLK 0
19 *2640:S *3264:D 4.04686e-05
20 *2640:S *3279:RESET_B 0.000175207
21 *2640:S *3280:CLK 0
22 *2640:S *3281:RESET_B 1.45393e-05
23 *2640:S *3285:SET_B 0
24 *2640:S *664:32 0.000320543
25 *2640:S *664:42 3.07153e-05
26 *2640:S *664:54 0.000293726
27 *2655:C1 *2655:B2 1.08758e-05
28 *2655:C1 *2826:B 1.19928e-05
29 *2655:C1 *799:21 4.80285e-05
30 *2658:A *2658:B 4.82863e-05
31 *2658:A *2658:C_N 5.75628e-05
32 *2658:A *664:32 1.17309e-05
33 *2860:A2 *2665:A1 5.67847e-05
34 *2860:A2 *2860:A1 5.12969e-06
35 *2860:A2 *2860:B1_N 1.08758e-05
36 *3286:D *2665:A1 5.16418e-05
37 *3286:D *2816:A2 5.12219e-05
38 *3286:D *3137:D 0
39 *3286:D *3286:CLK 0
40 *3286:D *603:54 0
41 *3286:D *687:18 0
42 *11:10 *2653:A2 3.83041e-05
43 *11:10 *2653:B1 4.01778e-05
44 *11:10 *2654:A 5.06989e-05
45 *11:10 *159:12 0
46 *11:10 *159:36 0.000194121
47 *11:10 *163:8 0.000130913
48 *11:10 *781:10 0
49 *11:10 *799:21 5.57814e-05
50 *11:10 *799:27 6.17034e-05
51 *11:10 *800:94 8.08153e-06
52 *11:23 *163:8 9.68787e-05
53 *11:23 *163:27 1.70935e-05
54 *11:23 *322:24 0.000159964
55 *11:23 *800:94 1.82563e-05
56 *11:57 *2665:A1 0.000273001
57 *11:57 *2816:A2 1.0145e-05
58 *11:57 *687:18 0
59 *3284:D *11:57 0.000201162
*RES
1 *2654:X *11:4 1.6 
2 *11:4 *11:10 15.71 
3 *11:10 *2655:C1 4.74 
4 *11:10 *11:23 4.4 
5 *11:23 *2658:A 3.1 
6 *11:23 *2640:S 32.315 
7 *11:4 *11:57 5.615 
8 *11:57 *3286:D 8.94 
9 *11:57 *2860:A2 5.46 
*END

*D_NET *12 0.00690878
*CONN
*I *3273:D I *D sky130_fd_sc_hd__dfrtp_1
*I *2811:X O *D sky130_fd_sc_hd__o31a_1
*CAP
1 *3273:D 0.00184871
2 *2811:X 0.00184871
3 *3273:D *2625:S 4.77807e-05
4 *3273:D *2626:A 0.000227078
5 *3273:D *2755:C1 3.59784e-05
6 *3273:D *2811:B1 0.00189071
7 *3273:D *3262:CLK 8.35118e-05
8 *3273:D *3262:D 8.03344e-05
9 *3273:D *3263:D 0.000154982
10 *3273:D *3273:CLK 3.57349e-05
11 *3273:D *3310:A 1.55065e-05
12 *3273:D *316:37 4.5434e-05
13 *3273:D *316:43 0.000106377
14 *3273:D *528:86 0.000487928
*RES
1 *2811:X *3273:D 35.54 
*END

*D_NET *13 0.00230112
*CONN
*I *3272:D I *D sky130_fd_sc_hd__dfrtp_1
*I *2755:X O *D sky130_fd_sc_hd__o221a_1
*CAP
1 *3272:D 0.000612897
2 *2755:X 0.000612897
3 *3272:D *2675:A 8.22347e-05
4 *3272:D *3310:A 0.000119873
5 *3272:D *175:6 0.000309893
6 *3272:D *316:166 0.000324918
7 *3272:D *511:102 5.16479e-05
8 *3272:D *605:45 0.000140145
9 *3272:D *605:53 0
10 *3272:D *695:6 4.66108e-05
*RES
1 *2755:X *3272:D 19.905 
*END

*D_NET *14 0.000756498
*CONN
*I *3126:D I *D sky130_fd_sc_hd__dfxtp_1
*I *2831:X O *D sky130_fd_sc_hd__clkbuf_1
*CAP
1 *3126:D 0.000148254
2 *2831:X 0.000148254
3 *3126:D *2806:B2 0.00013475
4 *3126:D *3350:A 9.12494e-06
5 *3126:D *187:57 8.37487e-05
6 *3126:D *324:34 0.000232367
*RES
1 *2831:X *3126:D 11.0437 
*END

*D_NET *15 0.000912103
*CONN
*I *3127:D I *D sky130_fd_sc_hd__dfxtp_1
*I *2834:X O *D sky130_fd_sc_hd__clkbuf_1
*CAP
1 *3127:D 0.000171194
2 *2834:X 0.000171194
3 *3127:D *2732:A1 4.40552e-05
4 *3127:D *405:66 0.000297855
5 *3127:D *620:29 6.82393e-05
6 *3127:D *620:46 3.45235e-05
7 *3127:D *764:38 0.000125043
*RES
1 *2834:X *3127:D 12.0487 
*END

*D_NET *16 0.000409095
*CONN
*I *3130:D I *D sky130_fd_sc_hd__dfrtp_2
*I *2842:X O *D sky130_fd_sc_hd__o21a_1
*CAP
1 *3130:D 0.000123542
2 *2842:X 0.000123542
3 *3130:D *3130:CLK 2.75145e-05
4 *3130:D *3132:CLK 5.23362e-05
5 *3130:D *3132:D 0
6 *3130:D *334:40 1.4174e-05
7 *3130:D *602:36 5.83121e-06
8 *3130:D *602:38 6.21553e-05
*RES
1 *2842:X *3130:D 9.48 
*END

*D_NET *17 0.00130717
*CONN
*I *3131:D I *D sky130_fd_sc_hd__dfrtp_1
*I *2847:X O *D sky130_fd_sc_hd__a2bb2o_1
*CAP
1 *3131:D 0.000480443
2 *2847:X 0.000480443
3 *3131:D *2847:B2 0.000196376
4 *3131:D *2850:A 2.34083e-05
5 *3131:D *3133:CLK 3.74359e-05
6 *3131:D *334:40 8.90632e-05
7 *3131:D *642:53 0
*RES
1 *2847:X *3131:D 13.425 
*END

*D_NET *18 0.00142923
*CONN
*I *3132:D I *D sky130_fd_sc_hd__dfrtp_1
*I *2851:X O *D sky130_fd_sc_hd__clkbuf_1
*CAP
1 *3132:D 0.000380325
2 *2851:X 0.000380325
3 *3132:D *2714:B2 0
4 *3132:D *3132:CLK 8.65961e-05
5 *3132:D *698:16 0.000581986
6 *3132:D *820:10 0
7 *3130:D *3132:D 0
*RES
1 *2851:X *3132:D 15.645 
*END

*D_NET *19 0.000519428
*CONN
*I *3133:D I *D sky130_fd_sc_hd__dfrtp_1
*I *2853:X O *D sky130_fd_sc_hd__a2bb2o_1
*CAP
1 *3133:D 0.000147645
2 *2853:X 0.000147645
3 *3133:D *2847:A1_N 5.43657e-05
4 *3133:D *2847:B2 9.27255e-06
5 *3133:D *2848:A1 9.47454e-05
6 *3133:D *3133:CLK 6.57549e-05
*RES
1 *2853:X *3133:D 9.73875 
*END

*D_NET *20 0.000865164
*CONN
*I *3134:D I *D sky130_fd_sc_hd__dfrtp_4
*I *2857:X O *D sky130_fd_sc_hd__clkbuf_1
*CAP
1 *3134:D 0.000293038
2 *2857:X 0.000293038
3 *3134:D *3130:RESET_B 0.000202702
4 *3134:D *3134:CLK 0
5 *3134:D *602:32 4.75991e-05
6 *3134:D *777:8 2.87867e-05
*RES
1 *2857:X *3134:D 12.555 
*END

*D_NET *21 0.000547693
*CONN
*I *3135:D I *D sky130_fd_sc_hd__dfrtp_4
*I *2859:X O *D sky130_fd_sc_hd__a2bb2o_1
*CAP
1 *3135:D 0.000172708
2 *2859:X 0.000172708
3 *3135:D *2857:A 4.85359e-05
4 *3135:D *2859:B2 0
5 *3135:D *602:16 0.000153741
6 *3135:D *642:26 0
*RES
1 *2859:X *3135:D 10.245 
*END

*D_NET *22 0.000733341
*CONN
*I *3444:A I *D sky130_fd_sc_hd__dlygate4sd3_1
*I *2860:Y O *D sky130_fd_sc_hd__o21bai_1
*CAP
1 *3444:A 0.000226188
2 *2860:Y 0.000226188
3 *3444:A *2665:A1 8.64421e-05
4 *3444:A *3137:D 4.66108e-05
5 *3444:A *167:12 0.000147912
*RES
1 *2860:Y *3444:A 7.115 
*END

*D_NET *23 0.000272385
*CONN
*I *3138:D I *D sky130_fd_sc_hd__dfxtp_1
*I *2868:X O *D sky130_fd_sc_hd__clkbuf_1
*CAP
1 *3138:D 0.000136192
2 *2868:X 0.000136192
3 *3138:D *600:83 0
*RES
1 *2868:X *3138:D 9.15375 
*END

*D_NET *24 0.000314111
*CONN
*I *3139:D I *D sky130_fd_sc_hd__dfxtp_1
*I *2872:X O *D sky130_fd_sc_hd__clkbuf_1
*CAP
1 *3139:D 8.87091e-05
2 *2872:X 8.87091e-05
3 *3139:D *3162:CLK 0.000113663
4 *3139:D *600:96 2.30292e-05
*RES
1 *2872:X *3139:D 4.92875 
*END

*D_NET *25 0.000777959
*CONN
*I *3140:D I *D sky130_fd_sc_hd__dfxtp_1
*I *2876:X O *D sky130_fd_sc_hd__clkbuf_1
*CAP
1 *3140:D 0.000159684
2 *2876:X 0.000159684
3 *3140:D *2877:S 5.36069e-06
4 *3140:D *208:104 9.21068e-05
5 *3140:D *358:48 9.21068e-05
6 *3140:D *682:22 0.000269018
*RES
1 *2876:X *3140:D 10.8787 
*END

*D_NET *26 0.000831667
*CONN
*I *3141:D I *D sky130_fd_sc_hd__dfxtp_1
*I *2878:X O *D sky130_fd_sc_hd__clkbuf_1
*CAP
1 *3141:D 0.000180163
2 *2878:X 0.000180163
3 *3141:D *2878:A 4.94457e-05
4 *3141:D *231:52 5.12715e-05
5 *3141:D *356:79 4.51981e-05
6 *3141:D *369:47 0
7 *3141:D *500:91 0.000171203
8 *3141:D *607:84 0.000154221
*RES
1 *2878:X *3141:D 11.3138 
*END

*D_NET *27 0.000363959
*CONN
*I *3142:D I *D sky130_fd_sc_hd__dfxtp_1
*I *2882:X O *D sky130_fd_sc_hd__clkbuf_1
*CAP
1 *3142:D 0.000181979
2 *2882:X 0.000181979
*RES
1 *2882:X *3142:D 10.0087 
*END

*D_NET *28 0.000383106
*CONN
*I *3143:D I *D sky130_fd_sc_hd__dfxtp_1
*I *2884:X O *D sky130_fd_sc_hd__clkbuf_1
*CAP
1 *3143:D 0.000166375
2 *2884:X 0.000166375
3 *3143:D *600:69 5.03559e-05
*RES
1 *2884:X *3143:D 10.0087 
*END

*D_NET *29 0.000656849
*CONN
*I *3144:D I *D sky130_fd_sc_hd__dfxtp_1
*I *2891:X O *D sky130_fd_sc_hd__clkbuf_1
*CAP
1 *3144:D 0.000143729
2 *2891:X 0.000143729
3 *3144:D *3144:CLK 0.000237271
4 *3144:D *356:103 3.97568e-05
5 *3144:D *600:55 9.23635e-05
*RES
1 *2891:X *3144:D 10.7887 
*END

*D_NET *30 0.000519484
*CONN
*I *3145:D I *D sky130_fd_sc_hd__dfxtp_1
*I *2894:X O *D sky130_fd_sc_hd__clkbuf_1
*CAP
1 *3145:D 0.000129269
2 *2894:X 0.000129269
3 *3145:D *3161:CLK 2.59285e-05
4 *3145:D *356:103 7.1624e-05
5 *3145:D *921:16 0.000163393
*RES
1 *2894:X *3145:D 9.94875 
*END

*D_NET *31 0.000596159
*CONN
*I *3146:D I *D sky130_fd_sc_hd__dfxtp_1
*I *2898:X O *D sky130_fd_sc_hd__clkbuf_1
*CAP
1 *3146:D 0.000210769
2 *2898:X 0.000210769
3 *3146:D *2898:A 7.90568e-05
4 *3146:D *2908:A 6.25711e-06
5 *3146:D *2908:B_N 1.95718e-05
6 *3146:D *215:100 6.97358e-05
*RES
1 *2898:X *3146:D 10.5 
*END

*D_NET *32 0.00030363
*CONN
*I *3147:D I *D sky130_fd_sc_hd__dfxtp_1
*I *2900:X O *D sky130_fd_sc_hd__clkbuf_1
*CAP
1 *3147:D 8.20546e-05
2 *2900:X 8.20546e-05
3 *3147:D *2898:A 6.54935e-05
4 *3147:D *215:100 7.4027e-05
*RES
1 *2900:X *3147:D 8.91375 
*END

*D_NET *33 0.000952313
*CONN
*I *3148:D I *D sky130_fd_sc_hd__dfxtp_1
*I *2904:X O *D sky130_fd_sc_hd__clkbuf_1
*CAP
1 *3148:D 0.000100033
2 *2904:X 0.000100033
3 *3148:D *2811:A1 0.00033517
4 *3148:D *2919:B 5.261e-05
5 *3148:D *207:80 0.000312434
6 *3148:D *362:60 5.20335e-05
*RES
1 *2904:X *3148:D 11.6138 
*END

*D_NET *34 0.000351658
*CONN
*I *3149:D I *D sky130_fd_sc_hd__dfxtp_1
*I *2906:X O *D sky130_fd_sc_hd__clkbuf_1
*CAP
1 *3149:D 0.000103655
2 *2906:X 0.000103655
3 *3149:D *2906:A 0.000144349
*RES
1 *2906:X *3149:D 4.92875 
*END

*D_NET *35 0.000467259
*CONN
*I *3150:D I *D sky130_fd_sc_hd__dfxtp_1
*I *2910:X O *D sky130_fd_sc_hd__clkbuf_1
*CAP
1 *3150:D 0.000213362
2 *2910:X 0.000213362
3 *3150:D *2910:A 4.05358e-05
*RES
1 *2910:X *3150:D 10.6987 
*END

*D_NET *36 0.000387925
*CONN
*I *3151:D I *D sky130_fd_sc_hd__dfxtp_1
*I *2912:X O *D sky130_fd_sc_hd__clkbuf_1
*CAP
1 *3151:D 0.000186777
2 *2912:X 0.000186777
3 *3151:D *606:53 1.43717e-05
*RES
1 *2912:X *3151:D 9.76875 
*END

*D_NET *37 0.000744826
*CONN
*I *3152:D I *D sky130_fd_sc_hd__dfxtp_1
*I *2915:X O *D sky130_fd_sc_hd__clkbuf_1
*CAP
1 *3152:D 0.000143034
2 *2915:X 0.000143034
3 *3152:D *2915:A 7.89767e-05
4 *3152:D *383:12 0.000238176
5 *3152:D *405:66 0.000141606
*RES
1 *2915:X *3152:D 11.0437 
*END

*D_NET *38 0.000516239
*CONN
*I *3153:D I *D sky130_fd_sc_hd__dfxtp_1
*I *2917:X O *D sky130_fd_sc_hd__clkbuf_1
*CAP
1 *3153:D 9.14817e-05
2 *2917:X 9.14817e-05
3 *3153:D *2914:A0 0
4 *3153:D *3153:CLK 0
5 *3153:D *3397:A 6.13523e-05
6 *3153:D *197:94 0.000141606
7 *3153:D *383:12 0.000130317
*RES
1 *2917:X *3153:D 10.0087 
*END

*D_NET *39 0.000428984
*CONN
*I *3154:D I *D sky130_fd_sc_hd__dfxtp_1
*I *2921:X O *D sky130_fd_sc_hd__clkbuf_1
*CAP
1 *3154:D 8.55866e-05
2 *2921:X 8.55866e-05
3 *3154:D *2717:B1 0.000112087
4 *3154:D *2811:A3 6.22023e-06
5 *3154:D *3154:CLK 1.43717e-05
6 *3154:D *208:47 1.56428e-05
7 *3154:D *324:30 0.000109489
*RES
1 *2921:X *3154:D 9.16875 
*END

*D_NET *40 0.00028681
*CONN
*I *3155:D I *D sky130_fd_sc_hd__dfxtp_1
*I *2923:X O *D sky130_fd_sc_hd__clkbuf_1
*CAP
1 *3155:D 3.62829e-05
2 *2923:X 3.62829e-05
3 *3155:D *2727:A2 1.43717e-05
4 *3155:D *2803:B1 9.21068e-05
5 *3155:D *3155:CLK 1.43717e-05
6 *3155:D *343:51 9.33942e-05
*RES
1 *2923:X *3155:D 8.46375 
*END

*D_NET *41 0.00118256
*CONN
*I *3156:D I *D sky130_fd_sc_hd__dfxtp_1
*I *2927:X O *D sky130_fd_sc_hd__clkbuf_1
*CAP
1 *3156:D 0.00035297
2 *2927:X 0.00035297
3 *3156:D *2909:A0 0
4 *3156:D *383:12 0.000236231
5 *3156:D *606:51 0.00024039
*RES
1 *2927:X *3156:D 12.9637 
*END

*D_NET *42 0.00028335
*CONN
*I *3157:D I *D sky130_fd_sc_hd__dfxtp_1
*I *2929:X O *D sky130_fd_sc_hd__clkbuf_1
*CAP
1 *3157:D 0.000107687
2 *2929:X 0.000107687
3 *3157:D *349:67 2.90223e-05
4 *3157:D *349:77 3.89528e-05
*RES
1 *2929:X *3157:D 9.15375 
*END

*D_NET *43 0.000314633
*CONN
*I *3158:D I *D sky130_fd_sc_hd__dfxtp_1
*I *2933:X O *D sky130_fd_sc_hd__clkbuf_1
*CAP
1 *3158:D 0.000111552
2 *2933:X 0.000111552
3 *3158:D *2806:C1 3.68682e-05
4 *3158:D *2940:A1 4.43871e-06
5 *3158:D *372:78 5.02217e-05
*RES
1 *2933:X *3158:D 9.15375 
*END

*D_NET *44 0.000343855
*CONN
*I *3159:D I *D sky130_fd_sc_hd__dfxtp_1
*I *2935:X O *D sky130_fd_sc_hd__clkbuf_1
*CAP
1 *3159:D 9.92553e-05
2 *2935:X 9.92553e-05
3 *3159:D *349:67 0.000145344
*RES
1 *2935:X *3159:D 4.92875 
*END

*D_NET *45 0.00111118
*CONN
*I *3160:D I *D sky130_fd_sc_hd__dfxtp_1
*I *2939:X O *D sky130_fd_sc_hd__clkbuf_1
*CAP
1 *3160:D 0.000311801
2 *2939:X 0.000311801
3 *3160:D *2724:B2 4.87939e-05
4 *3160:D *3425:A 0.000230014
5 *3160:D *600:40 0.000201499
6 *3160:D *917:6 7.27298e-06
*RES
1 *2939:X *3160:D 13.2788 
*END

*D_NET *46 0.00107897
*CONN
*I *3161:D I *D sky130_fd_sc_hd__dfxtp_1
*I *2941:X O *D sky130_fd_sc_hd__clkbuf_1
*CAP
1 *3161:D 0.000339434
2 *2941:X 0.000339434
3 *3161:D *2728:B2 0.000139387
4 *3161:D *2941:A 7.1624e-05
5 *3161:D *3319:A 1.14048e-05
6 *3161:D *366:51 9.27693e-05
7 *3161:D *901:12 8.49205e-05
*RES
1 *2941:X *3161:D 13.2937 
*END

*D_NET *47 0.000568527
*CONN
*I *3162:D I *D sky130_fd_sc_hd__dfxtp_1
*I *2945:X O *D sky130_fd_sc_hd__clkbuf_1
*CAP
1 *3162:D 0.00022628
2 *2945:X 0.00022628
3 *3162:D *2801:A1 0
4 *3162:D *2801:B2 1.09817e-05
5 *3162:D *2871:S 4.77757e-05
6 *3162:D *2958:S 5.72091e-05
*RES
1 *2945:X *3162:D 10.8038 
*END

*D_NET *48 0.0003936
*CONN
*I *3163:D I *D sky130_fd_sc_hd__dfxtp_1
*I *2947:X O *D sky130_fd_sc_hd__clkbuf_1
*CAP
1 *3163:D 0.000187532
2 *2947:X 0.000187532
3 *3163:D *3165:CLK 4.1652e-06
4 *3163:D *3165:D 0
5 *3163:D *592:10 1.43717e-05
*RES
1 *2947:X *3163:D 9.51375 
*END

*D_NET *49 0.000608621
*CONN
*I *3164:D I *D sky130_fd_sc_hd__dfxtp_1
*I *2951:X O *D sky130_fd_sc_hd__clkbuf_1
*CAP
1 *3164:D 0.000164494
2 *2951:X 0.000164494
3 *3164:D *2801:A2 9.71067e-05
4 *3164:D *2951:A 5.39718e-05
5 *3164:D *3164:CLK 0.000128555
*RES
1 *2951:X *3164:D 11.16 
*END

*D_NET *50 0.000719433
*CONN
*I *3165:D I *D sky130_fd_sc_hd__dfxtp_1
*I *2953:X O *D sky130_fd_sc_hd__clkbuf_1
*CAP
1 *3165:D 0.000234756
2 *2953:X 0.000234756
3 *3165:D *211:65 0.000249921
4 *3163:D *3165:D 0
*RES
1 *2953:X *3165:D 11.4637 
*END

*D_NET *51 0.000295037
*CONN
*I *3166:D I *D sky130_fd_sc_hd__dfxtp_1
*I *2957:X O *D sky130_fd_sc_hd__clkbuf_1
*CAP
1 *3166:D 0.00012725
2 *2957:X 0.00012725
3 *3166:D *2957:A 4.05358e-05
4 *3166:D *600:73 0
*RES
1 *2957:X *3166:D 9.25875 
*END

*D_NET *52 0.000500484
*CONN
*I *3167:D I *D sky130_fd_sc_hd__dfxtp_1
*I *2959:X O *D sky130_fd_sc_hd__clkbuf_1
*CAP
1 *3167:D 0.000113172
2 *2959:X 0.000113172
3 *3167:D *2959:A 0.000224699
4 *3167:D *3167:CLK 4.94404e-05
*RES
1 *2959:X *3167:D 10.0387 
*END

*D_NET *53 0.000636059
*CONN
*I *3168:D I *D sky130_fd_sc_hd__dfxtp_1
*I *2965:X O *D sky130_fd_sc_hd__clkbuf_1
*CAP
1 *3168:D 0.000143146
2 *2965:X 0.000143146
3 *3168:D *3169:CLK 9.40887e-05
4 *3168:D *3169:D 8.40269e-05
5 *3168:D *193:40 7.88499e-05
6 *3168:D *197:152 9.28013e-05
*RES
1 *2965:X *3168:D 9.88125 
*END

*D_NET *54 0.000550355
*CONN
*I *3169:D I *D sky130_fd_sc_hd__dfxtp_1
*I *2967:X O *D sky130_fd_sc_hd__clkbuf_1
*CAP
1 *3169:D 0.000146663
2 *2967:X 0.000146663
3 *3169:D *2967:A 0.000173002
4 *3168:D *3169:D 8.40269e-05
*RES
1 *2967:X *3169:D 5.96375 
*END

*D_NET *55 0.000228499
*CONN
*I *3170:D I *D sky130_fd_sc_hd__dfxtp_1
*I *2970:X O *D sky130_fd_sc_hd__clkbuf_1
*CAP
1 *3170:D 7.66543e-05
2 *2970:X 7.66543e-05
3 *3170:D *2753:D 1.43717e-05
4 *3170:D *3171:CLK 5.13155e-05
5 *3170:D *174:150 9.50342e-06
6 *3170:D *378:56 0
*RES
1 *2970:X *3170:D 8.46375 
*END

*D_NET *56 0.000359932
*CONN
*I *3171:D I *D sky130_fd_sc_hd__dfxtp_1
*I *2972:X O *D sky130_fd_sc_hd__clkbuf_1
*CAP
1 *3171:D 0.000108316
2 *2972:X 0.000108316
3 *3171:D *2969:S 8.38039e-05
4 *3171:D *3171:CLK 5.94962e-05
*RES
1 *2972:X *3171:D 5.03375 
*END

*D_NET *57 0.000331539
*CONN
*I *3172:D I *D sky130_fd_sc_hd__dfxtp_1
*I *2975:X O *D sky130_fd_sc_hd__clkbuf_1
*CAP
1 *3172:D 0.000106876
2 *2975:X 0.000106876
3 *3172:D *2754:B 9.77048e-06
4 *3172:D *3172:CLK 0.000108016
*RES
1 *2975:X *3172:D 4.92875 
*END

*D_NET *58 0.00112475
*CONN
*I *3173:D I *D sky130_fd_sc_hd__dfxtp_1
*I *2978:X O *D sky130_fd_sc_hd__clkbuf_1
*CAP
1 *3173:D 0.000192641
2 *2978:X 0.000192641
3 *3173:D *2749:A1 5.78212e-05
4 *3173:D *2978:A 7.1624e-05
5 *3173:D *3388:A 4.47202e-05
6 *3173:D *3435:A 2.9664e-05
7 *3173:D *181:35 0.000472964
8 *3173:D *348:101 1.43717e-05
9 *3173:D *843:10 4.83032e-05
*RES
1 *2978:X *3173:D 13.0538 
*END

*D_NET *59 0.000374897
*CONN
*I *3174:D I *D sky130_fd_sc_hd__dfxtp_1
*I *2982:X O *D sky130_fd_sc_hd__clkbuf_1
*CAP
1 *3174:D 0.000133141
2 *2982:X 0.000133141
3 *3174:D *597:10 0.000108614
*RES
1 *2982:X *3174:D 5.27375 
*END

*D_NET *60 0.000323379
*CONN
*I *3175:D I *D sky130_fd_sc_hd__dfxtp_1
*I *2984:X O *D sky130_fd_sc_hd__clkbuf_1
*CAP
1 *3175:D 9.82997e-05
2 *2984:X 9.82997e-05
3 *3175:D *2769:B1 1.43717e-05
4 *3175:D *3175:CLK 5.36069e-06
5 *3175:D *202:121 1.56428e-05
6 *3175:D *343:66 0
7 *3175:D *597:49 9.14049e-05
*RES
1 *2984:X *3175:D 8.91375 
*END

*D_NET *61 0.00143021
*CONN
*I *3176:D I *D sky130_fd_sc_hd__dfxtp_1
*I *2987:X O *D sky130_fd_sc_hd__clkbuf_1
*CAP
1 *3176:D 0.000330945
2 *2987:X 0.000330945
3 *3176:D *2753:A 1.43717e-05
4 *3176:D *3463:A 4.99619e-05
5 *3176:D *183:110 0.000438469
6 *3176:D *321:16 7.09661e-05
7 *3176:D *417:10 6.55706e-05
8 *3176:D *417:39 3.09233e-05
9 *3176:D *596:33 1.43717e-05
10 *3176:D *681:18 8.36872e-05
*RES
1 *2987:X *3176:D 14.3737 
*END

*D_NET *62 0.00256154
*CONN
*I *3177:D I *D sky130_fd_sc_hd__dfxtp_1
*I *2989:X O *D sky130_fd_sc_hd__clkbuf_1
*CAP
1 *3177:D 0.000461049
2 *2989:X 0.000461049
3 *3177:D *2744:C1 3.56128e-06
4 *3177:D *2774:C 0.000367359
5 *3177:D *2989:A 0.000118081
6 *3177:D *3002:A 6.23115e-05
7 *3177:D *176:18 0.000346601
8 *3177:D *348:91 5.20193e-05
9 *3177:D *355:82 0.000332179
10 *3177:D *409:115 0.000329818
11 *3177:D *731:42 2.75092e-05
*RES
1 *2989:X *3177:D 24.0588 
*END

*D_NET *63 0.000439194
*CONN
*I *3178:D I *D sky130_fd_sc_hd__dfxtp_1
*I *2992:X O *D sky130_fd_sc_hd__clkbuf_1
*CAP
1 *3178:D 8.89047e-05
2 *2992:X 8.89047e-05
3 *3178:D *3066:A 4.82863e-05
4 *3178:D *3178:CLK 1.43717e-05
5 *3178:D *3179:D 4.82319e-06
6 *3178:D *202:83 5.63318e-05
7 *3178:D *343:66 0.000137571
*RES
1 *2992:X *3178:D 9.42375 
*END

*D_NET *64 0.00143057
*CONN
*I *3179:D I *D sky130_fd_sc_hd__dfxtp_1
*I *2994:X O *D sky130_fd_sc_hd__clkbuf_1
*CAP
1 *3179:D 0.00057606
2 *2994:X 0.00057606
3 *3179:D *2994:A 4.39911e-06
4 *3179:D *3178:CLK 0.000117084
5 *3179:D *3179:CLK 9.62981e-05
6 *3179:D *882:10 5.58448e-05
7 *3178:D *3179:D 4.82319e-06
*RES
1 *2994:X *3179:D 11.315 
*END

*D_NET *65 0.000494846
*CONN
*I *3180:D I *D sky130_fd_sc_hd__dfxtp_1
*I *2998:X O *D sky130_fd_sc_hd__clkbuf_1
*CAP
1 *3180:D 0.000125558
2 *2998:X 0.000125558
3 *3180:D *202:83 0.000135416
4 *3180:D *208:104 4.90227e-05
5 *3180:D *215:148 1.43717e-05
6 *3180:D *343:66 4.49197e-05
*RES
1 *2998:X *3180:D 9.76875 
*END

*D_NET *66 0.00156508
*CONN
*I *3181:D I *D sky130_fd_sc_hd__dfxtp_1
*I *3001:X O *D sky130_fd_sc_hd__clkbuf_1
*CAP
1 *3181:D 0.000460905
2 *3001:X 0.000460905
3 *3181:D *2997:A1 9.17857e-05
4 *3181:D *3001:A 6.81824e-05
5 *3181:D *221:12 4.71719e-05
6 *3181:D *879:8 0.000302118
7 *3181:D *880:8 0.000134007
*RES
1 *3001:X *3181:D 15.4688 
*END

*D_NET *67 0.0018038
*CONN
*I *3182:D I *D sky130_fd_sc_hd__dfxtp_1
*I *3005:X O *D sky130_fd_sc_hd__clkbuf_1
*CAP
1 *3182:D 0.000533093
2 *3005:X 0.000533093
3 *3182:D *3004:A1 6.71882e-05
4 *3182:D *3005:A 0.000211546
5 *3182:D *3006:A1 2.66586e-05
6 *3182:D *430:10 7.63204e-05
7 *3182:D *430:40 0.000355903
*RES
1 *3005:X *3182:D 16.6688 
*END

*D_NET *68 0.000522714
*CONN
*I *3183:D I *D sky130_fd_sc_hd__dfxtp_1
*I *3007:X O *D sky130_fd_sc_hd__clkbuf_1
*CAP
1 *3183:D 7.18513e-05
2 *3007:X 7.18513e-05
3 *3183:D *2763:A 0.000144349
4 *3183:D *2763:B 4.68386e-05
5 *3183:D *3183:CLK 9.30787e-05
6 *3183:D *511:108 9.47454e-05
*RES
1 *3007:X *3183:D 9.69375 
*END

*D_NET *69 0.000344881
*CONN
*I *3184:D I *D sky130_fd_sc_hd__dfxtp_1
*I *3010:X O *D sky130_fd_sc_hd__clkbuf_1
*CAP
1 *3184:D 8.01122e-05
2 *3010:X 8.01122e-05
3 *3184:D *3010:A 0.000151967
4 *3184:D *3012:A 3.26889e-05
*RES
1 *3010:X *3184:D 4.92875 
*END

*D_NET *70 0.000696016
*CONN
*I *3185:D I *D sky130_fd_sc_hd__dfxtp_1
*I *3012:X O *D sky130_fd_sc_hd__clkbuf_1
*CAP
1 *3185:D 0.000249993
2 *3012:X 0.000249993
3 *3185:D *3010:A 7.4346e-05
4 *3185:D *3012:A 1.61831e-05
5 *3185:D *3184:CLK 0.000105501
*RES
1 *3012:X *3185:D 11.6138 
*END

*D_NET *71 0.000375187
*CONN
*I *3186:D I *D sky130_fd_sc_hd__dfxtp_1
*I *3015:X O *D sky130_fd_sc_hd__clkbuf_1
*CAP
1 *3186:D 9.47048e-05
2 *3015:X 9.47048e-05
3 *3186:D *3017:A 9.54399e-05
4 *3186:D *594:86 9.03376e-05
*RES
1 *3015:X *3186:D 9.15375 
*END

*D_NET *72 0.000272384
*CONN
*I *3187:D I *D sky130_fd_sc_hd__dfxtp_1
*I *3017:X O *D sky130_fd_sc_hd__clkbuf_1
*CAP
1 *3187:D 0.000136192
2 *3017:X 0.000136192
3 *3187:D *3187:CLK 0
4 *3187:D *871:14 0
*RES
1 *3017:X *3187:D 9.15375 
*END

*D_NET *73 0.000272171
*CONN
*I *3188:D I *D sky130_fd_sc_hd__dfxtp_1
*I *3020:X O *D sky130_fd_sc_hd__clkbuf_1
*CAP
1 *3188:D 0.000122328
2 *3020:X 0.000122328
3 *3188:D *594:86 2.75145e-05
*RES
1 *3020:X *3188:D 4.92875 
*END

*D_NET *74 0.00092115
*CONN
*I *3189:D I *D sky130_fd_sc_hd__dfxtp_1
*I *3022:X O *D sky130_fd_sc_hd__clkbuf_1
*CAP
1 *3189:D 0.000403294
2 *3022:X 0.000403294
3 *3189:D *3022:A 4.05358e-05
4 *3189:D *3409:A 7.4027e-05
*RES
1 *3022:X *3189:D 13.0538 
*END

*D_NET *75 0.00037971
*CONN
*I *3190:D I *D sky130_fd_sc_hd__dfxtp_1
*I *3025:X O *D sky130_fd_sc_hd__clkbuf_1
*CAP
1 *3190:D 0.000189855
2 *3025:X 0.000189855
*RES
1 *3025:X *3190:D 9.76875 
*END

*D_NET *76 0.000915638
*CONN
*I *3191:D I *D sky130_fd_sc_hd__dfxtp_1
*I *3027:X O *D sky130_fd_sc_hd__clkbuf_1
*CAP
1 *3191:D 0.000307045
2 *3027:X 0.000307045
3 *3191:D *2758:A1 8.89906e-05
4 *3191:D *3027:A 0
5 *3191:D *3036:A1 4.05358e-05
6 *3191:D *3036:S 4.70343e-05
7 *3191:D *3044:A1 4.99619e-05
8 *3191:D *3190:CLK 1.28874e-05
9 *3191:D *3438:A 0
10 *3191:D *593:121 6.21368e-05
*RES
1 *3027:X *3191:D 13.5037 
*END

*D_NET *77 0.000549619
*CONN
*I *3192:D I *D sky130_fd_sc_hd__dfxtp_1
*I *3030:X O *D sky130_fd_sc_hd__clkbuf_1
*CAP
1 *3192:D 0.000220316
2 *3030:X 0.000220316
3 *3192:D *3041:S 5.72004e-05
4 *3192:D *3042:A 0
5 *3192:D *593:24 5.17877e-05
*RES
1 *3030:X *3192:D 11.0437 
*END

*D_NET *78 0.00244373
*CONN
*I *3193:D I *D sky130_fd_sc_hd__dfxtp_1
*I *3032:X O *D sky130_fd_sc_hd__clkbuf_1
*CAP
1 *3193:D 0.000640874
2 *3032:X 0.000640874
3 *3193:D *2757:A1 0.000136567
4 *3193:D *593:8 0.000762832
5 *3193:D *764:64 0.000262582
*RES
1 *3032:X *3193:D 19.1287 
*END

*D_NET *79 0.00039905
*CONN
*I *3194:D I *D sky130_fd_sc_hd__dfxtp_1
*I *3035:X O *D sky130_fd_sc_hd__clkbuf_1
*CAP
1 *3194:D 0.000125079
2 *3035:X 0.000125079
3 *3194:D *3035:A 0.000145242
4 *3194:D *3037:A 3.64998e-06
5 *3194:D *593:63 0
*RES
1 *3035:X *3194:D 9.42375 
*END

*D_NET *80 0.000260906
*CONN
*I *3195:D I *D sky130_fd_sc_hd__dfxtp_1
*I *3037:X O *D sky130_fd_sc_hd__clkbuf_1
*CAP
1 *3195:D 0.000104968
2 *3037:X 0.000104968
3 *3195:D *3037:A 5.09689e-05
*RES
1 *3037:X *3195:D 4.92875 
*END

*D_NET *81 0.000647269
*CONN
*I *3196:D I *D sky130_fd_sc_hd__dfxtp_1
*I *3040:X O *D sky130_fd_sc_hd__clkbuf_1
*CAP
1 *3196:D 0.000210947
2 *3040:X 0.000210947
3 *3196:D *3042:A 7.01359e-05
4 *3196:D *593:24 0.000130038
5 *3196:D *593:26 2.52012e-05
*RES
1 *3040:X *3196:D 10.5938 
*END

*D_NET *82 0.00102991
*CONN
*I *3197:D I *D sky130_fd_sc_hd__dfxtp_1
*I *3042:X O *D sky130_fd_sc_hd__clkbuf_1
*CAP
1 *3197:D 0.000343036
2 *3042:X 0.000343036
3 *3197:D *3042:A 0
4 *3197:D *3197:CLK 0.000271475
5 *3197:D *862:14 7.23602e-05
*RES
1 *3042:X *3197:D 13.2788 
*END

*D_NET *83 0.00093038
*CONN
*I *3198:D I *D sky130_fd_sc_hd__dfxtp_1
*I *3045:X O *D sky130_fd_sc_hd__clkbuf_1
*CAP
1 *3198:D 0.000291883
2 *3045:X 0.000291883
3 *3198:D *3045:A 3.79351e-05
4 *3198:D *593:65 0.000136036
5 *3198:D *593:67 5.1771e-05
6 *3198:D *593:106 0.000120872
*RES
1 *3045:X *3198:D 13.2188 
*END

*D_NET *84 0.000394449
*CONN
*I *3199:D I *D sky130_fd_sc_hd__dfxtp_1
*I *3047:X O *D sky130_fd_sc_hd__clkbuf_1
*CAP
1 *3199:D 6.86817e-05
2 *3047:X 6.86817e-05
3 *3199:D *3045:A 6.33432e-05
4 *3199:D *3047:A 8.79995e-05
5 *3199:D *593:121 5.20335e-05
6 *3199:D *860:10 5.37091e-05
*RES
1 *3047:X *3199:D 9.57375 
*END

*D_NET *85 0.000701047
*CONN
*I *3200:D I *D sky130_fd_sc_hd__dfxtp_1
*I *3053:X O *D sky130_fd_sc_hd__clkbuf_1
*CAP
1 *3200:D 0.000140705
2 *3053:X 0.000140705
3 *3200:D *3290:A 0.000175207
4 *3200:D *443:52 0.000148983
5 *3200:D *591:220 9.54469e-05
*RES
1 *3053:X *3200:D 11.0437 
*END

*D_NET *86 0.000369707
*CONN
*I *3201:D I *D sky130_fd_sc_hd__dfxtp_1
*I *3055:X O *D sky130_fd_sc_hd__clkbuf_1
*CAP
1 *3201:D 0.000101608
2 *3055:X 0.000101608
3 *3201:D *3055:A 1.16578e-05
4 *3201:D *3201:CLK 0.000113663
5 *3201:D *3289:A 1.85674e-05
6 *3201:D *419:85 2.26018e-05
*RES
1 *3055:X *3201:D 5.27375 
*END

*D_NET *87 0.000337659
*CONN
*I *3202:D I *D sky130_fd_sc_hd__dfxtp_1
*I *3058:X O *D sky130_fd_sc_hd__clkbuf_1
*CAP
1 *3202:D 0.000141975
2 *3058:X 0.000141975
3 *3202:D *2745:A 5.37091e-05
4 *3202:D *596:65 0
*RES
1 *3058:X *3202:D 9.57375 
*END

*D_NET *88 0.000699937
*CONN
*I *3203:D I *D sky130_fd_sc_hd__dfxtp_1
*I *3060:X O *D sky130_fd_sc_hd__clkbuf_1
*CAP
1 *3203:D 0.000170318
2 *3060:X 0.000170318
3 *3203:D *2773:A 0.000108401
4 *3203:D *3057:S 9.9995e-05
5 *3203:D *3060:A 8.00005e-05
6 *3203:D *3203:CLK 2.33079e-05
7 *3203:D *596:65 4.75977e-05
*RES
1 *3060:X *3203:D 11.4788 
*END

*D_NET *89 0.000670414
*CONN
*I *3204:D I *D sky130_fd_sc_hd__dfxtp_1
*I *3063:X O *D sky130_fd_sc_hd__clkbuf_1
*CAP
1 *3204:D 0.000189544
2 *3063:X 0.000189544
3 *3204:D *3063:A 4.83032e-05
4 *3204:D *3153:CLK 3.14077e-05
5 *3204:D *207:117 0.000197243
6 *3204:D *591:216 1.43717e-05
*RES
1 *3063:X *3204:D 10.2937 
*END

*D_NET *90 0.000397521
*CONN
*I *3205:D I *D sky130_fd_sc_hd__dfxtp_1
*I *3065:X O *D sky130_fd_sc_hd__clkbuf_1
*CAP
1 *3205:D 0.000109832
2 *3065:X 0.000109832
3 *3205:D *2792:A2 0.000109489
4 *3205:D *3062:A0 4.77769e-05
5 *3205:D *491:14 6.22023e-06
6 *3205:D *607:20 1.43717e-05
*RES
1 *3065:X *3205:D 9.16875 
*END

*D_NET *91 0.000865904
*CONN
*I *3206:D I *D sky130_fd_sc_hd__dfxtp_1
*I *3068:X O *D sky130_fd_sc_hd__clkbuf_1
*CAP
1 *3206:D 0.000135701
2 *3068:X 0.000135701
3 *3206:D *2733:B2 0
4 *3206:D *3062:S 7.65252e-05
5 *3206:D *3064:A1 0.000309838
6 *3206:D *3068:A 0.00015754
7 *3206:D *428:99 5.05981e-05
*RES
1 *3068:X *3206:D 11.595 
*END

*D_NET *92 0.00111258
*CONN
*I *3207:D I *D sky130_fd_sc_hd__dfxtp_1
*I *3070:X O *D sky130_fd_sc_hd__clkbuf_1
*CAP
1 *3207:D 0.000196606
2 *3070:X 0.000196606
3 *3207:D *2786:B1 0.00035077
4 *3207:D *2791:A2 9.27038e-05
5 *3207:D *3066:B 9.54469e-05
6 *3207:D *3441:A 9.54469e-05
7 *3207:D *428:83 8.5002e-05
*RES
1 *3070:X *3207:D 12.6038 
*END

*D_NET *93 0.00131237
*CONN
*I *3208:D I *D sky130_fd_sc_hd__dfxtp_1
*I *3073:X O *D sky130_fd_sc_hd__clkbuf_1
*CAP
1 *3208:D 0.000296548
2 *3073:X 0.000296548
3 *3208:D *3073:A 0.000137845
4 *3208:D *3075:A 7.1624e-05
5 *3208:D *3208:CLK 0.000310497
6 *3208:D *3453:A 0.000199308
*RES
1 *3073:X *3208:D 14.0288 
*END

*D_NET *94 0.000579731
*CONN
*I *3209:D I *D sky130_fd_sc_hd__dfxtp_1
*I *3075:X O *D sky130_fd_sc_hd__clkbuf_1
*CAP
1 *3209:D 0.00028268
2 *3075:X 0.00028268
3 *3209:D *3209:CLK 1.43717e-05
*RES
1 *3075:X *3209:D 11.2087 
*END

*D_NET *95 0.000457569
*CONN
*I *3210:D I *D sky130_fd_sc_hd__dfxtp_1
*I *3078:X O *D sky130_fd_sc_hd__clkbuf_1
*CAP
1 *3210:D 7.12788e-05
2 *3078:X 7.12788e-05
3 *3210:D *3074:S 5.80139e-05
4 *3210:D *3211:D 0.000155614
5 *3210:D *606:8 5.01066e-05
6 *3210:D *848:10 5.12766e-05
*RES
1 *3078:X *3210:D 9.57375 
*END

*D_NET *96 0.00164415
*CONN
*I *3211:D I *D sky130_fd_sc_hd__dfxtp_1
*I *3080:X O *D sky130_fd_sc_hd__clkbuf_1
*CAP
1 *3211:D 0.000462586
2 *3080:X 0.000462586
3 *3211:D *3072:A1 0.000280104
4 *3211:D *3078:A 8.35118e-05
5 *3211:D *3080:A 0.000122607
6 *3211:D *606:117 7.71445e-05
7 *3210:D *3211:D 0.000155614
*RES
1 *3080:X *3211:D 15.24 
*END

*D_NET *97 0.000407612
*CONN
*I *3212:D I *D sky130_fd_sc_hd__dfxtp_1
*I *3083:X O *D sky130_fd_sc_hd__clkbuf_1
*CAP
1 *3212:D 0.000150843
2 *3083:X 0.000150843
3 *3212:D *3049:A 3.71929e-05
4 *3212:D *3212:CLK 3.83526e-05
5 *3212:D *417:98 3.03807e-05
*RES
1 *3083:X *3212:D 5.675 
*END

*D_NET *98 0.00103619
*CONN
*I *3213:D I *D sky130_fd_sc_hd__dfxtp_1
*I *3085:X O *D sky130_fd_sc_hd__clkbuf_1
*CAP
1 *3213:D 0.00024766
2 *3085:X 0.00024766
3 *3213:D *3049:A 4.50959e-05
4 *3213:D *3085:A 0.000339008
5 *3213:D *843:10 0.000156771
*RES
1 *3085:X *3213:D 8.18375 
*END

*D_NET *99 0.00163831
*CONN
*I *3214:D I *D sky130_fd_sc_hd__dfxtp_1
*I *3089:X O *D sky130_fd_sc_hd__clkbuf_1
*CAP
1 *3214:D 0.00032033
2 *3089:X 0.00032033
3 *3214:D *3089:A 0
4 *3214:D *3092:A 8.86401e-05
5 *3214:D *3215:D 4.43871e-06
6 *3214:D *3365:A 8.23457e-05
7 *3214:D *177:16 0.000123503
8 *3214:D *192:63 0.000429704
9 *3214:D *598:16 0.000269018
*RES
1 *3089:X *3214:D 14.9587 
*END

*D_NET *100 0.000970057
*CONN
*I *3215:D I *D sky130_fd_sc_hd__dfxtp_1
*I *3092:X O *D sky130_fd_sc_hd__clkbuf_1
*CAP
1 *3215:D 0.000114794
2 *3092:X 0.000114794
3 *3215:D *3092:A 0.000159964
4 *3215:D *3365:A 0.000259183
5 *3215:D *192:63 5.64057e-05
6 *3215:D *192:78 2.97004e-06
7 *3215:D *598:16 0.00015896
8 *3215:D *598:27 9.85483e-05
9 *3214:D *3215:D 4.43871e-06
*RES
1 *3092:X *3215:D 11.4937 
*END

*D_NET *101 0.000371397
*CONN
*I *3216:D I *D sky130_fd_sc_hd__dfxtp_1
*I *3095:X O *D sky130_fd_sc_hd__clkbuf_1
*CAP
1 *3216:D 8.2484e-05
2 *3095:X 8.2484e-05
3 *3216:D *2684:B1 5.35779e-05
4 *3216:D *3023:A 0.000152851
*RES
1 *3095:X *3216:D 5.225 
*END

*D_NET *102 0.000553662
*CONN
*I *3217:D I *D sky130_fd_sc_hd__dfxtp_1
*I *3097:X O *D sky130_fd_sc_hd__clkbuf_1
*CAP
1 *3217:D 0.000163539
2 *3097:X 0.000163539
3 *3217:D *3096:A1 4.82863e-05
4 *3217:D *3121:A 7.53592e-05
5 *3217:D *419:85 0
6 *3217:D *594:56 2.92496e-05
7 *3217:D *594:67 7.36892e-05
*RES
1 *3097:X *3217:D 10.2188 
*END

*D_NET *103 0.000781621
*CONN
*I *3218:D I *D sky130_fd_sc_hd__dfxtp_1
*I *3100:X O *D sky130_fd_sc_hd__clkbuf_1
*CAP
1 *3218:D 0.000285171
2 *3100:X 0.000285171
3 *3218:D *3100:A 2.64607e-05
4 *3218:D *3101:A0 1.49267e-05
5 *3218:D *3102:A 0.000157119
6 *3218:D *3106:A0 8.60673e-06
7 *3218:D *598:86 4.1652e-06
*RES
1 *3100:X *3218:D 12.3638 
*END

*D_NET *104 0.000207327
*CONN
*I *3219:D I *D sky130_fd_sc_hd__dfxtp_1
*I *3102:X O *D sky130_fd_sc_hd__clkbuf_1
*CAP
1 *3219:D 5.10291e-05
2 *3102:X 5.10291e-05
3 *3219:D *3102:A 3.17252e-05
4 *3219:D *3386:A 1.95718e-05
5 *3219:D *508:14 5.39718e-05
*RES
1 *3102:X *3219:D 8.505 
*END

*D_NET *105 0.000381195
*CONN
*I *3220:D I *D sky130_fd_sc_hd__dfxtp_1
*I *3105:X O *D sky130_fd_sc_hd__clkbuf_1
*CAP
1 *3220:D 0.000118116
2 *3105:X 0.000118116
3 *3220:D *2995:A 1.43717e-05
4 *3220:D *3103:A 0
5 *3220:D *3107:A 4.89395e-05
6 *3220:D *3221:CLK 4.43871e-06
7 *3220:D *597:113 7.72135e-05
*RES
1 *3105:X *3220:D 9.42375 
*END

*D_NET *106 0.000406114
*CONN
*I *3221:D I *D sky130_fd_sc_hd__dfxtp_1
*I *3107:X O *D sky130_fd_sc_hd__clkbuf_1
*CAP
1 *3221:D 0.000152866
2 *3107:X 0.000152866
3 *3221:D *3009:A0 0
4 *3221:D *3221:CLK 0.000100383
*RES
1 *3107:X *3221:D 9.69375 
*END

*D_NET *107 0.000270346
*CONN
*I *3222:D I *D sky130_fd_sc_hd__dfxtp_1
*I *3111:X O *D sky130_fd_sc_hd__clkbuf_1
*CAP
1 *3222:D 8.85488e-05
2 *3111:X 8.85488e-05
3 *3222:D *2999:A 4.82319e-06
4 *3222:D *3111:A 7.33357e-05
5 *3222:D *419:45 1.50897e-05
*RES
1 *3111:X *3222:D 8.97375 
*END

*D_NET *108 0.000936381
*CONN
*I *3223:D I *D sky130_fd_sc_hd__dfxtp_1
*I *3113:X O *D sky130_fd_sc_hd__clkbuf_1
*CAP
1 *3223:D 0.000176345
2 *3113:X 0.000176345
3 *3223:D *3111:A 0.000258074
4 *3223:D *181:69 0.000162223
5 *3223:D *753:45 0.000163393
*RES
1 *3113:X *3223:D 11.8837 
*END

*D_NET *109 0.00114248
*CONN
*I *3224:D I *D sky130_fd_sc_hd__dfxtp_1
*I *3116:X O *D sky130_fd_sc_hd__clkbuf_1
*CAP
1 *3224:D 0.000386988
2 *3116:X 0.000386988
3 *3224:D *2892:A 1.08758e-05
4 *3224:D *3002:A 0
5 *3224:D *3114:B 9.4087e-05
6 *3224:D *3115:A1 0.000100536
7 *3224:D *3116:A 3.23284e-05
8 *3224:D *3118:A 7.83494e-05
9 *3224:D *183:110 0
10 *3224:D *355:98 5.2325e-05
*RES
1 *3116:X *3224:D 13.8038 
*END

*D_NET *110 0.00106974
*CONN
*I *3225:D I *D sky130_fd_sc_hd__dfxtp_1
*I *3118:X O *D sky130_fd_sc_hd__clkbuf_1
*CAP
1 *3225:D 0.00024597
2 *3118:X 0.00024597
3 *3225:D *177:135 9.21064e-05
4 *3225:D *181:35 0
5 *3225:D *348:101 0.000401021
6 *3225:D *887:8 8.46717e-05
*RES
1 *3118:X *3225:D 12.1088 
*END

*D_NET *111 0.000922934
*CONN
*I *3226:D I *D sky130_fd_sc_hd__dfxtp_1
*I *3121:X O *D sky130_fd_sc_hd__clkbuf_1
*CAP
1 *3226:D 0.000216717
2 *3121:X 0.000216717
3 *3226:D *3054:S 1.1561e-05
4 *3226:D *3119:A 0.000153984
5 *3226:D *3227:D 0
6 *3226:D *3329:A 9.50342e-06
7 *3226:D *419:85 0
8 *3226:D *594:45 3.09233e-05
9 *3226:D *594:56 0.000283528
*RES
1 *3121:X *3226:D 12.285 
*END

*D_NET *112 0.00105705
*CONN
*I *3227:D I *D sky130_fd_sc_hd__dfxtp_1
*I *3123:X O *D sky130_fd_sc_hd__clkbuf_1
*CAP
1 *3227:D 0.000250743
2 *3123:X 0.000250743
3 *3227:D *3053:A 4.82319e-06
4 *3227:D *3054:S 9.33406e-05
5 *3227:D *3123:A 0.00015639
6 *3227:D *419:85 0.000286635
7 *3227:D *594:45 1.43717e-05
8 *3226:D *3227:D 0
*RES
1 *3123:X *3227:D 12.2437 
*END

*D_NET *113 0.000342435
*CONN
*I *3228:D I *D sky130_fd_sc_hd__dfxtp_1
*I *2538:X O *D sky130_fd_sc_hd__clkbuf_1
*CAP
1 *3228:D 0.000117007
2 *2538:X 0.000117007
3 *3228:D *2538:A 7.47551e-05
4 *3228:D *2979:A 0
5 *3228:D *3228:CLK 4.43871e-06
6 *3228:D *3229:D 2.92279e-05
*RES
1 *2538:X *3228:D 9.555 
*END

*D_NET *114 0.00173675
*CONN
*I *3229:D I *D sky130_fd_sc_hd__dfxtp_1
*I *2540:X O *D sky130_fd_sc_hd__clkbuf_1
*CAP
1 *3229:D 0.000708279
2 *2540:X 0.000708279
3 *3229:D *2538:A 0
4 *3229:D *2701:A1 4.11281e-05
5 *3229:D *3228:CLK 1.83847e-05
6 *3229:D *511:126 6.70598e-05
7 *3229:D *598:33 0.000164388
8 *3228:D *3229:D 2.92279e-05
*RES
1 *2540:X *3229:D 16.9988 
*END

*D_NET *115 0.00139459
*CONN
*I *3230:D I *D sky130_fd_sc_hd__dfxtp_1
*I *2543:X O *D sky130_fd_sc_hd__clkbuf_1
*CAP
1 *3230:D 0.000620157
2 *2543:X 0.000620157
3 *3230:D *3057:A0 0.000154273
*RES
1 *2543:X *3230:D 15.5212 
*END

*D_NET *116 0.000342126
*CONN
*I *3231:D I *D sky130_fd_sc_hd__dfxtp_1
*I *2545:X O *D sky130_fd_sc_hd__clkbuf_1
*CAP
1 *3231:D 0.000150795
2 *2545:X 0.000150795
3 *3231:D *2545:A 4.05358e-05
4 *3231:D *3057:A0 0
5 *3231:D *428:22 0
*RES
1 *2545:X *3231:D 9.49875 
*END

*D_NET *117 0.00217131
*CONN
*I *3232:D I *D sky130_fd_sc_hd__dfxtp_1
*I *2550:X O *D sky130_fd_sc_hd__clkbuf_1
*CAP
1 *3232:D 0.00066598
2 *2550:X 0.00066598
3 *3232:D *2549:S 0.000118527
4 *3232:D *2716:B2 0.000121746
5 *3232:D *320:16 5.46094e-05
6 *3232:D *500:119 7.70736e-05
7 *3232:D *822:8 0.00019608
8 *3232:D *875:8 0.000271314
*RES
1 *2550:X *3232:D 18.8888 
*END

*D_NET *118 0.000392813
*CONN
*I *3233:D I *D sky130_fd_sc_hd__dfxtp_1
*I *2552:X O *D sky130_fd_sc_hd__clkbuf_1
*CAP
1 *3233:D 0.000103217
2 *2552:X 0.000103217
3 *3233:D *2552:A 0.000186378
*RES
1 *2552:X *3233:D 5.27375 
*END

*D_NET *119 0.00110814
*CONN
*I *3234:D I *D sky130_fd_sc_hd__dfxtp_1
*I *2555:X O *D sky130_fd_sc_hd__clkbuf_1
*CAP
1 *3234:D 0.000257907
2 *2555:X 0.000257907
3 *3234:D *2575:A 0.000138551
4 *3234:D *3234:CLK 6.25957e-05
5 *3234:D *3242:D 0.000335858
6 *3234:D *698:16 5.53202e-05
*RES
1 *2555:X *3234:D 13.5938 
*END

*D_NET *120 0.000446823
*CONN
*I *3235:D I *D sky130_fd_sc_hd__dfxtp_1
*I *2557:X O *D sky130_fd_sc_hd__clkbuf_1
*CAP
1 *3235:D 0.000142587
2 *2557:X 0.000142587
3 *3235:D *2557:A 1.37328e-05
4 *3235:D *2577:A 0
5 *3235:D *3235:CLK 1.43717e-05
6 *3235:D *3339:A 0.000116158
7 *3235:D *698:16 1.7386e-05
*RES
1 *2557:X *3235:D 10.0387 
*END

*D_NET *121 0.000464744
*CONN
*I *3236:D I *D sky130_fd_sc_hd__dfxtp_1
*I *2560:X O *D sky130_fd_sc_hd__clkbuf_1
*CAP
1 *3236:D 0.000213933
2 *2560:X 0.000213933
3 *3236:D *592:56 3.68769e-05
*RES
1 *2560:X *3236:D 10.3837 
*END

*D_NET *122 0.000326595
*CONN
*I *3237:D I *D sky130_fd_sc_hd__dfxtp_1
*I *2562:X O *D sky130_fd_sc_hd__clkbuf_1
*CAP
1 *3237:D 0.000155595
2 *2562:X 0.000155595
3 *3237:D *2560:A 1.54049e-05
4 *3237:D *592:52 0
5 *3237:D *592:56 0
*RES
1 *2562:X *3237:D 9.42375 
*END

*D_NET *123 0.000381949
*CONN
*I *3238:D I *D sky130_fd_sc_hd__dfxtp_1
*I *2565:X O *D sky130_fd_sc_hd__clkbuf_1
*CAP
1 *3238:D 8.18109e-05
2 *2565:X 8.18109e-05
3 *3238:D *2830:A1 9.54469e-05
4 *3238:D *320:51 9.54469e-05
5 *3238:D *620:12 2.74339e-05
*RES
1 *2565:X *3238:D 9.15375 
*END

*D_NET *124 0.000749818
*CONN
*I *3239:D I *D sky130_fd_sc_hd__dfxtp_1
*I *2567:X O *D sky130_fd_sc_hd__clkbuf_1
*CAP
1 *3239:D 0.000172577
2 *2567:X 0.000172577
3 *3239:D *2833:A1 0.000205569
4 *3239:D *3239:CLK 0.000121031
5 *3239:D *3248:CLK 2.49909e-05
6 *3239:D *601:47 5.30732e-05
*RES
1 *2567:X *3239:D 7.61 
*END

*D_NET *125 0.000299151
*CONN
*I *3240:D I *D sky130_fd_sc_hd__dfxtp_1
*I *2570:X O *D sky130_fd_sc_hd__clkbuf_1
*CAP
1 *3240:D 0.000100017
2 *2570:X 0.000100017
3 *3240:D *2830:A1 3.47837e-05
4 *3240:D *185:28 1.43717e-05
5 *3240:D *401:34 0
6 *3240:D *405:35 4.99619e-05
*RES
1 *2570:X *3240:D 8.91375 
*END

*D_NET *126 0.000637518
*CONN
*I *3241:D I *D sky130_fd_sc_hd__dfxtp_1
*I *2572:X O *D sky130_fd_sc_hd__clkbuf_1
*CAP
1 *3241:D 0.000132714
2 *2572:X 0.000132714
3 *3241:D *2563:A 7.7768e-05
4 *3241:D *2571:A1 0.000132659
5 *3241:D *185:28 0.000161664
6 *3241:D *500:115 0
*RES
1 *2572:X *3241:D 10.6987 
*END

*D_NET *127 0.00111275
*CONN
*I *3242:D I *D sky130_fd_sc_hd__dfxtp_1
*I *2575:X O *D sky130_fd_sc_hd__clkbuf_1
*CAP
1 *3242:D 0.000212762
2 *2575:X 0.000212762
3 *3242:D *2575:A 5.83121e-06
4 *3242:D *3234:CLK 9.84957e-05
5 *3242:D *599:29 0.000243532
6 *3242:D *599:52 3.51254e-06
7 *3234:D *3242:D 0.000335858
*RES
1 *2575:X *3242:D 12.4087 
*END

*D_NET *128 0.000641367
*CONN
*I *3243:D I *D sky130_fd_sc_hd__dfxtp_1
*I *2577:X O *D sky130_fd_sc_hd__clkbuf_1
*CAP
1 *3243:D 0.000298661
2 *2577:X 0.000298661
3 *3243:D *2577:A 0
4 *3243:D *698:16 4.40446e-05
*RES
1 *2577:X *3243:D 11.7638 
*END

*D_NET *129 0.000354711
*CONN
*I *3244:D I *D sky130_fd_sc_hd__dfxtp_1
*I *2580:X O *D sky130_fd_sc_hd__clkbuf_1
*CAP
1 *3244:D 5.87367e-05
2 *2580:X 5.87367e-05
3 *3244:D *2716:A1 9.35656e-05
4 *3244:D *343:32 5.01066e-05
5 *3244:D *599:29 9.35656e-05
*RES
1 *2580:X *3244:D 8.80875 
*END

*D_NET *130 0.000812229
*CONN
*I *3245:D I *D sky130_fd_sc_hd__dfxtp_1
*I *2582:X O *D sky130_fd_sc_hd__clkbuf_1
*CAP
1 *3245:D 0.000233277
2 *2582:X 0.000233277
3 *3245:D *2558:A 6.2027e-05
4 *3245:D *2582:A 3.86607e-05
5 *3245:D *2716:A1 0.000138133
6 *3245:D *358:37 0
7 *3245:D *544:12 9.24825e-05
8 *3245:D *599:78 1.43717e-05
*RES
1 *2582:X *3245:D 12.2437 
*END

*D_NET *131 0.000245336
*CONN
*I *3246:D I *D sky130_fd_sc_hd__dfxtp_1
*I *2586:X O *D sky130_fd_sc_hd__clkbuf_1
*CAP
1 *3246:D 0.0001024
2 *2586:X 0.0001024
3 *3246:D *2586:A 4.05358e-05
4 *3246:D *511:102 0
*RES
1 *2586:X *3246:D 8.91375 
*END

*D_NET *132 0.000820874
*CONN
*I *3247:D I *D sky130_fd_sc_hd__dfxtp_1
*I *2588:X O *D sky130_fd_sc_hd__clkbuf_1
*CAP
1 *3247:D 0.00025482
2 *2588:X 0.00025482
3 *3247:D *2586:A 0
4 *3247:D *2620:A0 9.14049e-05
5 *3247:D *2776:A 0.000113899
6 *3247:D *3246:CLK 9.15582e-05
7 *3247:D *3318:A 1.43717e-05
*RES
1 *2588:X *3247:D 11.6438 
*END

*D_NET *133 0.000329144
*CONN
*I *3248:D I *D sky130_fd_sc_hd__dfxtp_1
*I *2591:X O *D sky130_fd_sc_hd__clkbuf_1
*CAP
1 *3248:D 8.3803e-05
2 *2591:X 8.3803e-05
3 *3248:D *208:47 2.66935e-05
4 *3248:D *343:51 7.4027e-05
5 *3248:D *353:22 6.08172e-05
*RES
1 *2591:X *3248:D 8.91375 
*END

*D_NET *134 0.000579091
*CONN
*I *3249:D I *D sky130_fd_sc_hd__dfxtp_1
*I *2593:X O *D sky130_fd_sc_hd__clkbuf_1
*CAP
1 *3249:D 0.000181611
2 *2593:X 0.000181611
3 *3249:D *2592:S 7.21654e-05
4 *3249:D *3239:CLK 4.77719e-05
5 *3249:D *601:53 6.28423e-05
6 *3249:D *601:70 3.30908e-05
*RES
1 *2593:X *3249:D 10.4888 
*END

*D_NET *135 0.00127613
*CONN
*I *3250:D I *D sky130_fd_sc_hd__dfxtp_1
*I *2596:X O *D sky130_fd_sc_hd__clkbuf_1
*CAP
1 *3250:D 0.000369014
2 *2596:X 0.000369014
3 *3250:D *2596:A 0.000235263
4 *3250:D *2597:S 5.47313e-05
5 *3250:D *2755:B2 0.000127624
6 *3250:D *2789:B1 1.33205e-05
7 *3250:D *2789:B2 3.6227e-05
8 *3250:D *3469:A 0
9 *3250:D *557:10 7.09363e-05
*RES
1 *2596:X *3250:D 14.5387 
*END

*D_NET *136 0.000617626
*CONN
*I *3251:D I *D sky130_fd_sc_hd__dfxtp_1
*I *2598:X O *D sky130_fd_sc_hd__clkbuf_1
*CAP
1 *3251:D 0.000209746
2 *2598:X 0.000209746
3 *3251:D *2598:A 3.51072e-05
4 *3251:D *2755:B2 1.18307e-05
5 *3251:D *356:49 0
6 *3251:D *604:25 0.000151196
*RES
1 *2598:X *3251:D 10.5638 
*END

*D_NET *137 0.000928903
*CONN
*I *3252:D I *D sky130_fd_sc_hd__dfxtp_1
*I *2601:X O *D sky130_fd_sc_hd__clkbuf_1
*CAP
1 *3252:D 0.000349928
2 *2601:X 0.000349928
3 *3252:D *2599:B 0.000157525
4 *3252:D *393:12 7.15221e-05
*RES
1 *2601:X *3252:D 13.005 
*END

*D_NET *138 0.000879424
*CONN
*I *3253:D I *D sky130_fd_sc_hd__dfxtp_1
*I *2603:X O *D sky130_fd_sc_hd__clkbuf_1
*CAP
1 *3253:D 0.000151096
2 *2603:X 0.000151096
3 *3253:D *2601:A 1.43717e-05
4 *3253:D *2603:A 0.000325615
5 *3253:D *316:80 1.43717e-05
6 *3253:D *528:72 4.89362e-05
7 *3253:D *682:12 0.000173938
*RES
1 *2603:X *3253:D 11.7188 
*END

*D_NET *139 0.00123782
*CONN
*I *3254:D I *D sky130_fd_sc_hd__dfxtp_1
*I *2606:X O *D sky130_fd_sc_hd__clkbuf_1
*CAP
1 *3254:D 0.00029634
2 *2606:X 0.00029634
3 *3254:D *2606:A 0.000302669
4 *3254:D *2811:A3 2.50284e-05
5 *3254:D *2908:B_N 3.99855e-05
6 *3254:D *215:54 0.000133453
7 *3254:D *601:85 0.00013488
8 *3254:D *601:109 9.12494e-06
*RES
1 *2606:X *3254:D 12.42 
*END

*D_NET *140 0.00212499
*CONN
*I *3255:D I *D sky130_fd_sc_hd__dfxtp_1
*I *2608:X O *D sky130_fd_sc_hd__clkbuf_1
*CAP
1 *3255:D 0.000847453
2 *2608:X 0.000847453
3 *3255:D *2605:A0 0.000119873
4 *3255:D *2750:A 3.72081e-05
5 *3255:D *2811:B1 0.000156294
6 *3255:D *349:12 7.03276e-05
7 *3255:D *601:85 4.63813e-05
*RES
1 *2608:X *3255:D 17.8988 
*END

*D_NET *141 0.000545116
*CONN
*I *3256:D I *D sky130_fd_sc_hd__dfxtp_1
*I *2611:X O *D sky130_fd_sc_hd__clkbuf_1
*CAP
1 *3256:D 0.000183256
2 *2611:X 0.000183256
3 *3256:D *211:65 4.99619e-05
4 *3256:D *592:6 0.000128642
5 *3256:D *592:36 0
*RES
1 *2611:X *3256:D 10.4587 
*END

*D_NET *142 0.000444139
*CONN
*I *3257:D I *D sky130_fd_sc_hd__dfxtp_1
*I *2613:X O *D sky130_fd_sc_hd__clkbuf_1
*CAP
1 *3257:D 0.000201801
2 *2613:X 0.000201801
3 *3257:D *2613:A 4.05358e-05
4 *3257:D *592:36 0
*RES
1 *2613:X *3257:D 10.2937 
*END

*D_NET *143 0.000338183
*CONN
*I *3258:D I *D sky130_fd_sc_hd__dfxtp_1
*I *2616:X O *D sky130_fd_sc_hd__clkbuf_1
*CAP
1 *3258:D 7.32826e-05
2 *2616:X 7.32826e-05
3 *3258:D *2612:A0 5.01066e-05
4 *3258:D *211:38 5.01066e-05
5 *3258:D *215:24 0
6 *3258:D *599:27 9.14049e-05
*RES
1 *2616:X *3258:D 8.80875 
*END

*D_NET *144 0.000429295
*CONN
*I *3259:D I *D sky130_fd_sc_hd__dfxtp_1
*I *2618:X O *D sky130_fd_sc_hd__clkbuf_1
*CAP
1 *3259:D 0.000139161
2 *2618:X 0.000139161
3 *3259:D *2618:A 7.00889e-06
4 *3259:D *3259:CLK 0.00011852
5 *3259:D *215:24 0
6 *3259:D *218:36 4.82319e-06
7 *3259:D *316:96 2.86265e-06
8 *3259:D *599:25 1.77595e-05
*RES
1 *2618:X *3259:D 9.51375 
*END

*D_NET *145 0.00102698
*CONN
*I *3260:D I *D sky130_fd_sc_hd__dfxtp_1
*I *2621:X O *D sky130_fd_sc_hd__clkbuf_1
*CAP
1 *3260:D 0.000318596
2 *2621:X 0.000318596
3 *3260:D *2623:A 0.000141599
4 *3260:D *3260:CLK 2.03321e-05
5 *3260:D *3261:D 7.23602e-05
6 *3260:D *327:64 0.000155497
7 *3260:D *779:74 0
*RES
1 *2621:X *3260:D 12.42 
*END

*D_NET *146 0.000674292
*CONN
*I *3261:D I *D sky130_fd_sc_hd__dfxtp_1
*I *2623:X O *D sky130_fd_sc_hd__clkbuf_1
*CAP
1 *3261:D 0.000148265
2 *2623:X 0.000148265
3 *3261:D *2619:A 0
4 *3261:D *2623:A 2.34345e-05
5 *3261:D *3260:CLK 6.02202e-05
6 *3261:D *327:64 8.32001e-05
7 *3261:D *572:8 0.000138547
8 *3260:D *3261:D 7.23602e-05
*RES
1 *2623:X *3261:D 10.8 
*END

*D_NET *147 0.00103049
*CONN
*I *3262:D I *D sky130_fd_sc_hd__dfxtp_1
*I *2626:X O *D sky130_fd_sc_hd__clkbuf_1
*CAP
1 *3262:D 0.000268455
2 *2626:X 0.000268455
3 *3262:D *3262:CLK 8.35118e-05
4 *3262:D *3273:CLK 4.77807e-05
5 *3262:D *3310:A 2.27566e-05
6 *3262:D *316:166 0.000155489
7 *3262:D *605:35 9.23804e-06
8 *3262:D *605:45 9.44635e-05
9 *3273:D *3262:D 8.03344e-05
*RES
1 *2626:X *3262:D 12.795 
*END

*D_NET *148 0.00119163
*CONN
*I *3263:D I *D sky130_fd_sc_hd__dfxtp_1
*I *2628:X O *D sky130_fd_sc_hd__clkbuf_1
*CAP
1 *3263:D 0.000250889
2 *2628:X 0.000250889
3 *3263:D *2541:A 0.000119756
4 *3263:D *2619:B 6.90254e-05
5 *3263:D *2625:S 6.1197e-05
6 *3263:D *2627:S 9.37579e-05
7 *3263:D *604:60 3.83194e-05
8 *3263:D *604:72 0.00010604
9 *3263:D *780:90 4.67723e-05
10 *3273:D *3263:D 0.000154982
*RES
1 *2628:X *3263:D 12.2887 
*END

*D_NET *149 0.000258871
*CONN
*I *3264:D I *D sky130_fd_sc_hd__dfrtp_1
*I *2630:X O *D sky130_fd_sc_hd__clkbuf_1
*CAP
1 *3264:D 9.48525e-05
2 *2630:X 9.48525e-05
3 *3264:D *3264:CLK 0
4 *3264:D *3264:RESET_B 2.86975e-05
5 *2640:S *3264:D 4.04686e-05
*RES
1 *2630:X *3264:D 9.03 
*END

*D_NET *150 0.000304896
*CONN
*I *3274:D I *D sky130_fd_sc_hd__dfrtp_2
*I *2631:Y O *D sky130_fd_sc_hd__xnor2_1
*CAP
1 *3274:D 0.000109219
2 *2631:Y 0.000109219
3 *3274:D *2631:A 3.98475e-05
4 *3274:D *3274:CLK 4.66108e-05
*RES
1 *2631:Y *3274:D 5.15 
*END

*D_NET *151 0.00104093
*CONN
*I *3275:D I *D sky130_fd_sc_hd__dfrtp_1
*I *2633:X O *D sky130_fd_sc_hd__clkbuf_1
*CAP
1 *3275:D 0.000356387
2 *2633:X 0.000356387
3 *3275:D *3275:RESET_B 6.81599e-05
4 *3275:D *551:16 0.000175773
5 *3275:D *609:12 6.58339e-05
6 *3275:D *653:8 1.83847e-05
*RES
1 *2633:X *3275:D 9.875 
*END

*D_NET *152 0.000773607
*CONN
*I *3277:D I *D sky130_fd_sc_hd__dfrtp_1
*I *2635:X O *D sky130_fd_sc_hd__a22o_1
*CAP
1 *3277:D 0.000275566
2 *2635:X 0.000275566
3 *3277:D *2635:A1 2.52812e-05
4 *3277:D *2635:B1 0.000126028
5 *2635:A2 *3277:D 7.1165e-05
*RES
1 *2635:X *3277:D 11.295 
*END

*D_NET *153 0.000649671
*CONN
*I *3389:A I *D sky130_fd_sc_hd__dlygate4sd3_1
*I *2638:X O *D sky130_fd_sc_hd__a221o_1
*CAP
1 *3389:A 6.56058e-05
2 *2638:X 6.56058e-05
3 *3389:A *2636:A 8.8266e-05
4 *3389:A *2638:A2 0.000175318
5 *3389:A *2638:B1 0.000198945
6 *3389:A *2638:C1 5.59302e-05
*RES
1 *2638:X *3389:A 6.08 
*END

*D_NET *154 0.000151344
*CONN
*I *3280:D I *D sky130_fd_sc_hd__dfrtp_1
*I *2641:X O *D sky130_fd_sc_hd__clkbuf_1
*CAP
1 *3280:D 7.5672e-05
2 *2641:X 7.5672e-05
3 *3280:D *3285:SET_B 0
*RES
1 *2641:X *3280:D 8.325 
*END

*D_NET *155 0.000433337
*CONN
*I *3285:D I *D sky130_fd_sc_hd__dfstp_1
*I *2647:X O *D sky130_fd_sc_hd__clkbuf_1
*CAP
1 *3285:D 0.000117757
2 *2647:X 0.000117757
3 *3285:D *605:53 4.89295e-05
4 *3285:D *605:62 0.000148893
*RES
1 *2647:X *3285:D 5.645 
*END

*D_NET *156 0.00259124
*CONN
*I *2655:A2 I *D sky130_fd_sc_hd__a221o_1
*I *2669:B I *D sky130_fd_sc_hd__and2_1
*I *2648:X O *D sky130_fd_sc_hd__and3b_1
*CAP
1 *2655:A2 0.00010518
2 *2669:B 0.000468209
3 *2648:X 2.0132e-05
4 *156:6 0.000593521
5 *2655:A2 *2649:A 1.2818e-05
6 *2655:A2 *2656:B1 1.73877e-05
7 *2655:A2 *2665:B1 0.000219125
8 *2655:A2 *3283:CLK 5.83121e-06
9 *2655:A2 *3283:D 6.07575e-06
10 *2655:A2 *157:10 6.8725e-06
11 *2655:A2 *800:37 0.00013687
12 *2655:A2 *800:41 5.08127e-05
13 *2655:A2 *800:61 1.08758e-05
14 *2669:B *2657:A 4.89395e-05
15 *2669:B *2659:A 0.000270505
16 *2669:B *2670:A 8.64599e-05
17 *2669:B *799:27 0.000119873
18 *2669:B *799:42 4.66108e-05
19 *2669:B *800:61 0.000145355
20 *2669:B *800:63 7.32625e-05
21 *2669:B *800:65 0.000146525
*RES
1 *2648:X *156:6 1.96 
2 *156:6 *2669:B 10.69 
3 *156:6 *2655:A2 8.82875 
*END

*D_NET *157 0.00271119
*CONN
*I *2666:A3 I *D sky130_fd_sc_hd__a31o_1
*I *2662:C I *D sky130_fd_sc_hd__and3b_1
*I *2655:B1 I *D sky130_fd_sc_hd__a221o_1
*I *2667:C I *D sky130_fd_sc_hd__and3_1
*I *2649:Y O *D sky130_fd_sc_hd__nor2_1
*CAP
1 *2666:A3 0.000197482
2 *2662:C 0
3 *2655:B1 0
4 *2667:C 0.000216701
5 *2649:Y 0
6 *157:10 0.000483581
7 *157:6 0.000378491
8 *157:4 0.000309093
9 *2666:A3 *2649:A 3.13354e-05
10 *2666:A3 *2666:A2 2.75145e-05
11 *2666:A3 *800:31 0.000203414
12 *2667:C *2655:A1 0.000265229
13 *2667:C *2656:A2 1.1561e-05
14 *2667:C *2656:B1 0.000138544
15 *2667:C *2667:A 0.000243079
16 *2667:C *322:24 0
17 *157:6 *2649:A 4.69833e-05
18 *157:6 *800:31 2.99981e-06
19 *157:10 *2649:A 0.000133163
20 *157:10 *2655:B2 1.51429e-05
21 *2655:A2 *157:10 6.8725e-06
*RES
1 *2649:Y *157:4 1.6 
2 *157:4 *157:6 1.485 
3 *157:6 *157:10 3.57 
4 *157:10 *2667:C 11.15 
5 *157:10 *2655:B1 1.6 
6 *157:6 *2662:C 1.6 
7 *157:4 *2666:A3 5.605 
*END

*D_NET *158 0.0018737
*CONN
*I *2656:B1 I *D sky130_fd_sc_hd__a211oi_1
*I *2651:C I *D sky130_fd_sc_hd__and3_1
*I *2650:Y O *D sky130_fd_sc_hd__inv_2
*CAP
1 *2656:B1 0.000158153
2 *2651:C 7.96104e-05
3 *2650:Y 0.00012092
4 *158:12 0.000358683
5 *2651:C *2651:A 3.7967e-05
6 *2651:C *798:20 4.66108e-05
7 *2656:B1 *2665:B1 0
8 *2656:B1 *2667:A 9.50342e-06
9 *2656:B1 *3283:D 7.23602e-05
10 *2656:B1 *798:12 0.000179015
11 *2656:B1 *798:14 7.06865e-05
12 *2656:B1 *798:20 0.000165547
13 *2656:B1 *799:42 6.90254e-05
14 *2656:B1 *800:37 3.39944e-05
15 *2656:B1 *800:41 3.33452e-05
16 *2656:B1 *800:115 3.30762e-05
17 *158:12 *2650:A 1.7211e-05
18 *158:12 *2653:B1 7.1624e-05
19 *158:12 *687:18 9.37846e-05
20 *158:12 *798:20 2.85623e-05
21 *158:12 *799:42 8.33066e-06
22 *158:12 *800:41 2.97608e-05
23 *2655:A2 *2656:B1 1.73877e-05
24 *2667:C *2656:B1 0.000138544
*RES
1 *2650:Y *158:12 6.3 
2 *158:12 *2651:C 4.6425 
3 *158:12 *2656:B1 9.06 
*END

*D_NET *159 0.00589498
*CONN
*I *2665:A2 I *D sky130_fd_sc_hd__a211o_1
*I *2653:A2 I *D sky130_fd_sc_hd__a21o_1
*I *2815:C I *D sky130_fd_sc_hd__and4_1
*I *2839:B1 I *D sky130_fd_sc_hd__o21a_1
*I *2651:X O *D sky130_fd_sc_hd__and3_1
*CAP
1 *2665:A2 0.000235975
2 *2653:A2 3.52784e-05
3 *2815:C 8.82784e-05
4 *2839:B1 0.000221258
5 *2651:X 7.70762e-05
6 *159:36 0.00140263
7 *159:12 0.00123046
8 *159:8 0.000415136
9 *2653:A2 *2653:B1 1.10143e-05
10 *2665:A2 *2650:A 4.66108e-05
11 *2665:A2 *2665:A1 3.7837e-05
12 *2815:C *2815:B 7.89983e-05
13 *2815:C *2815:D 9.54399e-05
14 *2815:C *2817:A 0
15 *2815:C *2839:A1 0
16 *2815:C *2840:A2 0
17 *2815:C *784:16 0
18 *2839:B1 *2839:A2 5.4155e-06
19 *2839:B1 *780:37 0
20 *159:8 *2653:B1 0.000136052
21 *159:12 *2653:A1 1.71013e-05
22 *159:12 *2653:B1 0.000117153
23 *159:12 *687:18 1.61461e-05
24 *159:36 *2634:A1 3.30762e-05
25 *159:36 *2634:B1 0.000108975
26 *159:36 *2635:B1 0
27 *159:36 *2653:A1 0
28 *159:36 *2816:B1 1.08758e-05
29 *159:36 *2817:A 4.82863e-05
30 *159:36 *310:6 0.000804115
31 *159:36 *310:8 0.000271303
32 *159:36 *313:10 7.23533e-05
33 *159:36 *653:40 0
34 *2665:C1 *2665:A2 4.57056e-05
35 *11:10 *2653:A2 3.83041e-05
36 *11:10 *159:12 0
37 *11:10 *159:36 0.000194121
*RES
1 *2651:X *159:8 5.235 
2 *159:8 *159:12 4.145 
3 *159:12 *159:36 24.755 
4 *159:36 *2839:B1 4.735 
5 *159:36 *2815:C 7.595 
6 *159:12 *2653:A2 2.41 
7 *159:8 *2665:A2 7.53 
*END

*D_NET *160 0.000841754
*CONN
*I *2653:B1 I *D sky130_fd_sc_hd__a21o_1
*I *2652:X O *D sky130_fd_sc_hd__and4bb_1
*CAP
1 *2653:B1 0.000184687
2 *2652:X 0.000184687
3 *2653:B1 *687:18 9.63589e-05
4 *2653:A2 *2653:B1 1.10143e-05
5 *11:10 *2653:B1 4.01778e-05
6 *158:12 *2653:B1 7.1624e-05
7 *159:8 *2653:B1 0.000136052
8 *159:12 *2653:B1 0.000117153
*RES
1 *2652:X *2653:B1 11.97 
*END

*D_NET *161 0.000123734
*CONN
*I *2654:A I *D sky130_fd_sc_hd__clkbuf_2
*I *2653:X O *D sky130_fd_sc_hd__a21o_1
*CAP
1 *2654:A 3.65173e-05
2 *2653:X 3.65173e-05
3 *11:10 *2654:A 5.06989e-05
*RES
1 *2653:X *2654:A 3.995 
*END

*D_NET *162 0.00252414
*CONN
*I *2665:B1 I *D sky130_fd_sc_hd__a211o_1
*I *2658:B I *D sky130_fd_sc_hd__or3b_1
*I *2656:Y O *D sky130_fd_sc_hd__a211oi_1
*CAP
1 *2665:B1 0.000485172
2 *2658:B 0.000153513
3 *2656:Y 0
4 *162:4 0.000638685
5 *2658:B *2667:A 3.31204e-05
6 *2658:B *322:24 9.5433e-05
7 *2658:B *664:32 2.49909e-05
8 *2658:B *800:115 2.61015e-05
9 *2665:B1 *2649:B 6.23949e-05
10 *2665:B1 *2650:A 0.000223468
11 *2665:B1 *2655:A1 6.02123e-05
12 *2665:B1 *664:32 0.000128545
13 *2665:B1 *798:6 8.49205e-05
14 *2665:B1 *798:12 0.000118081
15 *2665:B1 *800:41 3.97409e-05
16 *2640:S *2658:B 8.23457e-05
17 *2655:A2 *2665:B1 0.000219125
18 *2656:B1 *2665:B1 0
19 *2658:A *2658:B 4.82863e-05
*RES
1 *2656:Y *162:4 1.6 
2 *162:4 *2658:B 8.315 
3 *162:4 *2665:B1 16.34 
*END

*D_NET *163 0.00383867
*CONN
*I *2632:S I *D sky130_fd_sc_hd__mux2_1
*I *2631:B I *D sky130_fd_sc_hd__xnor2_1
*I *2658:C_N I *D sky130_fd_sc_hd__or3b_1
*I *2657:X O *D sky130_fd_sc_hd__or3b_2
*CAP
1 *2632:S 0
2 *2631:B 0.000187218
3 *2658:C_N 3.66074e-05
4 *2657:X 0.000207152
5 *163:27 0.000663753
6 *163:8 0.000720294
7 *2631:B *2631:A 5.41152e-05
8 *2631:B *3274:CLK 0.000160658
9 *2631:B *322:24 0.000232105
10 *2631:B *603:8 2.75145e-05
11 *2631:B *779:59 6.64979e-05
12 *2658:C_N *3305:A 4.00541e-06
13 *2658:C_N *664:32 6.17614e-05
14 *163:8 *2659:A 0
15 *163:8 *2826:A 0.000178666
16 *163:8 *3305:A 1.43521e-05
17 *163:27 *2632:A0 4.82863e-05
18 *163:27 *2632:A1 0.000353831
19 *163:27 *3305:A 0.000135667
20 *163:27 *322:24 0.000383737
21 *2658:A *2658:C_N 5.75628e-05
22 *11:10 *163:8 0.000130913
23 *11:23 *163:8 9.68787e-05
24 *11:23 *163:27 1.70935e-05
*RES
1 *2657:X *163:8 8.55 
2 *163:8 *2658:C_N 4.755 
3 *163:8 *163:27 13.64 
4 *163:27 *2631:B 10.46 
5 *163:27 *2632:S 1.6 
*END

*D_NET *164 0.001248
*CONN
*I *2659:A I *D sky130_fd_sc_hd__clkbuf_1
*I *2658:X O *D sky130_fd_sc_hd__or3b_1
*CAP
1 *2659:A 0.000319777
2 *2658:X 0.000319777
3 *2659:A *2826:A 7.41263e-05
4 *2659:A *2826:D_N 0.000208149
5 *2659:A *3305:A 5.56629e-05
6 *2659:A *653:26 0
7 *2669:B *2659:A 0.000270505
8 *163:8 *2659:A 0
*RES
1 *2658:X *2659:A 14.415 
*END

*D_NET *165 0.000410634
*CONN
*I *2661:A I *D sky130_fd_sc_hd__clkbuf_1
*I *2660:X O *D sky130_fd_sc_hd__or2_1
*CAP
1 *2661:A 0.000120857
2 *2660:X 0.000120857
3 *2661:A *2813:A 8.8266e-05
4 *2661:A *698:14 3.23663e-05
5 *2661:A *785:32 4.82863e-05
*RES
1 *2660:X *2661:A 5.39 
*END

*D_NET *166 0.000835224
*CONN
*I *2663:A I *D sky130_fd_sc_hd__buf_1
*I *2662:X O *D sky130_fd_sc_hd__and3b_1
*CAP
1 *2663:A 0.000270991
2 *2662:X 0.000270991
3 *2663:A *2649:B 6.57653e-06
4 *2663:A *2662:B 0.000181285
5 *2663:A *2666:B1 0
6 *2663:A *800:31 4.77757e-05
7 *2637:A *2663:A 5.0876e-05
8 *10:10 *2663:A 6.72833e-06
*RES
1 *2662:X *2663:A 12.525 
*END

*D_NET *167 0.00210158
*CONN
*I *2860:A1 I *D sky130_fd_sc_hd__o21bai_1
*I *2665:A1 I *D sky130_fd_sc_hd__a211o_1
*I *2664:Y O *D sky130_fd_sc_hd__inv_2
*CAP
1 *2860:A1 1.17992e-05
2 *2665:A1 0.000435293
3 *2664:Y 0.000143267
4 *167:12 0.000590359
5 *2665:A1 *2666:B1 1.34618e-05
6 *2665:A1 *603:54 0
7 *2665:A1 *603:69 0
8 *167:12 *603:54 5.64507e-05
9 *2665:A2 *2665:A1 3.7837e-05
10 *2665:C1 *2665:A1 9.72897e-05
11 *2860:A2 *2665:A1 5.67847e-05
12 *2860:A2 *2860:A1 5.12969e-06
13 *3284:D *2665:A1 8.06305e-05
14 *3286:D *2665:A1 5.16418e-05
15 *3444:A *2665:A1 8.64421e-05
16 *3444:A *167:12 0.000147912
17 *10:10 *2665:A1 1.42807e-05
18 *11:57 *2665:A1 0.000273001
*RES
1 *2664:Y *167:12 8.465 
2 *167:12 *2665:A1 15.005 
3 *167:12 *2860:A1 1.96 
*END

*D_NET *168 0.00151126
*CONN
*I *2666:B1 I *D sky130_fd_sc_hd__a31o_1
*I *2665:X O *D sky130_fd_sc_hd__a211o_1
*CAP
1 *2666:B1 0.000521304
2 *2665:X 0.000521304
3 *2666:B1 *2649:B 3.28696e-05
4 *2666:B1 *2666:A1 6.2001e-05
5 *2666:B1 *3283:RESET_B 9.12857e-06
6 *2666:B1 *603:69 0.000285085
7 *2666:B1 *800:12 6.61069e-05
8 *2663:A *2666:B1 0
9 *2665:A1 *2666:B1 1.34618e-05
*RES
1 *2665:X *2666:B1 15.525 
*END

*D_NET *169 0.00024137
*CONN
*I *2668:A I *D sky130_fd_sc_hd__buf_1
*I *2667:X O *D sky130_fd_sc_hd__and3_1
*CAP
1 *2668:A 0.000120685
2 *2667:X 0.000120685
3 *2668:A *2646:S 0
4 *2668:A *322:24 0
*RES
1 *2667:X *2668:A 9.03 
*END

*D_NET *170 0.00100317
*CONN
*I *2670:A I *D sky130_fd_sc_hd__clkbuf_1
*I *2669:X O *D sky130_fd_sc_hd__and2_1
*CAP
1 *2670:A 0.000250552
2 *2669:X 0.000250552
3 *2670:A *3271:D 1.83847e-05
4 *2670:A *3282:D 8.38315e-05
5 *2670:A *3282:RESET_B 7.23533e-05
6 *2670:A *3305:A 0.000123225
7 *2670:A *653:26 0.000117809
8 *2669:B *2670:A 8.64599e-05
*RES
1 *2669:X *2670:A 13.32 
*END

*D_NET *171 0.00811646
*CONN
*I *2672:D I *D sky130_fd_sc_hd__nor4_2
*I *2697:D I *D sky130_fd_sc_hd__and4_4
*I *2681:C I *D sky130_fd_sc_hd__and4bb_4
*I *2682:D_N I *D sky130_fd_sc_hd__nor4b_1
*I *2702:B I *D sky130_fd_sc_hd__and4b_4
*I *2687:B_N I *D sky130_fd_sc_hd__and4bb_4
*I *2707:B_N I *D sky130_fd_sc_hd__and4bb_4
*I *2685:C I *D sky130_fd_sc_hd__nor4b_4
*I *2708:D I *D sky130_fd_sc_hd__and4bb_4
*I *2694:C I *D sky130_fd_sc_hd__nor4b_1
*I *2671:X O *D sky130_fd_sc_hd__clkbuf_4
*CAP
1 *2672:D 0.00012538
2 *2697:D 0
3 *2681:C 2.57644e-05
4 *2682:D_N 0
5 *2702:B 0.000118356
6 *2687:B_N 0
7 *2707:B_N 0
8 *2685:C 0.000105751
9 *2708:D 1.41866e-05
10 *2694:C 0
11 *2671:X 0
12 *171:83 0.000197509
13 *171:79 0.000230482
14 *171:52 0.000188303
15 *171:41 0.000239374
16 *171:39 0.000191139
17 *171:33 0.00021934
18 *171:29 0.000363069
19 *171:10 0.000652883
20 *171:4 0.000460465
21 *2672:D *3458:A 0.000134477
22 *2672:D *211:122 7.01715e-05
23 *2672:D *720:18 4.47209e-05
24 *2681:C *180:12 6.52265e-05
25 *2681:C *181:10 0.000123225
26 *2685:C *2685:A 8.77292e-05
27 *2685:C *2685:B 4.82863e-05
28 *2685:C *2918:A 4.66108e-05
29 *2685:C *212:56 0.000174555
30 *2702:B *2702:C 0.000284747
31 *2702:B *2702:D 4.66108e-05
32 *2702:B *3460:A 6.41285e-05
33 *2702:B *180:16 8.7152e-06
34 *2702:B *197:70 0.000160013
35 *2702:B *413:72 5.29788e-05
36 *2708:D *2708:C 8.65905e-05
37 *2708:D *208:18 8.65905e-05
38 *171:10 *2683:C 0.00010901
39 *171:10 *352:94 0.000120655
40 *171:10 *720:18 0.000148936
41 *171:10 *804:74 5.40995e-05
42 *171:29 *2672:B 5.11868e-05
43 *171:29 *2678:A 5.24964e-05
44 *171:29 *2683:C 4.91032e-05
45 *171:29 *2694:B 3.04704e-05
46 *171:29 *3461:A 4.66108e-05
47 *171:29 *3468:A 0.000344924
48 *171:29 *3469:A 8.52883e-05
49 *171:29 *179:24 5.03143e-05
50 *171:29 *197:16 0.0001249
51 *171:33 *187:10 0.000112445
52 *171:33 *197:16 9.0444e-05
53 *171:33 *356:49 7.21296e-06
54 *171:39 *2708:C 0
55 *171:39 *178:16 0
56 *171:39 *178:25 3.83194e-05
57 *171:39 *197:16 8.23457e-05
58 *171:41 *2708:B_N 0.000122325
59 *171:41 *2708:C 0.000256975
60 *171:41 *178:25 0.000295383
61 *171:41 *197:16 8.43862e-05
62 *171:41 *208:18 8.40269e-05
63 *171:41 *348:28 1.60203e-05
64 *171:52 *2685:A 8.73147e-06
65 *171:52 *2708:A_N 5.75134e-05
66 *171:52 *212:56 0.000176519
67 *171:52 *528:68 0
68 *171:79 *3307:A 9.70174e-05
69 *171:79 *187:10 2.23922e-05
70 *171:79 *356:49 7.80615e-05
71 *171:83 *2681:A_N 0.0001947
72 *171:83 *180:12 0.0002699
73 *171:83 *181:10 3.63661e-05
*RES
1 *2671:X *171:4 1.6 
2 *171:4 *171:10 6.935 
3 *171:10 *2694:C 3.6 
4 *171:10 *171:29 9.065 
5 *171:29 *171:33 3.38 
6 *171:33 *171:39 3.155 
7 *171:39 *171:41 4.935 
8 *171:41 *2708:D 2.395 
9 *171:41 *171:52 4.145 
10 *171:52 *2685:C 6.195 
11 *171:52 *2707:B_N 3.6 
12 *171:39 *2687:B_N 1.6 
13 *171:33 *171:79 4.655 
14 *171:79 *171:83 2.88 
15 *171:83 *2702:B 9.8 
16 *171:83 *2682:D_N 1.6 
17 *171:79 *2681:C 2.74 
18 *171:29 *2697:D 1.6 
19 *171:4 *2672:D 8.03 
*END

*D_NET *172 0.0132071
*CONN
*I *2750:A I *D sky130_fd_sc_hd__and2_1
*I *3470:A I *D sky130_fd_sc_hd__clkbuf_2
*I *3458:A I *D sky130_fd_sc_hd__buf_1
*I *2672:Y O *D sky130_fd_sc_hd__nor4_2
*CAP
1 *2750:A 0.0011065
2 *3470:A 0.000503057
3 *3458:A 9.17294e-05
4 *2672:Y 2.37428e-05
5 *172:27 0.00305349
6 *172:10 0.00155941
7 *2750:A *2752:A2 0.000194794
8 *2750:A *2752:A3 0.000121643
9 *2750:A *2791:C1 1.44259e-05
10 *2750:A *174:150 7.3151e-05
11 *2750:A *348:28 2.31466e-05
12 *2750:A *349:12 0.000639386
13 *2750:A *393:12 0
14 *2750:A *397:18 0
15 *2750:A *397:22 0.00102799
16 *2750:A *397:59 0.00016887
17 *2750:A *413:10 0
18 *2750:A *413:72 0
19 *2750:A *591:16 1.22505e-05
20 *3458:A *211:122 3.03222e-05
21 *3458:A *720:18 4.82863e-05
22 *3458:A *780:77 0.000160974
23 *3458:A *780:90 5.0533e-05
24 *3470:A *2930:A 0.00015053
25 *3470:A *2930:C 8.57024e-05
26 *3470:A *2930:D_N 3.59531e-06
27 *3470:A *3462:A 8.2126e-05
28 *3470:A *3468:A 8.82557e-05
29 *3470:A *207:28 6.60907e-06
30 *3470:A *322:85 0.000155995
31 *3470:A *348:44 0.000390557
32 *3470:A *413:10 0
33 *3470:A *620:12 0.000969538
34 *172:10 *179:8 4.66108e-05
35 *172:10 *211:122 3.63701e-06
36 *172:10 *780:90 1.79483e-05
37 *172:10 *806:60 2.49909e-05
38 *172:27 *187:16 0.000927588
39 *172:27 *187:124 0.00114369
40 *172:27 *409:34 0
41 *172:27 *591:26 3.43021e-05
42 *2672:D *3458:A 0.000134477
43 *3255:D *2750:A 3.72081e-05
*RES
1 *2672:Y *172:10 4.2825 
2 *172:10 *3458:A 6.5775 
3 *172:10 *172:27 4.1844 
4 *172:27 *3470:A 18.3825 
5 *172:27 *2750:A 30.1875 
*END

*D_NET *173 0.00240759
*CONN
*I *2771:C I *D sky130_fd_sc_hd__and3_1
*I *2674:A I *D sky130_fd_sc_hd__buf_2
*I *2673:Y O *D sky130_fd_sc_hd__nor2_1
*CAP
1 *2771:C 0.000316304
2 *2674:A 5.06137e-05
3 *2673:Y 0.000109403
4 *173:8 0.000476321
5 *2674:A *2673:A 0.00012657
6 *2674:A *2673:B 2.30292e-05
7 *2674:A *596:54 0.000112594
8 *2674:A *808:10 9.50342e-06
9 *2674:A *808:27 7.4027e-05
10 *2771:C *2676:B_N 4.82863e-05
11 *2771:C *2691:B 6.53201e-05
12 *2771:C *2731:A 4.66108e-05
13 *2771:C *2731:B 3.74161e-05
14 *2771:C *2771:A 7.22366e-05
15 *2771:C *596:54 6.10014e-05
16 *2771:C *807:21 1.07797e-05
17 *2771:C *807:23 0.000163199
18 *2771:C *808:27 8.59365e-05
19 *2771:C *808:31 0.000357793
20 *173:8 *2673:B 0.000160641
*RES
1 *2673:Y *173:8 5.085 
2 *173:8 *2674:A 5.61 
3 *173:8 *2771:C 11.55 
*END

*D_NET *174 0.0190549
*CONN
*I *2750:B I *D sky130_fd_sc_hd__and2_1
*I *2752:A3 I *D sky130_fd_sc_hd__a311o_1
*I *2739:B2 I *D sky130_fd_sc_hd__a32o_1
*I *2790:B2 I *D sky130_fd_sc_hd__a32o_1
*I *2721:B1 I *D sky130_fd_sc_hd__o21a_1
*I *2800:B1 I *D sky130_fd_sc_hd__o31a_1
*I *2748:B I *D sky130_fd_sc_hd__and3_1
*I *2776:B I *D sky130_fd_sc_hd__and3_1
*I *2675:B I *D sky130_fd_sc_hd__nand2_1
*I *2742:A3 I *D sky130_fd_sc_hd__a31o_1
*I *2674:X O *D sky130_fd_sc_hd__buf_2
*CAP
1 *2750:B 0
2 *2752:A3 5.87286e-05
3 *2739:B2 4.41496e-05
4 *2790:B2 0
5 *2721:B1 6.1501e-05
6 *2800:B1 9.16614e-05
7 *2748:B 8.50105e-05
8 *2776:B 7.79782e-05
9 *2675:B 0.00063492
10 *2742:A3 8.67971e-05
11 *2674:X 0.00061549
12 *174:150 0.000351466
13 *174:102 0.00104891
14 *174:92 0.00112612
15 *174:82 0.000424758
16 *174:80 0.00181855
17 *174:29 0.000782977
18 *174:27 0.000214189
19 *174:25 0.00151143
20 *174:10 0.000779037
21 *2675:B *2585:A1 3.00381e-05
22 *2675:B *2585:S 4.66826e-05
23 *2675:B *2587:A0 0.000342247
24 *2675:B *2587:S 7.8889e-05
25 *2675:B *2620:S 0.000406771
26 *2675:B *2622:S 8.53113e-06
27 *2675:B *2742:A1 5.99925e-05
28 *2675:B *316:166 0.000307425
29 *2675:B *327:64 4.77769e-05
30 *2675:B *605:35 4.37539e-05
31 *2675:B *605:109 6.70964e-05
32 *2675:B *609:53 0.000123874
33 *2721:B1 *316:82 0.000176388
34 *2721:B1 *374:45 0.000176388
35 *2739:B2 *2905:S 8.23457e-05
36 *2739:B2 *212:92 0.000118081
37 *2742:A3 *2742:B1 2.49909e-05
38 *2742:A3 *2753:A 0.00015639
39 *2742:A3 *631:20 6.79825e-05
40 *2748:B *2749:B1 1.08758e-05
41 *2748:B *684:71 4.66826e-05
42 *2752:A3 *2752:A2 4.21973e-05
43 *2752:A3 *2752:B1 0.000123592
44 *2776:B *2776:A 2.65814e-06
45 *2800:B1 *2800:A2 5.59676e-05
46 *2800:B1 *2800:A3 4.82919e-05
47 *2800:B1 *2811:A2 3.64998e-06
48 *2800:B1 *413:26 9.94984e-05
49 *174:10 *2673:A 8.65961e-05
50 *174:10 *2742:B1 5.83121e-06
51 *174:10 *2753:A 3.57349e-05
52 *174:10 *3269:D 4.82863e-05
53 *174:10 *3269:RESET_B 4.24575e-05
54 *174:10 *596:43 6.07575e-06
55 *174:10 *596:54 0.00027268
56 *174:25 *2742:A1 6.34101e-06
57 *174:25 *2753:A 5.16418e-05
58 *174:25 *596:43 0.000183043
59 *174:25 *609:53 0.000131366
60 *174:25 *631:20 3.74875e-06
61 *174:27 *2742:A1 7.07801e-05
62 *174:27 *609:53 0.000136877
63 *174:29 *2742:A1 0.000136413
64 *174:29 *609:53 0.000249935
65 *174:80 *2782:A1 1.58462e-05
66 *174:80 *2960:A_N 2.0514e-05
67 *174:80 *2960:B 3.03684e-05
68 *174:80 *2969:A0 3.64998e-06
69 *174:80 *2969:S 0.000334466
70 *174:80 *3171:CLK 2.45801e-05
71 *174:80 *3270:CLK 3.66286e-05
72 *174:80 *3407:A 8.80056e-05
73 *174:80 *417:10 0.000267325
74 *174:80 *596:33 0.000268737
75 *174:82 *2903:A1 0.000236692
76 *174:82 *2905:S 2.07184e-05
77 *174:82 *197:70 0.000463436
78 *174:92 *2602:A1 0
79 *174:92 *2790:A2 0
80 *174:92 *2790:B1 2.8185e-05
81 *174:92 *2905:S 0.000198658
82 *174:92 *197:70 0.000304618
83 *174:92 *379:8 0.000115464
84 *174:92 *560:22 9.11179e-05
85 *174:102 *2702:A_N 0.000120186
86 *174:102 *2811:A2 8.67385e-05
87 *174:102 *182:12 3.29936e-05
88 *174:102 *212:56 0.000847765
89 *174:102 *212:73 8.53113e-06
90 *174:102 *378:35 0.000185995
91 *174:102 *378:56 1.01661e-05
92 *174:102 *413:26 0.000210961
93 *174:102 *560:22 6.58995e-05
94 *174:150 *2740:C1 0
95 *174:150 *2752:A2 4.25093e-05
96 *174:150 *2903:A1 9.85147e-05
97 *174:150 *3171:CLK 0.000361833
98 *174:150 *197:70 0.000116853
99 *174:150 *349:160 1.47347e-05
100 *174:150 *378:56 1.7396e-05
101 *2750:A *2752:A3 0.000121643
102 *2750:A *174:150 7.3151e-05
103 *3170:D *174:150 9.50342e-06
*RES
1 *2674:X *174:10 10.105 
2 *174:10 *2742:A3 3.7 
3 *174:10 *174:25 4.76 
4 *174:25 *174:27 1.635 
5 *174:27 *174:29 2.91 
6 *174:29 *2675:B 22.54 
7 *174:29 *2776:B 4.395 
8 *174:27 *2748:B 5.115 
9 *174:25 *174:80 23.545 
10 *174:80 *174:82 5.46 
11 *174:82 *174:92 7.88 
12 *174:92 *174:102 23.395 
13 *174:102 *2800:B1 3.79 
14 *174:102 *2721:B1 7.745 
15 *174:92 *2790:B2 1.6 
16 *174:82 *2739:B2 4.74 
17 *174:80 *174:150 12 
18 *174:150 *2752:A3 3.43 
19 *174:150 *2750:B 1.6 
*END

*D_NET *175 0.00247624
*CONN
*I *2810:A2 I *D sky130_fd_sc_hd__o21a_1
*I *2755:A2 I *D sky130_fd_sc_hd__o221a_1
*I *2675:Y O *D sky130_fd_sc_hd__nand2_1
*CAP
1 *2810:A2 0.000250424
2 *2755:A2 7.53789e-05
3 *2675:Y 0.000109738
4 *175:6 0.000435541
5 *2755:A2 *2625:A1 3.93531e-05
6 *2755:A2 *695:6 4.89395e-05
7 *2810:A2 *2622:A0 8.53011e-05
8 *2810:A2 *2622:A1 8.52972e-05
9 *2810:A2 *2622:S 4.06592e-05
10 *2810:A2 *2623:A 8.73421e-05
11 *2810:A2 *2810:A1 0.000251054
12 *2810:A2 *327:33 3.63576e-05
13 *2810:A2 *605:33 7.18795e-06
14 *2810:A2 *609:12 2.98644e-05
15 *2810:A2 *609:53 0.000145857
16 *175:6 *2675:A 0.000423698
17 *175:6 *695:6 1.43558e-05
18 *3272:D *175:6 0.000309893
*RES
1 *2675:Y *175:6 5.5 
2 *175:6 *2755:A2 3.1 
3 *175:6 *2810:A2 12.11 
*END

*D_NET *176 0.0230695
*CONN
*I *2774:B I *D sky130_fd_sc_hd__and3_1
*I *2677:A I *D sky130_fd_sc_hd__clkbuf_4
*I *2700:B I *D sky130_fd_sc_hd__and3_1
*I *2763:B I *D sky130_fd_sc_hd__and3_1
*I *2777:B I *D sky130_fd_sc_hd__and3_1
*I *2762:A2 I *D sky130_fd_sc_hd__a311o_1
*I *2736:B I *D sky130_fd_sc_hd__and3_1
*I *2787:B I *D sky130_fd_sc_hd__and3_1
*I *2746:B I *D sky130_fd_sc_hd__and3_1
*I *2676:Y O *D sky130_fd_sc_hd__nor2b_2
*CAP
1 *2774:B 0
2 *2677:A 0
3 *2700:B 0.000271101
4 *2763:B 0.000325418
5 *2777:B 0.000193151
6 *2762:A2 0.0011536
7 *2736:B 2.0132e-05
8 *2787:B 0.000335561
9 *2746:B 0
10 *2676:Y 0.000560355
11 *176:111 0.00171357
12 *176:101 0.00152808
13 *176:84 0.000862666
14 *176:31 0.000594268
15 *176:29 0.00164353
16 *176:20 0.000979018
17 *176:18 0.0015811
18 *176:16 0.00115529
19 *2700:B *2701:B1 0.00021164
20 *2700:B *3183:CLK 3.62583e-06
21 *2700:B *428:12 0
22 *2700:B *428:22 9.67081e-06
23 *2700:B *446:12 1.37311e-05
24 *2700:B *598:44 9.3062e-06
25 *2762:A2 *2699:A3 4.61392e-05
26 *2762:A2 *2762:A1 0
27 *2762:A2 *2762:B1 3.26889e-05
28 *2762:A2 *2792:B1 6.59809e-05
29 *2762:A2 *2964:A1 0.000354243
30 *2762:A2 *2965:A 8.10907e-05
31 *2762:A2 *2980:B 0.000105002
32 *2762:A2 *3049:A 1.34361e-05
33 *2762:A2 *3082:S 0.000123861
34 *2762:A2 *3084:S 0.00021993
35 *2762:A2 *3169:CLK 0.000174971
36 *2762:A2 *3212:CLK 0.000144233
37 *2762:A2 *177:29 0.000201502
38 *2762:A2 *197:152 0.000259159
39 *2762:A2 *378:56 0
40 *2762:A2 *417:73 0.000147194
41 *2762:A2 *417:92 5.19173e-05
42 *2762:A2 *419:39 0.000184253
43 *2762:A2 *430:68 0.000365114
44 *2762:A2 *473:68 0.000103238
45 *2762:A2 *595:31 0.000123504
46 *2762:A2 *595:33 0.000107277
47 *2762:A2 *597:113 0.000345684
48 *2763:B *2763:A 9.28584e-06
49 *2763:B *428:22 0.000214917
50 *2763:B *446:12 8.29202e-05
51 *2777:B *2780:B 0.000192504
52 *2777:B *3049:A 4.40028e-05
53 *2787:B *2787:C 6.88204e-05
54 *2787:B *2792:D1 0.000219669
55 *2787:B *2811:A1 4.59884e-05
56 *2787:B *207:159 2.97511e-05
57 *2787:B *215:148 0.000193129
58 *2787:B *362:60 4.0776e-05
59 *176:16 *2691:B 8.89751e-05
60 *176:16 *2773:B 0.000158564
61 *176:16 *2773:C 1.28737e-05
62 *176:16 *2774:C 1.5868e-05
63 *176:16 *2775:C 1.54665e-05
64 *176:16 *2775:D 0.000264146
65 *176:16 *3057:S 0.000170796
66 *176:16 *191:14 4.40888e-05
67 *176:16 *596:54 0
68 *176:16 *596:65 0
69 *176:18 *2774:C 4.8783e-05
70 *176:18 *3002:A 3.16427e-06
71 *176:20 *2977:S 5.45002e-05
72 *176:20 *3002:A 8.50801e-06
73 *176:20 *3177:CLK 1.56428e-05
74 *176:20 *212:109 0.000120989
75 *176:20 *417:58 0.000119742
76 *176:20 *426:6 8.35719e-05
77 *176:29 *2973:B 2.69217e-05
78 *176:29 *417:58 5.85705e-05
79 *176:29 *426:6 0.000305068
80 *176:31 *2791:C1 0.000143903
81 *176:31 *2792:D1 1.14192e-05
82 *176:31 *2973:B 5.83121e-06
83 *176:31 *212:113 3.84244e-05
84 *176:84 *2988:A1 0.000366627
85 *176:84 *183:110 0.000595773
86 *176:101 *2705:C 5.60476e-05
87 *176:101 *2988:A1 0.000177665
88 *176:101 *3114:A 3.99395e-05
89 *176:101 *3294:A 5.83121e-06
90 *176:101 *177:16 2.97004e-06
91 *176:101 *183:110 0.000891634
92 *176:101 *355:98 6.0466e-05
93 *176:101 *355:125 0.000442776
94 *176:101 *591:162 5.12017e-06
95 *176:111 *177:16 1.92979e-05
96 *176:111 *193:26 0.00062873
97 *176:111 *355:125 1.03755e-05
98 *176:111 *720:49 0
99 *3177:D *176:18 0.000346601
100 *3183:D *2763:B 4.68386e-05
*RES
1 *2676:Y *176:16 16.235 
2 *176:16 *176:18 7.35 
3 *176:18 *176:20 8.73 
4 *176:20 *2746:B 1.6 
5 *176:20 *176:29 4.605 
6 *176:29 *176:31 3.9 
7 *176:31 *2787:B 11.045 
8 *176:31 *2736:B 1.96 
9 *176:29 *2762:A2 34.625 
10 *176:18 *176:84 10.055 
11 *176:84 *2777:B 6.12 
12 *176:84 *176:101 14.48 
13 *176:101 *176:111 5.42637 
14 *176:111 *2763:B 8.9925 
15 *176:111 *2700:B 9.1275 
16 *176:101 *2677:A 1.6 
17 *176:16 *2774:B 1.6 
*END

*D_NET *177 0.0181444
*CONN
*I *2744:A2 I *D sky130_fd_sc_hd__a311o_1
*I *2782:A2 I *D sky130_fd_sc_hd__a31o_1
*I *2747:A2 I *D sky130_fd_sc_hd__a31o_1
*I *2704:A2 I *D sky130_fd_sc_hd__a31o_1
*I *2769:A1 I *D sky130_fd_sc_hd__a22o_1
*I *2766:A2 I *D sky130_fd_sc_hd__a31o_1
*I *2722:A1 I *D sky130_fd_sc_hd__a2111o_1
*I *2710:B2 I *D sky130_fd_sc_hd__a22o_1
*I *2792:A1 I *D sky130_fd_sc_hd__a2111o_1
*I *2699:A2 I *D sky130_fd_sc_hd__a31o_1
*I *2677:X O *D sky130_fd_sc_hd__clkbuf_4
*CAP
1 *2744:A2 0.000284984
2 *2782:A2 0.000187499
3 *2747:A2 0.000375922
4 *2704:A2 6.08948e-05
5 *2769:A1 1.49415e-05
6 *2766:A2 8.9229e-05
7 *2722:A1 0.00019355
8 *2710:B2 0
9 *2792:A1 0.00076586
10 *2699:A2 0
11 *2677:X 0.000563301
12 *177:137 0.000649224
13 *177:135 0.00163452
14 *177:45 0.000915802
15 *177:39 0.000441712
16 *177:37 0.000206619
17 *177:33 0.000196058
18 *177:29 0.000806302
19 *177:20 0.000785173
20 *177:16 0.00202874
21 *2704:A2 *2770:C 3.86529e-05
22 *2704:A2 *202:121 0
23 *2704:A2 *419:39 0.000113373
24 *2722:A1 *2722:B1 0.000194694
25 *2722:A1 *885:10 3.09088e-05
26 *2744:A2 *2744:A3 3.4853e-05
27 *2744:A2 *2749:B1 0.000513481
28 *2744:A2 *2783:D 8.40269e-05
29 *2744:A2 *2986:A0 0.000265271
30 *2747:A2 *2749:A3 2.8585e-06
31 *2747:A2 *2749:B1 0.000265375
32 *2747:A2 *2753:B 1.83847e-05
33 *2747:A2 *2974:S 3.83895e-05
34 *2766:A2 *2766:A1 8.7152e-06
35 *2766:A2 *202:121 0.00013646
36 *2766:A2 *397:59 0
37 *2769:A1 *2769:B2 1.37328e-05
38 *2782:A2 *2749:A3 0
39 *2782:A2 *2749:B1 9.43331e-06
40 *2782:A2 *2753:C 5.53249e-06
41 *2782:A2 *2754:A 1.16465e-05
42 *2782:A2 *2754:D 0.000110411
43 *2782:A2 *2782:A1 0.000121234
44 *2782:A2 *2782:B1 7.96104e-06
45 *2782:A2 *2986:A1 0
46 *2792:A1 *2710:B1 0.000203547
47 *2792:A1 *2736:A 0.00013031
48 *2792:A1 *2755:B1 0.000183043
49 *2792:A1 *2792:B1 0
50 *2792:A1 *2962:A 0.000112123
51 *2792:A1 *2963:A 2.92838e-05
52 *2792:A1 *2981:A1 5.83121e-06
53 *2792:A1 *3181:CLK 2.76356e-05
54 *2792:A1 *3368:A 3.93748e-05
55 *2792:A1 *193:44 2.97004e-06
56 *2792:A1 *207:159 3.84409e-05
57 *2792:A1 *208:154 7.18452e-06
58 *2792:A1 *322:104 0.000238689
59 *2792:A1 *397:59 0.00108055
60 *2792:A1 *419:10 2.37234e-05
61 *2792:A1 *430:68 0.000122331
62 *2792:A1 *881:10 7.81954e-05
63 *177:16 *2696:A1 0.000137571
64 *177:16 *2699:B1 3.64998e-06
65 *177:16 *192:63 0.000127011
66 *177:16 *355:125 0.00028118
67 *177:16 *598:12 5.58369e-05
68 *177:16 *598:16 6.07588e-05
69 *177:20 *2699:B1 4.82299e-05
70 *177:20 *2762:A1 3.26889e-05
71 *177:20 *2762:C1 0
72 *177:29 *2699:A3 3.32402e-05
73 *177:29 *2762:A1 7.11235e-06
74 *177:29 *2762:B1 2.78553e-05
75 *177:29 *2762:C1 4.77757e-05
76 *177:33 *2769:A2 0.000197352
77 *177:33 *202:121 1.16578e-05
78 *177:37 *2769:B1 5.83121e-06
79 *177:37 *202:121 4.82919e-05
80 *177:39 *2770:C 0
81 *177:39 *2770:D 0
82 *177:39 *3333:A 4.11198e-05
83 *177:39 *397:59 0
84 *177:45 *2755:B1 0.000138551
85 *177:45 *2767:B2 7.26619e-05
86 *177:45 *2769:A2 0
87 *177:45 *2770:C 0
88 *177:45 *3333:A 2.75707e-05
89 *177:45 *193:44 1.14559e-05
90 *177:135 *2699:A1 0
91 *177:135 *2754:A 0
92 *177:135 *2754:D 4.70326e-05
93 *177:135 *2777:C 0.000147537
94 *177:135 *2782:A3 9.86611e-05
95 *177:135 *2966:A0 0.000241856
96 *177:135 *2966:A1 0.000495274
97 *177:135 *2977:A1 0.000417542
98 *177:135 *3396:A 3.56649e-05
99 *177:135 *3445:A 0
100 *177:135 *181:35 0
101 *177:135 *372:10 5.21046e-05
102 *177:135 *417:50 0
103 *177:135 *591:162 0
104 *177:135 *598:8 9.23395e-05
105 *177:137 *2749:B1 0.000110665
106 *2762:A2 *177:29 0.000201502
107 *3214:D *177:16 0.000123503
108 *3225:D *177:135 9.21064e-05
109 *176:101 *177:16 2.97004e-06
110 *176:111 *177:16 1.92979e-05
*RES
1 *2677:X *177:16 14.93 
2 *177:16 *177:20 2.7 
3 *177:20 *2699:A2 1.6 
4 *177:20 *177:29 7.275 
5 *177:29 *177:33 3.135 
6 *177:33 *177:37 2.45 
7 *177:37 *177:39 1.635 
8 *177:39 *177:45 3.465 
9 *177:45 *2792:A1 31.625 
10 *177:45 *2710:B2 3.6 
11 *177:39 *2722:A1 6.12 
12 *177:37 *2766:A2 5.49 
13 *177:33 *2769:A1 1.96 
14 *177:29 *2704:A2 6.98 
15 *177:16 *177:135 30.46 
16 *177:135 *177:137 1.14 
17 *177:137 *2747:A2 6.46 
18 *177:137 *2782:A2 8.735 
19 *177:135 *2744:A2 8.035 
*END

*D_NET *178 0.00800126
*CONN
*I *2694:B I *D sky130_fd_sc_hd__nor4b_1
*I *2683:D I *D sky130_fd_sc_hd__and4bb_4
*I *2702:D I *D sky130_fd_sc_hd__and4b_4
*I *2681:A_N I *D sky130_fd_sc_hd__and4bb_4
*I *2682:B I *D sky130_fd_sc_hd__nor4b_1
*I *2697:B I *D sky130_fd_sc_hd__and4_4
*I *2707:D I *D sky130_fd_sc_hd__and4bb_4
*I *2685:D_N I *D sky130_fd_sc_hd__nor4b_4
*I *2708:B_N I *D sky130_fd_sc_hd__and4bb_4
*I *2687:D I *D sky130_fd_sc_hd__and4bb_4
*I *2678:X O *D sky130_fd_sc_hd__buf_2
*CAP
1 *2694:B 0.000119653
2 *2683:D 0.0001092
3 *2702:D 0.000106214
4 *2681:A_N 0.000118298
5 *2682:B 0
6 *2697:B 9.46017e-05
7 *2707:D 0
8 *2685:D_N 0.000126101
9 *2708:B_N 2.46542e-05
10 *2687:D 0
11 *2678:X 0
12 *178:75 0.000161006
13 *178:69 0.000245678
14 *178:53 9.46017e-05
15 *178:40 0.000233343
16 *178:34 0.000203999
17 *178:25 0.000159524
18 *178:16 0.000183325
19 *178:12 0.000272631
20 *178:4 0.000234629
21 *2681:A_N *179:119 1.47256e-05
22 *2681:A_N *180:12 2.01565e-05
23 *2681:A_N *181:10 4.82863e-05
24 *2683:D *3459:A 0.000167431
25 *2683:D *180:79 0.000194891
26 *2683:D *356:49 0.0003723
27 *2685:D_N *2685:B 0.000242183
28 *2685:D_N *2918:A 0.000159327
29 *2685:D_N *2918:B 4.92861e-05
30 *2685:D_N *2918:D_N 6.73895e-05
31 *2685:D_N *378:35 7.73189e-05
32 *2694:B *2672:B 6.90034e-05
33 *2694:B *2678:A 0.000232584
34 *2694:B *179:16 0.000156017
35 *2694:B *179:24 0.000269101
36 *2697:B *3468:A 0.000346869
37 *2697:B *179:26 0.000306259
38 *2697:B *180:28 2.81948e-05
39 *2702:D *2702:A_N 1.16578e-05
40 *2702:D *2702:C 7.87231e-05
41 *2702:D *2796:A2 4.82863e-05
42 *2702:D *3460:A 7.14699e-05
43 *2702:D *378:35 0.000125025
44 *2708:B_N *348:28 0.000122325
45 *178:12 *2678:A 1.67131e-05
46 *178:12 *3459:A 0
47 *178:12 *179:24 3.09774e-05
48 *178:12 *389:12 0.000131729
49 *178:16 *180:72 1.93437e-05
50 *178:16 *180:79 8.40213e-05
51 *178:16 *356:49 0.000120655
52 *178:25 *180:72 0.000451297
53 *178:25 *197:16 1.19928e-05
54 *178:25 *348:28 6.29663e-05
55 *178:40 *2685:B 8.7152e-06
56 *178:40 *2708:C 8.92814e-05
57 *178:40 *180:20 3.31204e-05
58 *178:40 *378:35 0.000119866
59 *178:69 *2702:C 2.36272e-05
60 *178:69 *180:16 6.61631e-05
61 *178:69 *180:20 1.52184e-05
62 *178:69 *378:35 0.00019425
63 *178:75 *2702:A_N 5.83121e-06
64 *178:75 *179:119 7.68414e-06
65 *178:75 *182:12 1.37328e-05
66 *2702:B *2702:D 4.66108e-05
67 *171:29 *2694:B 3.04704e-05
68 *171:39 *178:16 0
69 *171:39 *178:25 3.83194e-05
70 *171:41 *2708:B_N 0.000122325
71 *171:41 *178:25 0.000295383
72 *171:83 *2681:A_N 0.0001947
*RES
1 *2678:X *178:4 1.6 
2 *178:4 *178:12 6.25 
3 *178:12 *178:16 1.5 
4 *178:16 *2687:D 1.6 
5 *178:16 *178:25 4.95 
6 *178:25 *2708:B_N 2.74 
7 *178:25 *178:34 2 
8 *178:34 *178:40 2.7 
9 *178:40 *2685:D_N 7.485 
10 *178:40 *178:53 2 
11 *178:53 *2707:D 1.6 
12 *178:53 *2697:B 5.17 
13 *178:34 *178:69 2.4 
14 *178:69 *178:75 2.81 
15 *178:75 *2682:B 1.6 
16 *178:75 *2681:A_N 4.12 
17 *178:69 *2702:D 6.375 
18 *178:12 *2683:D 5.965 
19 *178:4 *2694:B 5.9725 
*END

*D_NET *179 0.0114314
*CONN
*I *2681:B_N I *D sky130_fd_sc_hd__and4bb_4
*I *2682:C I *D sky130_fd_sc_hd__nor4b_1
*I *2702:A_N I *D sky130_fd_sc_hd__and4b_4
*I *2687:A_N I *D sky130_fd_sc_hd__and4bb_4
*I *2683:B_N I *D sky130_fd_sc_hd__and4bb_4
*I *2718:B I *D sky130_fd_sc_hd__and4b_4
*I *2697:C I *D sky130_fd_sc_hd__and4_4
*I *2707:C I *D sky130_fd_sc_hd__and4bb_4
*I *2708:C I *D sky130_fd_sc_hd__and4bb_4
*I *2685:B I *D sky130_fd_sc_hd__nor4b_4
*I *2679:X O *D sky130_fd_sc_hd__clkbuf_4
*CAP
1 *2681:B_N 0
2 *2682:C 0
3 *2702:A_N 0.000245566
4 *2687:A_N 5.33219e-05
5 *2683:B_N 0
6 *2718:B 5.21525e-05
7 *2697:C 0
8 *2707:C 0
9 *2708:C 0.000299925
10 *2685:B 0.000219818
11 *2679:X 0.000320664
12 *179:119 0.000830234
13 *179:113 0.000751407
14 *179:96 0.000328647
15 *179:81 0.000159252
16 *179:28 0.000519743
17 *179:26 8.39364e-05
18 *179:24 0.000443771
19 *179:16 0.000744591
20 *179:8 0.000703933
21 *2685:B *2918:A 9.90691e-05
22 *2685:B *2918:B 1.15688e-05
23 *2685:B *2918:D_N 0.00027209
24 *2685:B *180:20 1.23268e-05
25 *2685:B *197:42 0
26 *2685:B *409:12 0
27 *2687:A_N *3459:A 0.00012182
28 *2687:A_N *180:72 0
29 *2687:A_N *180:79 2.10152e-05
30 *2687:A_N *348:28 0.000160115
31 *2702:A_N *2702:C 3.18332e-05
32 *2702:A_N *2796:A2 0.000175312
33 *2702:A_N *182:12 7.4027e-05
34 *2702:A_N *202:16 3.32489e-05
35 *2702:A_N *212:56 1.0129e-05
36 *2702:A_N *378:35 3.70011e-05
37 *2708:C *2708:A_N 4.82863e-05
38 *2708:C *180:20 8.547e-05
39 *2708:C *208:18 2.30292e-05
40 *2718:B *2718:D 0.000133085
41 *2718:B *186:10 1.01661e-05
42 *2718:B *804:74 0.000154551
43 *179:8 *2672:B 8.40269e-05
44 *179:8 *2694:D_N 4.01778e-05
45 *179:8 *806:58 1.83756e-05
46 *179:8 *806:60 5.66904e-05
47 *179:16 *2672:A 1.34594e-05
48 *179:16 *2672:B 5.88588e-06
49 *179:16 *2680:A 0
50 *179:16 *2694:D_N 7.60965e-05
51 *179:16 *218:152 8.92435e-05
52 *179:24 *3468:A 9.80943e-06
53 *179:24 *197:16 0.00012657
54 *179:24 *720:18 2.75145e-05
55 *179:26 *2697:A 4.82919e-05
56 *179:26 *3468:A 1.91597e-05
57 *179:26 *180:28 8.49205e-05
58 *179:26 *180:54 0.000119866
59 *179:26 *720:18 3.94429e-05
60 *179:81 *2680:A 0
61 *179:81 *218:152 9.30787e-05
62 *179:96 *2680:A 0
63 *179:96 *3459:A 0.000244623
64 *179:96 *183:10 5.27306e-05
65 *179:96 *218:152 5.33085e-05
66 *179:96 *348:28 0.000346433
67 *179:113 *3469:A 0.000133085
68 *179:113 *180:6 8.77516e-05
69 *179:119 *180:6 6.56373e-05
70 *179:119 *180:12 0.000472737
71 *2681:A_N *179:119 1.47256e-05
72 *2685:C *2685:B 4.82863e-05
73 *2685:D_N *2685:B 0.000242183
74 *2694:B *179:16 0.000156017
75 *2694:B *179:24 0.000269101
76 *2697:B *179:26 0.000306259
77 *2702:D *2702:A_N 1.16578e-05
78 *2708:D *2708:C 8.65905e-05
79 *171:29 *179:24 5.03143e-05
80 *171:39 *2708:C 0
81 *171:41 *2708:C 0.000256975
82 *172:10 *179:8 4.66108e-05
83 *174:102 *2702:A_N 0.000120186
84 *178:12 *179:24 3.09774e-05
85 *178:40 *2685:B 8.7152e-06
86 *178:40 *2708:C 8.92814e-05
87 *178:75 *2702:A_N 5.83121e-06
88 *178:75 *179:119 7.68414e-06
*RES
1 *2679:X *179:8 7.5 
2 *179:8 *179:16 6.695 
3 *179:16 *179:24 6.015 
4 *179:24 *179:26 3.21 
5 *179:26 *179:28 2 
6 *179:28 *2685:B 9.135 
7 *179:28 *2708:C 9.45 
8 *179:26 *2707:C 1.6 
9 *179:24 *2697:C 1.6 
10 *179:16 *2718:B 7.49 
11 *179:8 *179:81 1.125 
12 *179:81 *2683:B_N 3.6 
13 *179:81 *179:96 6.185 
14 *179:96 *2687:A_N 3.445 
15 *179:96 *179:113 7.12 
16 *179:113 *179:119 7.89 
17 *179:119 *2702:A_N 11.03 
18 *179:119 *2682:C 1.6 
19 *179:113 *2681:B_N 1.6 
*END

*D_NET *180 0.00882444
*CONN
*I *2681:D I *D sky130_fd_sc_hd__and4bb_4
*I *2682:A I *D sky130_fd_sc_hd__nor4b_1
*I *2702:C I *D sky130_fd_sc_hd__and4b_4
*I *2683:A_N I *D sky130_fd_sc_hd__and4bb_4
*I *2718:D I *D sky130_fd_sc_hd__and4b_4
*I *2687:C I *D sky130_fd_sc_hd__and4bb_4
*I *2697:A I *D sky130_fd_sc_hd__and4_4
*I *2707:A_N I *D sky130_fd_sc_hd__and4bb_4
*I *2708:A_N I *D sky130_fd_sc_hd__and4bb_4
*I *2685:A I *D sky130_fd_sc_hd__nor4b_4
*I *2680:X O *D sky130_fd_sc_hd__clkbuf_4
*CAP
1 *2681:D 0
2 *2682:A 0
3 *2702:C 0.000213657
4 *2683:A_N 0
5 *2718:D 0.000245711
6 *2687:C 0
7 *2697:A 9.47958e-06
8 *2707:A_N 0
9 *2708:A_N 0.00026508
10 *2685:A 0.000178432
11 *2680:X 8.30314e-05
12 *180:79 0.000313879
13 *180:72 0.000187533
14 *180:54 4.1442e-05
15 *180:28 0.0005676
16 *180:20 0.000285272
17 *180:16 0.000329811
18 *180:14 0.00029488
19 *180:12 0.000149308
20 *180:6 0.00023234
21 *2685:A *2918:A 1.92187e-05
22 *2685:A *2918:D_N 6.58423e-05
23 *2685:A *318:99 7.37227e-05
24 *2685:A *528:68 8.26546e-05
25 *2697:A *720:18 2.16917e-05
26 *2702:C *413:72 1.27656e-05
27 *2708:A_N *208:18 7.25441e-05
28 *2708:A_N *348:44 0
29 *2708:A_N *528:68 5.45736e-05
30 *2718:D *3459:A 0.000153584
31 *2718:D *3469:A 0.000131881
32 *2718:D *186:10 0.000123401
33 *2718:D *720:18 0.000119246
34 *2718:D *804:68 4.78613e-05
35 *2718:D *804:74 1.60459e-05
36 *180:6 *181:10 0.000160211
37 *180:12 *181:10 9.80943e-06
38 *180:16 *197:70 6.26978e-05
39 *180:20 *197:42 6.54714e-05
40 *180:20 *197:70 4.65565e-05
41 *180:28 *3468:A 0.000226192
42 *180:28 *207:28 9.11681e-05
43 *180:28 *720:18 0.000128719
44 *180:54 *720:18 6.13115e-05
45 *180:72 *348:28 0.000456024
46 *180:79 *3459:A 4.66108e-05
47 *180:79 *348:28 6.86357e-05
48 *2681:A_N *180:12 2.01565e-05
49 *2681:C *180:12 6.52265e-05
50 *2683:D *180:79 0.000194891
51 *2685:B *180:20 1.23268e-05
52 *2685:C *2685:A 8.77292e-05
53 *2687:A_N *180:72 0
54 *2687:A_N *180:79 2.10152e-05
55 *2697:B *180:28 2.81948e-05
56 *2702:A_N *2702:C 3.18332e-05
57 *2702:B *2702:C 0.000284747
58 *2702:B *180:16 8.7152e-06
59 *2702:D *2702:C 7.87231e-05
60 *2708:C *2708:A_N 4.82863e-05
61 *2708:C *180:20 8.547e-05
62 *2718:B *2718:D 0.000133085
63 *171:52 *2685:A 8.73147e-06
64 *171:52 *2708:A_N 5.75134e-05
65 *171:83 *180:12 0.0002699
66 *178:16 *180:72 1.93437e-05
67 *178:16 *180:79 8.40213e-05
68 *178:25 *180:72 0.000451297
69 *178:40 *180:20 3.31204e-05
70 *178:69 *2702:C 2.36272e-05
71 *178:69 *180:16 6.61631e-05
72 *178:69 *180:20 1.52184e-05
73 *179:26 *2697:A 4.82919e-05
74 *179:26 *180:28 8.49205e-05
75 *179:26 *180:54 0.000119866
76 *179:113 *180:6 8.77516e-05
77 *179:119 *180:6 6.56373e-05
78 *179:119 *180:12 0.000472737
*RES
1 *2680:X *180:6 4.12 
2 *180:6 *180:12 5.22 
3 *180:12 *180:14 2 
4 *180:14 *180:16 1.635 
5 *180:16 *180:20 4.655 
6 *180:20 *180:28 6.02 
7 *180:28 *2685:A 7.14 
8 *180:28 *2708:A_N 7.77 
9 *180:20 *180:54 1.14 
10 *180:54 *2707:A_N 1.6 
11 *180:54 *2697:A 2.05 
12 *180:16 *180:72 6.86 
13 *180:72 *2687:C 1.6 
14 *180:72 *180:79 2.52 
15 *180:79 *2718:D 11.48 
16 *180:79 *2683:A_N 1.6 
17 *180:14 *2702:C 7.695 
18 *180:12 *2682:A 1.6 
19 *180:6 *2681:D 1.6 
*END

*D_NET *181 0.0290569
*CONN
*I *2725:A2 I *D sky130_fd_sc_hd__a22o_1
*I *2805:A2 I *D sky130_fd_sc_hd__a22o_1
*I *2789:A2 I *D sky130_fd_sc_hd__a22o_1
*I *2690:A2 I *D sky130_fd_sc_hd__a211o_1
*I *2756:A2 I *D sky130_fd_sc_hd__a22o_1
*I *2698:B I *D sky130_fd_sc_hd__and3_1
*I *2760:B I *D sky130_fd_sc_hd__and3_1
*I *2738:A2 I *D sky130_fd_sc_hd__a22o_1
*I *2681:X O *D sky130_fd_sc_hd__and4bb_4
*CAP
1 *2725:A2 0.000182743
2 *2805:A2 2.12116e-05
3 *2789:A2 7.22334e-05
4 *2690:A2 0
5 *2756:A2 0.000159332
6 *2698:B 3.75508e-05
7 *2760:B 0.000130074
8 *2738:A2 5.39647e-05
9 *2681:X 0.000583062
10 *181:106 0.00338888
11 *181:69 0.00156833
12 *181:37 0.000167625
13 *181:35 0.00310282
14 *181:20 0.00181205
15 *181:16 0.000290827
16 *181:10 0.00392232
17 *2698:B *2762:C1 1.91597e-05
18 *2725:A2 *2725:B1 0.000122177
19 *2725:A2 *2805:A1 0.00013661
20 *2725:A2 *187:83 7.44453e-05
21 *2725:A2 *372:61 2.75145e-05
22 *2725:A2 *372:78 0
23 *2725:A2 *394:16 1.76774e-05
24 *2725:A2 *606:49 4.82863e-05
25 *2725:A2 *681:18 6.63219e-06
26 *2738:A2 *2738:B1 4.82863e-05
27 *2738:A2 *212:92 8.58063e-05
28 *2756:A2 *2756:A1 1.24356e-05
29 *2756:A2 *2756:B1 0.000130669
30 *2756:A2 *2756:B2 8.74345e-06
31 *2756:A2 *452:16 8.61121e-06
32 *2760:B *2762:C1 8.247e-05
33 *2789:A2 *2789:A1 4.99619e-05
34 *2789:A2 *2790:B1 6.60324e-05
35 *2789:A2 *3447:A 8.696e-05
36 *2789:A2 *321:16 0.000180757
37 *2805:A2 *2805:A1 4.82863e-05
38 *181:10 *3307:A 0.000619582
39 *181:10 *327:81 0.00011277
40 *181:10 *327:91 5.91496e-05
41 *181:10 *409:84 0.000673679
42 *181:10 *682:12 7.90546e-05
43 *181:16 *2790:B1 5.83121e-06
44 *181:16 *3418:A 2.75229e-05
45 *181:16 *321:16 5.92381e-05
46 *181:16 *919:14 0
47 *181:20 *2738:A1 7.81876e-05
48 *181:20 *2755:B2 8.08153e-06
49 *181:20 *356:49 8.5225e-05
50 *181:35 *2698:A 9.50963e-05
51 *181:35 *2699:A3 3.06212e-05
52 *181:35 *2705:B 0.000183043
53 *181:35 *2705:C 0
54 *181:35 *2705:D 0
55 *181:35 *2749:A1 9.15067e-05
56 *181:35 *2754:A 0.000144233
57 *181:35 *2755:B2 4.24292e-06
58 *181:35 *2762:A1 0.000110683
59 *181:35 *2762:C1 9.56458e-05
60 *181:35 *2782:A1 0.000262417
61 *181:35 *2782:B1 1.00941e-05
62 *181:35 *2966:A1 0
63 *181:35 *2971:S 0
64 *181:35 *2977:S 0.00032187
65 *181:35 *2987:A 0
66 *181:35 *3388:A 1.82571e-05
67 *181:35 *3435:A 0
68 *181:35 *3445:A 0.000123759
69 *181:35 *212:92 0.000846523
70 *181:35 *212:109 0.000343561
71 *181:35 *348:101 6.52906e-05
72 *181:35 *348:128 0.000231173
73 *181:35 *356:49 0.000169242
74 *181:35 *423:8 0
75 *181:35 *475:35 0.000109159
76 *181:35 *475:91 0.000195322
77 *181:35 *891:8 0.000308047
78 *181:69 *2690:A1 0.000381856
79 *181:69 *2698:A 8.09264e-05
80 *181:69 *2722:A2 1.19756e-05
81 *181:69 *3013:A 6.67565e-05
82 *181:69 *183:143 0.000780992
83 *181:69 *348:145 0.000181466
84 *181:69 *475:91 8.9257e-05
85 *181:69 *500:69 0.000245606
86 *181:69 *753:45 0.000976626
87 *181:69 *833:8 0.000378333
88 *181:106 *2803:B1 0.000447147
89 *181:106 *2806:C1 0.000152503
90 *181:106 *2919:B 0
91 *181:106 *2925:B 0.000944663
92 *181:106 *3307:A 8.86009e-05
93 *181:106 *183:52 0.000657138
94 *181:106 *187:83 0
95 *181:106 *327:91 0
96 *181:106 *372:78 0
97 *181:106 *393:31 1.81196e-05
98 *181:106 *394:16 2.0851e-06
99 *181:106 *681:18 0.000132195
100 *181:106 *682:12 8.49357e-05
101 *2681:A_N *181:10 4.82863e-05
102 *2681:C *181:10 0.000123225
103 *3173:D *181:35 0.000472964
104 *3223:D *181:69 0.000162223
105 *3225:D *181:35 0
106 *171:83 *181:10 3.63661e-05
107 *177:135 *181:35 0
108 *180:6 *181:10 0.000160211
109 *180:12 *181:10 9.80943e-06
*RES
1 *2681:X *181:10 19.335 
2 *181:10 *181:16 4.535 
3 *181:16 *181:20 3.89 
4 *181:20 *2738:A2 4.74 
5 *181:20 *181:35 42.225 
6 *181:35 *181:37 2 
7 *181:37 *2760:B 3.085 
8 *181:37 *2698:B 2.05 
9 *181:35 *181:69 31.085 
10 *181:69 *2756:A2 8.135 
11 *181:69 *2690:A2 1.6 
12 *181:16 *2789:A2 4.465 
13 *181:10 *181:106 12.6333 
14 *181:106 *2805:A2 4.05 
15 *181:106 *2725:A2 8.235 
*END

*D_NET *182 0.00279739
*CONN
*I *3460:A I *D sky130_fd_sc_hd__dlymetal6s2s_1
*I *2796:A2 I *D sky130_fd_sc_hd__a21o_1
*I *2682:Y O *D sky130_fd_sc_hd__nor4b_1
*CAP
1 *3460:A 3.24039e-05
2 *2796:A2 0.000384735
3 *2682:Y 0.000100729
4 *182:12 0.000517868
5 *2796:A2 *2796:A1 7.37256e-05
6 *2796:A2 *202:16 0.000280633
7 *2796:A2 *413:72 0.000636237
8 *3460:A *413:72 0.000158553
9 *182:12 *378:35 0.000132552
10 *2702:A_N *2796:A2 0.000175312
11 *2702:A_N *182:12 7.4027e-05
12 *2702:B *3460:A 6.41285e-05
13 *2702:D *2796:A2 4.82863e-05
14 *2702:D *3460:A 7.14699e-05
15 *174:102 *182:12 3.29936e-05
16 *178:75 *182:12 1.37328e-05
*RES
1 *2682:Y *182:12 7.85 
2 *182:12 *2796:A2 11.725 
3 *182:12 *3460:A 3.085 
*END

*D_NET *183 0.0319943
*CONN
*I *2761:B I *D sky130_fd_sc_hd__and3_1
*I *2756:B1 I *D sky130_fd_sc_hd__a22o_1
*I *2684:B1 I *D sky130_fd_sc_hd__a22o_1
*I *2696:A2 I *D sky130_fd_sc_hd__a31o_1
*I *2803:A2 I *D sky130_fd_sc_hd__a22o_1
*I *2727:A2 I *D sky130_fd_sc_hd__a22o_1
*I *2738:B1 I *D sky130_fd_sc_hd__a22o_1
*I *2789:B1 I *D sky130_fd_sc_hd__a22o_1
*I *2683:X O *D sky130_fd_sc_hd__and4bb_4
*CAP
1 *2761:B 0
2 *2756:B1 0.000176162
3 *2684:B1 0.000478434
4 *2696:A2 0
5 *2803:A2 8.2003e-05
6 *2727:A2 0.000550703
7 *2738:B1 0.000237645
8 *2789:B1 0.000159145
9 *2683:X 0.00057738
10 *183:143 0.00234191
11 *183:123 0.0021843
12 *183:110 0.00218291
13 *183:52 0.00257833
14 *183:27 0.00230239
15 *183:23 0.00188074
16 *183:10 0.000812224
17 *2684:B1 *2684:B2 8.33066e-06
18 *2684:B1 *2759:B1 0.000132827
19 *2684:B1 *3016:A1 4.43394e-05
20 *2684:B1 *3023:A 0.000144047
21 *2684:B1 *3095:A 1.83756e-05
22 *2727:A2 *2727:A1 4.6075e-05
23 *2727:A2 *2732:A1 0.000463428
24 *2727:A2 *2803:B1 4.3603e-05
25 *2727:A2 *2809:B1 0.000512879
26 *2727:A2 *2811:A3 2.21074e-05
27 *2727:A2 *3155:CLK 0.000119485
28 *2727:A2 *202:53 5.85626e-05
29 *2727:A2 *320:64 4.07115e-05
30 *2738:B1 *2738:B2 0.000383942
31 *2756:B1 *2756:B2 5.01076e-05
32 *2756:B1 *3018:A 0
33 *2789:B1 *321:16 0.000161467
34 *2803:A2 *2803:A1 0.000136143
35 *2803:A2 *2803:B1 5.51574e-05
36 *2803:A2 *320:64 1.7309e-05
37 *2803:A2 *343:51 0
38 *183:10 *2596:A 9.87538e-05
39 *183:10 *2597:S 0.000237879
40 *183:10 *2680:A 9.86532e-05
41 *183:10 *3459:A 4.99619e-05
42 *183:10 *3469:A 0
43 *183:10 *211:122 0.000449292
44 *183:10 *218:152 6.44702e-05
45 *183:10 *557:10 0.000238292
46 *183:10 *929:12 0.000198109
47 *183:23 *211:122 7.63204e-05
48 *183:23 *321:16 2.99731e-05
49 *183:27 *2738:B2 0.000233992
50 *183:52 *2751:B 0.000456814
51 *183:52 *2803:B2 9.54763e-06
52 *183:52 *2925:B 0.000197334
53 *183:52 *3307:A 0.000564172
54 *183:52 *3469:A 0.000140211
55 *183:52 *231:52 0.000937351
56 *183:52 *231:82 0.000567748
57 *183:52 *321:16 5.99309e-05
58 *183:52 *500:93 0
59 *183:52 *742:10 0
60 *183:110 *2696:A3 0.000141867
61 *183:110 *2696:B1 5.53249e-06
62 *183:110 *2754:C 4.65643e-05
63 *183:110 *2774:C 7.90035e-05
64 *183:110 *2783:D 3.13459e-05
65 *183:110 *2986:S 0.000133555
66 *183:110 *2988:A1 7.45321e-05
67 *183:110 *3002:A 0
68 *183:110 *3115:A1 0
69 *183:110 *3293:A 0
70 *183:110 *192:63 3.25997e-05
71 *183:110 *193:40 3.93371e-05
72 *183:110 *211:122 0.000501434
73 *183:110 *218:152 2.96556e-06
74 *183:110 *231:14 4.3249e-05
75 *183:110 *321:16 8.71735e-05
76 *183:110 *355:125 0.000176753
77 *183:110 *417:39 0.000173758
78 *183:110 *591:162 7.23533e-05
79 *183:123 *2696:B1 0.00016163
80 *183:123 *2761:A 9.57908e-05
81 *183:123 *355:125 0
82 *183:123 *500:69 7.87003e-05
83 *183:143 *2703:A 0.000106745
84 *183:143 *2704:A1 8.96077e-05
85 *183:143 *3008:A 8.96077e-05
86 *183:143 *3023:A 0.000614367
87 *183:143 *3110:S 4.82863e-05
88 *183:143 *3112:S 0.000307043
89 *183:143 *3383:A 0.000201508
90 *183:143 *348:145 3.3276e-05
91 *183:143 *505:6 0.000270086
92 *183:143 *598:86 7.01303e-05
93 *183:143 *753:45 0.000719793
94 *183:143 *840:8 7.67655e-05
95 *2738:A2 *2738:B1 4.82863e-05
96 *2756:A2 *2756:B1 0.000130669
97 *3155:D *2727:A2 1.43717e-05
98 *3176:D *183:110 0.000438469
99 *3216:D *2684:B1 5.35779e-05
100 *3224:D *183:110 0
101 *3250:D *2789:B1 1.33205e-05
102 *176:84 *183:110 0.000595773
103 *176:101 *183:110 0.000891634
104 *179:96 *183:10 5.27306e-05
105 *181:69 *183:143 0.000780992
106 *181:106 *183:52 0.000657138
*RES
1 *2683:X *183:10 18.435 
2 *183:10 *2789:B1 6.48 
3 *183:10 *183:23 1.635 
4 *183:23 *183:27 4.175 
5 *183:27 *2738:B1 5.845 
6 *183:27 *183:52 38.006 
7 *183:52 *2727:A2 19.0975 
8 *183:52 *2803:A2 5.6175 
9 *183:23 *183:110 42.4245 
10 *183:110 *2696:A2 3.6 
11 *183:110 *183:123 10.565 
12 *183:123 *183:143 38.615 
13 *183:143 *2684:B1 12.515 
14 *183:143 *2756:B1 8.765 
15 *183:123 *2761:B 1.6 
*END

*D_NET *184 0.000575205
*CONN
*I *2690:B1 I *D sky130_fd_sc_hd__a211o_1
*I *2684:X O *D sky130_fd_sc_hd__a22o_1
*CAP
1 *2690:B1 0.000159333
2 *2684:X 0.000159333
3 *2690:B1 *2690:A1 1.75875e-05
4 *2690:B1 *2690:C1 8.35157e-05
5 *2690:B1 *2756:B2 4.89362e-05
6 *2690:B1 *753:45 0.000106499
*RES
1 *2684:X *2690:B1 6.44 
*END

*D_NET *185 0.00918806
*CONN
*I *2713:A2 I *D sky130_fd_sc_hd__a22o_1
*I *2794:A2 I *D sky130_fd_sc_hd__a21o_1
*I *3464:A I *D sky130_fd_sc_hd__clkbuf_2
*I *2723:A2 I *D sky130_fd_sc_hd__a22o_1
*I *2802:B1 I *D sky130_fd_sc_hd__a221o_1
*I *2685:Y O *D sky130_fd_sc_hd__nor4b_4
*CAP
1 *2713:A2 0.000156269
2 *2794:A2 2.21004e-05
3 *3464:A 0
4 *2723:A2 0.000393368
5 *2802:B1 4.85079e-05
6 *2685:Y 0.000334343
7 *185:28 0.0020714
8 *185:14 0.00176831
9 *185:12 0.000387953
10 *185:10 0.000717679
11 *2713:A2 *2614:B 1.92979e-05
12 *2713:A2 *316:82 6.02005e-05
13 *2713:A2 *362:16 0.000124743
14 *2713:A2 *405:18 0.000139566
15 *2723:A2 *2723:B1 1.85674e-05
16 *2723:A2 *2943:A 0.000160621
17 *2723:A2 *2949:B 1.91597e-05
18 *2723:A2 *2951:A 0.000160635
19 *2723:A2 *2955:A 0.000236355
20 *2723:A2 *3038:A 3.09233e-05
21 *2723:A2 *218:63 0.000195482
22 *2723:A2 *324:49 0.000122331
23 *2723:A2 *349:119 3.64998e-06
24 *2723:A2 *405:66 0.000316813
25 *2723:A2 *409:34 2.49909e-05
26 *2723:A2 *414:10 0.000274659
27 *2802:B1 *2950:A1 4.12473e-05
28 *185:10 *2918:D_N 3.63745e-05
29 *185:10 *2954:A 6.97118e-05
30 *185:10 *2954:D 4.82863e-05
31 *185:10 *207:28 0.000104063
32 *185:10 *207:42 5.83121e-06
33 *185:12 *207:42 0.000132415
34 *185:12 *362:16 5.21706e-05
35 *185:14 *362:16 8.66532e-05
36 *185:28 *2563:A 5.87437e-05
37 *185:28 *2563:B 0.000122801
38 *185:28 *2564:A1 1.18644e-05
39 *185:28 *2564:S 2.31229e-05
40 *185:28 *2565:A 0.000105664
41 *185:28 *2802:A2 1.54111e-05
42 *185:28 *2809:A1 9.37118e-05
43 *185:28 *2950:A1 5.61788e-05
44 *185:28 *3241:CLK 2.68464e-05
45 *185:28 *362:16 8.80099e-05
46 *185:28 *814:10 2.49909e-05
47 *3240:D *185:28 1.43717e-05
48 *3241:D *185:28 0.000161664
*RES
1 *2685:Y *185:10 6.31 
2 *185:10 *185:12 3.555 
3 *185:12 *185:14 2.175 
4 *185:14 *185:28 24.435 
5 *185:28 *2802:B1 2.665 
6 *185:28 *2723:A2 17 
7 *185:14 *3464:A 1.6 
8 *185:12 *2794:A2 1.96 
9 *185:10 *2713:A2 9.53 
*END

*D_NET *186 0.00236657
*CONN
*I *3459:A I *D sky130_fd_sc_hd__clkbuf_2
*I *3461:A I *D sky130_fd_sc_hd__clkbuf_1
*I *2686:Y O *D sky130_fd_sc_hd__nor4b_1
*CAP
1 *3459:A 0.000278731
2 *3461:A 1.36534e-05
3 *2686:Y 0.00022734
4 *186:10 0.000519725
5 *3459:A *3469:A 1.07797e-05
6 *3459:A *348:28 4.01778e-05
7 *3459:A *356:49 0.000163787
8 *3459:A *389:12 0
9 *3461:A *2678:A 4.66108e-05
10 *186:10 *2686:B 4.94474e-05
11 *186:10 *389:12 0
12 *186:10 *804:68 5.21046e-05
13 *186:10 *805:44 0
14 *2683:D *3459:A 0.000167431
15 *2687:A_N *3459:A 0.00012182
16 *2718:B *186:10 1.01661e-05
17 *2718:D *3459:A 0.000153584
18 *2718:D *186:10 0.000123401
19 *171:29 *3461:A 4.66108e-05
20 *178:12 *3459:A 0
21 *179:96 *3459:A 0.000244623
22 *180:79 *3459:A 4.66108e-05
23 *183:10 *3459:A 4.99619e-05
*RES
1 *2686:Y *186:10 7.98 
2 *186:10 *3461:A 4.05 
3 *186:10 *3459:A 11.49 
*END

*D_NET *187 0.0372973
*CONN
*I *2781:B I *D sky130_fd_sc_hd__and3_1
*I *2743:B I *D sky130_fd_sc_hd__and3_1
*I *2719:A2 I *D sky130_fd_sc_hd__a22o_1
*I *2688:B1 I *D sky130_fd_sc_hd__a22o_1
*I *2757:B1 I *D sky130_fd_sc_hd__a22o_1
*I *2807:A2 I *D sky130_fd_sc_hd__a22o_1
*I *2729:B1 I *D sky130_fd_sc_hd__a22o_1
*I *2797:B1 I *D sky130_fd_sc_hd__a22o_1
*I *2687:X O *D sky130_fd_sc_hd__and4bb_4
*CAP
1 *2781:B 0.000164975
2 *2743:B 0
3 *2719:A2 0
4 *2688:B1 0.000122428
5 *2757:B1 0.000228608
6 *2807:A2 0
7 *2729:B1 0
8 *2797:B1 0.000601882
9 *2687:X 9.773e-05
10 *187:124 0.00566993
11 *187:83 0.00221922
12 *187:66 0.00199719
13 *187:57 0.00147134
14 *187:33 0.00141447
15 *187:16 0.00265688
16 *187:10 0.00758554
17 *2688:B1 *2688:A2 6.97034e-05
18 *2688:B1 *2688:B2 0.000132096
19 *2688:B1 *3043:A 7.63204e-05
20 *2757:B1 *2757:B2 0.000134938
21 *2781:B *2743:A 4.66108e-05
22 *2781:B *3002:A 2.46007e-05
23 *2781:B *3373:A 2.19562e-06
24 *2781:B *348:91 8.7996e-05
25 *2781:B *829:6 3.1562e-06
26 *2797:B1 *2549:A0 8.52972e-05
27 *2797:B1 *2551:A1 3.86607e-05
28 *2797:B1 *2564:A0 0.000250016
29 *2797:B1 *2569:A0 0.000135415
30 *2797:B1 *2612:A0 8.08153e-06
31 *2797:B1 *2612:A1 4.05358e-05
32 *2797:B1 *2720:B 2.09665e-05
33 *2797:B1 *2797:A2 1.76441e-05
34 *2797:B1 *2797:B2 4.66108e-05
35 *2797:B1 *2798:B2 5.44801e-05
36 *2797:B1 *3390:A 5.21999e-05
37 *2797:B1 *316:96 7.44375e-05
38 *2797:B1 *500:119 9.59969e-05
39 *2797:B1 *529:8 0
40 *2797:B1 *591:30 0
41 *2797:B1 *821:8 4.12671e-05
42 *187:10 *3307:A 0.000182372
43 *187:10 *197:16 9.39388e-06
44 *187:16 *2564:A0 1.23331e-05
45 *187:16 *2569:A0 8.53113e-06
46 *187:16 *2569:A1 0.000152351
47 *187:16 *2720:B 0.000167502
48 *187:16 *197:42 0.000668744
49 *187:16 *218:20 0
50 *187:16 *528:37 0.000353764
51 *187:16 *591:26 0.000582958
52 *187:33 *2570:A 0.00019637
53 *187:33 *2719:B2 0.0001947
54 *187:33 *2720:C 4.43682e-05
55 *187:33 *405:35 9.8249e-05
56 *187:57 *2565:A 0.000151624
57 *187:57 *2717:B2 9.28449e-05
58 *187:57 *2719:A1 9.50342e-06
59 *187:57 *2729:A1 7.21318e-05
60 *187:57 *2729:A2 1.54665e-05
61 *187:57 *2732:A1 3.54721e-05
62 *187:57 *2830:A1 2.42043e-05
63 *187:57 *2833:S 0.000126424
64 *187:57 *3126:CLK 0.000147585
65 *187:57 *3419:A 4.03554e-05
66 *187:57 *3421:A 1.64067e-05
67 *187:57 *218:63 5.35021e-05
68 *187:57 *218:92 5.36975e-06
69 *187:57 *320:51 0.00084397
70 *187:57 *324:34 0.000139266
71 *187:57 *324:36 9.12857e-06
72 *187:57 *409:34 0.000104619
73 *187:57 *600:36 5.20193e-05
74 *187:66 *3421:A 6.97526e-05
75 *187:66 *218:92 0.000104348
76 *187:66 *218:109 5.31158e-06
77 *187:66 *324:36 3.75882e-06
78 *187:66 *324:63 0.000121234
79 *187:83 *2688:B2 0.00035825
80 *187:83 *2725:B2 0
81 *187:83 *2728:B2 0.000179263
82 *187:83 *2734:B1 0
83 *187:83 *2806:C1 0.000160387
84 *187:83 *2807:A1 9.09055e-05
85 *187:83 *2925:B 3.85204e-05
86 *187:83 *2935:A 6.55328e-05
87 *187:83 *3028:A 0
88 *187:83 *3028:B 0
89 *187:83 *3029:A0 1.15688e-05
90 *187:83 *3031:S 9.37731e-05
91 *187:83 *3032:A 0.000117832
92 *187:83 *3041:A1 2.67022e-05
93 *187:83 *3043:A 5.20196e-05
94 *187:83 *3074:S 0.000238266
95 *187:83 *3079:A0 7.1624e-05
96 *187:83 *3159:CLK 5.39961e-05
97 *187:83 *3200:CLK 0
98 *187:83 *218:109 0.000103758
99 *187:83 *324:63 3.75882e-06
100 *187:83 *324:74 0.000350921
101 *187:83 *394:16 1.92605e-05
102 *187:83 *428:114 0
103 *187:83 *443:56 0
104 *187:83 *606:24 0.000153053
105 *187:83 *606:30 0.000538949
106 *187:83 *606:34 0
107 *187:83 *620:46 0
108 *187:83 *865:12 1.80324e-05
109 *187:124 *2541:A 0
110 *187:124 *2780:B 0.000103865
111 *187:124 *3002:A 9.1113e-06
112 *187:124 *218:20 0
113 *187:124 *348:91 0.00032065
114 *187:124 *409:115 0.000136949
115 *187:124 *631:20 0.000451399
116 *187:124 *720:49 0.000305455
117 *187:124 *780:90 0.000173881
118 *2725:A2 *187:83 7.44453e-05
119 *3126:D *187:57 8.37487e-05
120 *171:33 *187:10 0.000112445
121 *171:79 *187:10 2.23922e-05
122 *172:27 *187:16 0.000927588
123 *172:27 *187:124 0.00114369
124 *181:106 *187:83 0
*RES
1 *2687:X *187:10 6.3725 
2 *187:10 *187:16 9.0601 
3 *187:16 *2797:B1 17.13 
4 *187:16 *187:33 4.865 
5 *187:33 *187:57 30.645 
6 *187:57 *2729:B1 3.6 
7 *187:57 *187:66 3.93 
8 *187:66 *2807:A2 3.6 
9 *187:66 *187:83 38.97 
10 *187:83 *2757:B1 7.17 
11 *187:83 *2688:B1 6.375 
12 *187:33 *2719:A2 1.6 
13 *187:10 *187:124 11.446 
14 *187:124 *2743:B 3.6 
15 *187:124 *2781:B 5.955 
*END

*D_NET *188 0.000411378
*CONN
*I *2689:C1 I *D sky130_fd_sc_hd__a221o_1
*I *2688:X O *D sky130_fd_sc_hd__a22o_1
*CAP
1 *2689:C1 8.5799e-05
2 *2688:X 8.5799e-05
3 *2689:C1 *2688:A1 1.7386e-05
4 *2689:C1 *3039:A0 3.86529e-05
5 *2689:C1 *3044:A0 5.53249e-06
6 *2689:C1 *428:114 0.000136884
7 *2689:C1 *430:149 4.13249e-05
*RES
1 *2688:X *2689:C1 9.285 
*END

*D_NET *189 0.00533191
*CONN
*I *2690:C1 I *D sky130_fd_sc_hd__a211o_1
*I *2689:X O *D sky130_fd_sc_hd__a221o_1
*CAP
1 *2690:C1 0.000924438
2 *2689:X 0.000924438
3 *2690:C1 *2689:A2 2.30292e-05
4 *2690:C1 *3033:A 0.000347023
5 *2690:C1 *3034:S 4.99619e-05
6 *2690:C1 *3122:A0 0.000201503
7 *2690:C1 *3122:A1 0.000237243
8 *2690:C1 *3122:S 8.8266e-05
9 *2690:C1 *3123:A 0.000275886
10 *2690:C1 *430:136 0.000842413
11 *2690:C1 *440:18 0.000355196
12 *2690:C1 *440:20 0.00033517
13 *2690:C1 *594:56 0
14 *2690:C1 *594:67 0.000370903
15 *2690:C1 *594:78 0.000178148
16 *2690:C1 *753:45 8.35157e-05
17 *2690:C1 *764:66 1.12578e-05
18 *2690:B1 *2690:C1 8.35157e-05
*RES
1 *2689:X *2690:C1 33.675 
*END

*D_NET *190 0.0039537
*CONN
*I *2722:A2 I *D sky130_fd_sc_hd__a2111o_1
*I *2690:X O *D sky130_fd_sc_hd__a211o_1
*CAP
1 *2722:A2 0.00133561
2 *2690:X 0.00133561
3 *2722:A2 *2769:B1 3.47837e-05
4 *2722:A2 *2983:A1 0.000118527
5 *2722:A2 *3008:A 0
6 *2722:A2 *3223:CLK 2.69217e-05
7 *2722:A2 *397:59 0
8 *2722:A2 *419:75 0.000347279
9 *2722:A2 *443:122 0
10 *2722:A2 *500:83 0
11 *2722:A2 *511:126 0.000158297
12 *2722:A2 *512:10 4.90954e-05
13 *2722:A2 *753:45 0.000411585
14 *2722:A2 *885:10 0.000124007
15 *181:69 *2722:A2 1.19756e-05
*RES
1 *2690:X *2722:A2 27.675 
*END

*D_NET *191 0.00545839
*CONN
*I *2772:C I *D sky130_fd_sc_hd__and3_1
*I *2778:C I *D sky130_fd_sc_hd__and3_1
*I *2692:A I *D sky130_fd_sc_hd__clkbuf_2
*I *2773:C I *D sky130_fd_sc_hd__and3_1
*I *2691:X O *D sky130_fd_sc_hd__and2b_1
*CAP
1 *2772:C 0.00016828
2 *2778:C 0.000736793
3 *2692:A 2.72798e-05
4 *2773:C 0.000101519
5 *2691:X 0.000190999
6 *191:46 0.000981938
7 *191:33 0.000489434
8 *191:14 0.000677807
9 *2692:A *2783:A 4.66108e-05
10 *2772:C *428:45 7.98317e-05
11 *2773:C *3057:S 3.112e-05
12 *2778:C *2780:A 4.22597e-05
13 *2778:C *2780:D 0.000446232
14 *2778:C *428:45 0.000221534
15 *191:14 *2691:A_N 4.9968e-05
16 *191:14 *2691:B 9.54399e-05
17 *191:14 *2745:A 4.66108e-05
18 *191:14 *2773:A 2.98587e-05
19 *191:14 *3059:S 2.4002e-05
20 *191:14 *479:10 9.15093e-05
21 *191:14 *511:102 1.52776e-05
22 *191:33 *2773:A 0.0001189
23 *191:33 *2783:A 4.66108e-05
24 *191:33 *3059:A0 5.00903e-05
25 *191:33 *3059:S 6.92729e-05
26 *191:46 *2745:C 4.87939e-05
27 *191:46 *2783:A 2.85623e-05
28 *191:46 *192:25 0.000221846
29 *191:46 *631:41 0.000223045
30 *176:16 *2773:C 1.28737e-05
31 *176:16 *191:14 4.40888e-05
*RES
1 *2691:X *191:14 8.025 
2 *191:14 *2773:C 4.8 
3 *191:14 *191:33 8.09 
4 *191:33 *2692:A 2.05 
5 *191:33 *191:46 7.165 
6 *191:46 *2778:C 10.9225 
7 *191:46 *2772:C 3.6775 
*END

*D_NET *192 0.0107369
*CONN
*I *2779:C I *D sky130_fd_sc_hd__and3_1
*I *2698:C I *D sky130_fd_sc_hd__and3_1
*I *2703:C I *D sky130_fd_sc_hd__and3_1
*I *2765:C I *D sky130_fd_sc_hd__and3_1
*I *2760:C I *D sky130_fd_sc_hd__and3_1
*I *2761:C I *D sky130_fd_sc_hd__and3_1
*I *2695:B I *D sky130_fd_sc_hd__and3_1
*I *2693:A I *D sky130_fd_sc_hd__clkbuf_4
*I *2741:C I *D sky130_fd_sc_hd__and3_1
*I *2745:C I *D sky130_fd_sc_hd__and3_1
*I *2692:X O *D sky130_fd_sc_hd__clkbuf_2
*CAP
1 *2779:C 1.29819e-05
2 *2698:C 0
3 *2703:C 0
4 *2765:C 0.000143934
5 *2760:C 0
6 *2761:C 0
7 *2695:B 9.36289e-05
8 *2693:A 0
9 *2741:C 5.42195e-05
10 *2745:C 0.000192702
11 *2692:X 6.9072e-05
12 *192:104 0.000411869
13 *192:91 0.000439322
14 *192:87 0.000277028
15 *192:78 0.000520331
16 *192:63 0.00120814
17 *192:53 0.000763886
18 *192:40 0.000517719
19 *192:25 0.000617096
20 *192:10 0.000358013
21 *2695:B *511:126 0.000118081
22 *2741:C *2542:S 4.03163e-05
23 *2741:C *2742:B1 4.77807e-05
24 *2745:C *2742:B1 0.000347891
25 *2745:C *2783:A 4.57506e-05
26 *2745:C *479:10 2.74814e-05
27 *2745:C *609:53 0.000198804
28 *2745:C *631:41 5.36975e-06
29 *2765:C *2703:A 6.94638e-05
30 *2765:C *2765:A 7.32678e-05
31 *2779:C *2779:A 1.49976e-05
32 *192:10 *2783:A 8.23457e-05
33 *192:25 *2742:B1 0.000274837
34 *192:25 *631:41 4.1588e-05
35 *192:40 *2542:S 0.000164781
36 *192:40 *2544:A0 0
37 *192:40 *2701:A2 3.50033e-05
38 *192:40 *2764:B1 2.05056e-05
39 *192:40 *3086:A 0
40 *192:40 *3374:A 0.00011852
41 *192:40 *631:41 0.000388074
42 *192:40 *731:56 0.000122732
43 *192:53 *2763:C 0
44 *192:53 *2764:B1 3.06178e-05
45 *192:53 *2779:A 4.87056e-05
46 *192:53 *2779:B 4.25589e-05
47 *192:53 *731:56 3.57225e-05
48 *192:63 *2695:A 7.06865e-05
49 *192:63 *2696:A1 7.07879e-05
50 *192:63 *2779:A 5.7573e-05
51 *192:63 *2779:B 3.51807e-07
52 *192:63 *3089:A 0.000136104
53 *192:63 *3365:A 0.000116853
54 *192:63 *731:84 0
55 *192:78 *2695:A 8.69088e-05
56 *192:78 *2696:A1 4.65565e-05
57 *192:78 *2761:A 0.000159709
58 *192:78 *3092:A 0
59 *192:78 *500:18 2.66935e-05
60 *192:78 *500:69 0.000167931
61 *192:87 *2699:B1 0.000122797
62 *192:87 *500:69 0.000291223
63 *192:91 *2760:A 4.89295e-05
64 *192:91 *500:69 7.69602e-05
65 *192:104 *2703:A 5.45488e-05
66 *192:104 *500:69 0.000207781
67 *3214:D *192:63 0.000429704
68 *3215:D *192:63 5.64057e-05
69 *3215:D *192:78 2.97004e-06
70 *177:16 *192:63 0.000127011
71 *183:110 *192:63 3.25997e-05
72 *191:46 *2745:C 4.87939e-05
73 *191:46 *192:25 0.000221846
*RES
1 *2692:X *192:10 4.755 
2 *192:10 *2745:C 9.075 
3 *192:10 *192:25 3.675 
4 *192:25 *2741:C 4.62 
5 *192:25 *192:40 13.265 
6 *192:40 *2693:A 1.6 
7 *192:40 *192:53 1.9275 
8 *192:53 *192:63 15.7475 
9 *192:63 *2695:B 4.74 
10 *192:63 *192:78 8.45 
11 *192:78 *2761:C 1.6 
12 *192:78 *192:87 3.045 
13 *192:87 *192:91 2.37 
14 *192:91 *2760:C 1.6 
15 *192:91 *192:104 4.38 
16 *192:104 *2765:C 3.43 
17 *192:104 *2703:C 1.6 
18 *192:87 *2698:C 1.6 
19 *192:53 *2779:C 2.0125 
*END

*D_NET *193 0.0194543
*CONN
*I *2743:C I *D sky130_fd_sc_hd__and3_1
*I *2781:C I *D sky130_fd_sc_hd__and3_1
*I *2701:A3 I *D sky130_fd_sc_hd__a31o_1
*I *2764:A2 I *D sky130_fd_sc_hd__a31o_1
*I *2696:A3 I *D sky130_fd_sc_hd__a31o_1
*I *2710:A1 I *D sky130_fd_sc_hd__a22o_1
*I *2769:B2 I *D sky130_fd_sc_hd__a22o_1
*I *2791:A1 I *D sky130_fd_sc_hd__a211o_1
*I *2740:A1 I *D sky130_fd_sc_hd__a211o_1
*I *2749:A3 I *D sky130_fd_sc_hd__a31o_1
*I *2693:X O *D sky130_fd_sc_hd__clkbuf_4
*CAP
1 *2743:C 0.000413619
2 *2781:C 0.000117009
3 *2701:A3 0
4 *2764:A2 0
5 *2696:A3 8.93617e-05
6 *2710:A1 0
7 *2769:B2 0.000135177
8 *2791:A1 0
9 *2740:A1 0
10 *2749:A3 0.00111926
11 *2693:X 0
12 *193:132 0.0010109
13 *193:56 0.00125513
14 *193:54 0.00113017
15 *193:44 0.00115125
16 *193:40 0.000734408
17 *193:26 0.00148615
18 *193:14 0.000754199
19 *193:12 0.000182466
20 *193:6 0.000592684
21 *2743:C *2743:A 9.77488e-05
22 *2743:C *2780:D 8.3945e-05
23 *2743:C *3049:A 6.83656e-05
24 *2743:C *3049:B 5.80712e-05
25 *2743:C *3086:A 0.000174096
26 *2743:C *473:124 9.12494e-06
27 *2749:A3 *2740:C1 3.93101e-05
28 *2749:A3 *2749:B1 3.50357e-05
29 *2749:A3 *2788:A3 7.1009e-05
30 *2749:A3 *2974:A0 1.56428e-05
31 *2749:A3 *2974:S 0.00034367
32 *2749:A3 *2975:A 1.13827e-05
33 *2749:A3 *207:84 7.26758e-05
34 *2749:A3 *322:104 0.000453717
35 *2769:B2 *2767:B2 0.00013521
36 *2769:B2 *2769:B1 4.66826e-05
37 *2769:B2 *3333:A 0.000172158
38 *2769:B2 *202:121 9.78003e-05
39 *2769:B2 *397:59 0.000298837
40 *2781:C *2544:A0 5.4155e-06
41 *2781:C *2743:A 4.79992e-05
42 *2781:C *2781:A 0
43 *2781:C *3086:A 7.53048e-05
44 *2781:C *3087:B 0.000119756
45 *193:12 *2700:C 7.34703e-05
46 *193:12 *2701:A1 9.50342e-06
47 *193:12 *2701:A2 9.47454e-05
48 *193:12 *2764:A1 0
49 *193:12 *2764:B1 0
50 *193:14 *2701:A2 1.16578e-05
51 *193:14 *2705:C 8.82557e-05
52 *193:14 *3091:A1 0.000118294
53 *193:26 *2705:C 2.30292e-05
54 *193:26 *2764:A3 8.8266e-05
55 *193:26 *2779:A 1.88602e-05
56 *193:26 *3091:A1 0.000117263
57 *193:40 *2705:C 0.00036184
58 *193:40 *2710:A2 1.37328e-05
59 *193:40 *2770:B 0.000158758
60 *193:40 *2966:A0 0
61 *193:40 *3293:A 0.000187133
62 *193:40 *597:10 0.000147953
63 *193:40 *597:100 0.000237868
64 *193:40 *886:10 0.000271733
65 *193:40 *892:8 2.49909e-05
66 *193:44 *2767:B2 8.53113e-06
67 *193:44 *397:59 5.16348e-05
68 *193:54 *2787:A 0.000251396
69 *193:54 *2791:A2 0.000627542
70 *193:54 *2983:A0 2.46007e-05
71 *193:54 *2983:A1 7.55391e-05
72 *193:54 *2993:S 0
73 *193:54 *3369:A 0.000276359
74 *193:54 *207:159 0.000257247
75 *193:54 *372:18 0
76 *193:54 *397:59 0
77 *193:54 *428:65 0.000136114
78 *193:54 *437:10 0
79 *193:54 *443:122 0
80 *193:54 *597:10 0.000283181
81 *193:56 *2788:A3 0.000156059
82 *193:56 *2788:B1 2.83135e-05
83 *193:56 *2791:A2 9.12494e-06
84 *193:56 *2791:B1 4.65578e-05
85 *193:56 *2811:A1 2.54701e-05
86 *193:56 *207:84 0.000106331
87 *193:56 *207:103 0.000180765
88 *193:56 *207:159 5.0096e-05
89 *193:132 *2541:A 8.75474e-05
90 *193:132 *2544:A0 0.000274659
91 *193:132 *2544:A1 2.23589e-05
92 *193:132 *2545:A 0
93 *193:132 *2700:C 3.25831e-05
94 *193:132 *2701:A2 4.92284e-05
95 *193:132 *3086:A 3.57349e-05
96 *193:132 *511:108 0
97 *193:132 *524:12 0.000391343
98 *193:132 *631:41 0.000294135
99 *2747:A2 *2749:A3 2.8585e-06
100 *2769:A1 *2769:B2 1.37328e-05
101 *2782:A2 *2749:A3 0
102 *2792:A1 *193:44 2.97004e-06
103 *3168:D *193:40 7.88499e-05
104 *176:111 *193:26 0.00062873
105 *177:45 *193:44 1.14559e-05
106 *183:110 *2696:A3 0.000141867
107 *183:110 *193:40 3.93371e-05
*RES
1 *2693:X *193:6 3.6 
2 *193:6 *193:12 4.34 
3 *193:12 *193:14 2.175 
4 *193:14 *193:26 5.69237 
5 *193:26 *193:40 18.3575 
6 *193:40 *193:44 2.615 
7 *193:44 *193:54 25.69 
8 *193:54 *193:56 4.185 
9 *193:56 *2749:A3 17.955 
10 *193:56 *2740:A1 3.6 
11 *193:54 *2791:A1 3.6 
12 *193:44 *2769:B2 8.79 
13 *193:40 *2710:A1 1.6 
14 *193:26 *2696:A3 5.3625 
15 *193:14 *2764:A2 1.6 
16 *193:12 *2701:A3 1.6 
17 *193:6 *193:132 14.285 
18 *193:132 *2781:C 4.12 
19 *193:132 *2743:C 12.23 
*END

*D_NET *194 0.00382002
*CONN
*I *3469:A I *D sky130_fd_sc_hd__dlymetal6s2s_1
*I *2694:Y O *D sky130_fd_sc_hd__nor4b_1
*CAP
1 *3469:A 0.00120511
2 *2694:Y 0.00120511
3 *3469:A *2672:B 1.14169e-05
4 *3469:A *2678:A 4.30166e-05
5 *3469:A *2683:C 0
6 *3469:A *2789:B2 4.67041e-05
7 *3469:A *3307:A 2.10214e-05
8 *3469:A *321:16 0
9 *3469:A *356:49 0
10 *3469:A *389:12 0
11 *3469:A *528:86 4.63352e-05
12 *3469:A *604:10 0.000318834
13 *3469:A *604:25 0.000221722
14 *3469:A *681:18 6.82274e-05
15 *3469:A *919:14 0.000131274
16 *2718:D *3469:A 0.000131881
17 *3250:D *3469:A 0
18 *3459:A *3469:A 1.07797e-05
19 *171:29 *3469:A 8.52883e-05
20 *179:113 *3469:A 0.000133085
21 *183:10 *3469:A 0
22 *183:52 *3469:A 0.000140211
*RES
1 *2694:Y *3469:A 30.105 
*END

*D_NET *195 0.000592815
*CONN
*I *2696:B1 I *D sky130_fd_sc_hd__a31o_1
*I *2695:X O *D sky130_fd_sc_hd__and3_1
*CAP
1 *2696:B1 9.92475e-05
2 *2695:X 9.92475e-05
3 *2696:B1 *355:125 0.000227157
4 *183:110 *2696:B1 5.53249e-06
5 *183:123 *2696:B1 0.00016163
*RES
1 *2695:X *2696:B1 10.62 
*END

*D_NET *196 0.00149158
*CONN
*I *2705:A I *D sky130_fd_sc_hd__or4_1
*I *2696:X O *D sky130_fd_sc_hd__a31o_1
*CAP
1 *2705:A 0.000337579
2 *2696:X 0.000337579
3 *2705:A *2705:B 8.52845e-05
4 *2705:A *2705:D 3.22681e-05
5 *2705:A *2966:A0 0.000121023
6 *2705:A *430:68 0.00057785
*RES
1 *2696:X *2705:A 10.13 
*END

*D_NET *197 0.0358003
*CONN
*I *2762:A3 I *D sky130_fd_sc_hd__a311o_1
*I *2699:A3 I *D sky130_fd_sc_hd__a31o_1
*I *2733:B1 I *D sky130_fd_sc_hd__a22o_1
*I *2786:A2 I *D sky130_fd_sc_hd__a211o_1
*I *2727:B1 I *D sky130_fd_sc_hd__a22o_1
*I *2806:B1 I *D sky130_fd_sc_hd__a221o_1
*I *2716:B1 I *D sky130_fd_sc_hd__a22o_1
*I *2798:B1 I *D sky130_fd_sc_hd__a22o_1
*I *2697:X O *D sky130_fd_sc_hd__and4_4
*CAP
1 *2762:A3 0
2 *2699:A3 0.00024201
3 *2733:B1 1.86374e-05
4 *2786:A2 0.000457723
5 *2727:B1 0.000111661
6 *2806:B1 0.000308934
7 *2716:B1 0
8 *2798:B1 0.000185019
9 *2697:X 0.00030015
10 *197:152 0.000993267
11 *197:94 0.00141787
12 *197:88 0.00163949
13 *197:84 0.00231167
14 *197:70 0.00414722
15 *197:42 0.00176726
16 *197:16 0.00316981
17 *2699:A3 *2705:B 8.53113e-06
18 *2699:A3 *2705:D 2.42148e-05
19 *2699:A3 *2762:A1 0.000206729
20 *2727:B1 *2732:A3 0
21 *2727:B1 *2809:A2 7.1624e-05
22 *2727:B1 *2809:B1 2.88357e-05
23 *2733:B1 *207:117 3.5678e-06
24 *2786:A2 *2733:B2 0
25 *2786:A2 *2735:C1 2.49909e-05
26 *2786:A2 *2786:A1 0.000259627
27 *2786:A2 *2786:C1 0
28 *2786:A2 *2791:A2 0.000204026
29 *2786:A2 *2792:A2 7.03717e-05
30 *2786:A2 *3063:A 0.000213679
31 *2786:A2 *440:42 0.000261053
32 *2798:B1 *2716:A2 1.94284e-05
33 *2798:B1 *2797:A2 0.000204432
34 *2798:B1 *2798:A2 8.22183e-05
35 *2798:B1 *2798:B2 4.87465e-06
36 *2798:B1 *2799:C1 8.97264e-05
37 *2798:B1 *527:24 3.116e-05
38 *2798:B1 *527:38 6.76263e-05
39 *2798:B1 *599:27 9.9599e-05
40 *2806:B1 *2732:A3 1.17114e-05
41 *2806:B1 *2806:A2 5.18856e-05
42 *2806:B1 *2806:B2 3.67966e-05
43 *2806:B1 *2806:C1 9.72742e-06
44 *2806:B1 *2808:C 0.000379717
45 *2806:B1 *208:47 0.000129107
46 *197:16 *356:49 4.43871e-06
47 *197:16 *389:12 0
48 *197:42 *2581:A0 9.30787e-05
49 *197:42 *2616:A 0.000284188
50 *197:42 *2716:A1 4.71e-05
51 *197:42 *2716:B2 4.35849e-05
52 *197:42 *2800:A3 2.86265e-06
53 *197:42 *218:20 0.000114209
54 *197:42 *327:99 0.000503068
55 *197:42 *327:101 0.000233641
56 *197:42 *343:32 0
57 *197:42 *358:37 0.000443526
58 *197:42 *409:12 0.000264496
59 *197:42 *528:37 0.00116394
60 *197:42 *599:27 2.7639e-05
61 *197:70 *2603:A 0.000446983
62 *197:70 *2755:B2 0
63 *197:70 *2902:A 0.00013661
64 *197:70 *2903:A1 5.2124e-05
65 *197:70 *2919:B 3.79318e-05
66 *197:70 *3252:CLK 0.000112951
67 *197:70 *3253:CLK 7.21318e-05
68 *197:70 *3393:A 3.6229e-05
69 *197:70 *321:16 0.000107634
70 *197:70 *366:125 0.000669916
71 *197:70 *378:35 0.000209647
72 *197:70 *378:56 2.24833e-05
73 *197:70 *409:12 0.000206071
74 *197:70 *409:84 9.12814e-05
75 *197:70 *682:12 7.42979e-05
76 *197:70 *753:29 0.000948715
77 *197:84 *2733:A1 8.64599e-05
78 *197:84 *2792:A2 0.00011016
79 *197:84 *2973:A 0.000656171
80 *197:84 *2985:A 0
81 *197:84 *207:117 8.28018e-06
82 *197:84 *473:68 0.00182659
83 *197:84 *482:10 0
84 *197:84 *591:132 1.19759e-05
85 *197:84 *591:210 2.09267e-05
86 *197:84 *607:10 5.96623e-06
87 *197:88 *2733:B2 2.69153e-05
88 *197:88 *207:117 0.000180525
89 *197:94 *2726:A2 1.89226e-05
90 *197:94 *2732:A2 0
91 *197:94 *2732:A3 0
92 *197:94 *2754:A 0
93 *197:94 *2804:B2 0
94 *197:94 *2808:A 0.00034554
95 *197:94 *2809:B1 0
96 *197:94 *2914:A0 0
97 *197:94 *2916:A1 0.000114492
98 *197:94 *2917:A 0.000285404
99 *197:94 *3063:A 2.68111e-05
100 *197:94 *3153:CLK 0
101 *197:94 *3397:A 2.03321e-05
102 *197:94 *3436:A 0.000135487
103 *197:94 *202:30 0
104 *197:94 *202:53 9.20531e-05
105 *197:152 *2964:A1 7.18452e-06
106 *197:152 *3082:A0 0.000315972
107 *197:152 *3114:A 0.000138483
108 *197:152 *3169:CLK 4.30126e-05
109 *197:152 *366:125 0.000303797
110 *197:152 *595:10 1.50288e-05
111 *197:152 *597:113 0.000157107
112 *197:152 *753:29 0.00170796
113 *2685:B *197:42 0
114 *2702:B *197:70 0.000160013
115 *2762:A2 *2699:A3 4.61392e-05
116 *2762:A2 *197:152 0.000259159
117 *3153:D *197:94 0.000141606
118 *3168:D *197:152 9.28013e-05
119 *171:29 *197:16 0.0001249
120 *171:33 *197:16 9.0444e-05
121 *171:39 *197:16 8.23457e-05
122 *171:41 *197:16 8.43862e-05
123 *174:82 *197:70 0.000463436
124 *174:92 *197:70 0.000304618
125 *174:150 *197:70 0.000116853
126 *177:29 *2699:A3 3.32402e-05
127 *178:25 *197:16 1.19928e-05
128 *179:24 *197:16 0.00012657
129 *180:16 *197:70 6.26978e-05
130 *180:20 *197:42 6.54714e-05
131 *180:20 *197:70 4.65565e-05
132 *181:35 *2699:A3 3.06212e-05
133 *187:10 *197:16 9.39388e-06
134 *187:16 *197:42 0.000668744
*RES
1 *2697:X *197:16 12.64 
2 *197:16 *197:42 26.6067 
3 *197:42 *2798:B1 8.55 
4 *197:42 *2716:B1 3.6 
5 *197:16 *197:70 34.3725 
6 *197:70 *197:84 10.1922 
7 *197:84 *197:88 4.52 
8 *197:88 *197:94 20.2575 
9 *197:94 *2806:B1 9.9375 
10 *197:94 *2727:B1 5.5575 
11 *197:88 *2786:A2 15.465 
12 *197:84 *2733:B1 1.96 
13 *197:70 *197:152 24.5675 
14 *197:152 *2699:A3 10.01 
15 *197:152 *2762:A3 1.6 
*END

*D_NET *198 0.000960098
*CONN
*I *2699:B1 I *D sky130_fd_sc_hd__a31o_1
*I *2698:X O *D sky130_fd_sc_hd__and3_1
*CAP
1 *2699:B1 0.000311114
2 *2698:X 0.000311114
3 *2699:B1 *475:35 0
4 *2699:B1 *475:91 0
5 *2699:B1 *598:8 4.43871e-06
6 *2699:B1 *598:86 0.000158754
7 *177:16 *2699:B1 3.64998e-06
8 *177:20 *2699:B1 4.82299e-05
9 *192:87 *2699:B1 0.000122797
*RES
1 *2698:X *2699:B1 12.9 
*END

*D_NET *199 0.000613345
*CONN
*I *2705:B I *D sky130_fd_sc_hd__or4_1
*I *2699:X O *D sky130_fd_sc_hd__a31o_1
*CAP
1 *2705:B 0.000141988
2 *2699:X 0.000141988
3 *2705:B *2705:C 2.15738e-05
4 *2705:B *2705:D 3.09364e-05
5 *2705:B *348:128 0
6 *2699:A3 *2705:B 8.53113e-06
7 *2705:A *2705:B 8.52845e-05
8 *181:35 *2705:B 0.000183043
*RES
1 *2699:X *2705:B 10.14 
*END

*D_NET *200 0.00134901
*CONN
*I *2701:B1 I *D sky130_fd_sc_hd__a31o_1
*I *2700:X O *D sky130_fd_sc_hd__and3_1
*CAP
1 *2701:B1 0.000304416
2 *2700:X 0.000304416
3 *2701:B1 *2700:C 1.56428e-05
4 *2701:B1 *3007:A 0.000122331
5 *2701:B1 *3183:CLK 0.000186099
6 *2701:B1 *598:44 0.000204463
7 *2700:B *2701:B1 0.00021164
*RES
1 *2700:X *2701:B1 14.61 
*END

*D_NET *201 0.00399933
*CONN
*I *2705:C I *D sky130_fd_sc_hd__or4_1
*I *2701:X O *D sky130_fd_sc_hd__a31o_1
*CAP
1 *2705:C 0.000780895
2 *2701:X 0.000780895
3 *2705:C *2544:A0 0.000342778
4 *2705:C *2701:A2 1.76403e-05
5 *2705:C *2764:A3 0.00030615
6 *2705:C *2770:B 0.00101423
7 *2705:C *3293:A 7.10593e-06
8 *2705:C *3294:A 6.33103e-05
9 *2705:C *348:128 8.89751e-05
10 *2705:C *500:28 4.66108e-05
11 *2705:B *2705:C 2.15738e-05
12 *176:101 *2705:C 5.60476e-05
13 *181:35 *2705:C 0
14 *193:14 *2705:C 8.82557e-05
15 *193:26 *2705:C 2.30292e-05
16 *193:40 *2705:C 0.00036184
*RES
1 *2701:X *2705:C 27.21 
*END

*D_NET *202 0.0261049
*CONN
*I *2795:B1 I *D sky130_fd_sc_hd__a22o_1
*I *2704:A3 I *D sky130_fd_sc_hd__a31o_1
*I *2766:A3 I *D sky130_fd_sc_hd__a31o_1
*I *2706:B1 I *D sky130_fd_sc_hd__a22o_1
*I *2768:B1 I *D sky130_fd_sc_hd__a22o_1
*I *2726:A2 I *D sky130_fd_sc_hd__a21o_1
*I *2804:B1 I *D sky130_fd_sc_hd__a221o_1
*I *2717:B1 I *D sky130_fd_sc_hd__a22o_1
*I *2702:X O *D sky130_fd_sc_hd__and4b_4
*CAP
1 *2795:B1 0
2 *2704:A3 0.000225448
3 *2766:A3 0
4 *2706:B1 0.000217685
5 *2768:B1 2.11983e-05
6 *2726:A2 0.000249095
7 *2804:B1 0
8 *2717:B1 0.000599403
9 *2702:X 0.00101762
10 *202:121 0.000958108
11 *202:96 0.00102297
12 *202:83 0.00101574
13 *202:53 0.000558538
14 *202:30 0.00229919
15 *202:22 0.00314695
16 *202:16 0.0018523
17 *2704:A3 *2704:A1 9.34789e-05
18 *2704:A3 *3008:A 0.000127776
19 *2704:A3 *511:126 0.000193698
20 *2706:B1 *2706:A1 8.40213e-05
21 *2706:B1 *2710:A2 1.74678e-05
22 *2706:B1 *742:45 3.13474e-05
23 *2717:B1 *2717:A2 8.82017e-05
24 *2717:B1 *2717:B2 0.000216066
25 *2717:B1 *2732:A1 0.000504093
26 *2717:B1 *2830:A0 7.03276e-05
27 *2717:B1 *2913:A 0.000112714
28 *2717:B1 *3419:A 0.000131524
29 *2717:B1 *208:47 0.000180622
30 *2717:B1 *218:63 5.16348e-05
31 *2717:B1 *320:51 0.000134756
32 *2717:B1 *324:30 0.000289205
33 *2726:A2 *2726:A1 9.91257e-05
34 *2726:A2 *2726:B1 4.00541e-06
35 *2726:A2 *2728:A2 0.000295984
36 *2726:A2 *2732:A2 1.44259e-05
37 *2726:A2 *2804:B2 1.37864e-05
38 *2726:A2 *2804:C1 6.60257e-06
39 *2726:A2 *2914:A0 3.64998e-06
40 *2726:A2 *2914:A1 0.000112123
41 *2726:A2 *349:38 0.00040332
42 *2726:A2 *372:61 0.000201503
43 *2726:A2 *405:66 0
44 *2726:A2 *682:22 0.000103179
45 *2768:B1 *2768:A2 4.82919e-05
46 *202:16 *2795:A1 2.75229e-05
47 *202:16 *2795:A2 4.66108e-05
48 *202:16 *2795:B2 1.10085e-05
49 *202:16 *2796:A1 0.000159747
50 *202:16 *2796:B1 0.000273532
51 *202:22 *2898:A 2.87867e-05
52 *202:22 *2908:A 0.000453142
53 *202:22 *3381:A 0.000114649
54 *202:22 *321:107 0.000368122
55 *202:22 *358:37 0.00121452
56 *202:22 *358:48 0.000886546
57 *202:22 *362:35 0.000201539
58 *202:22 *742:10 0
59 *202:30 *2732:A1 6.2939e-05
60 *202:30 *2754:A 0.000687064
61 *202:30 *2900:A 5.0751e-05
62 *202:30 *2913:A 0.000518214
63 *202:30 *2916:A0 3.86529e-05
64 *202:30 *2985:A 0.000240416
65 *202:30 *3071:A 9.2741e-05
66 *202:30 *3071:B 2.26018e-05
67 *202:30 *320:64 0
68 *202:30 *366:20 1.32017e-05
69 *202:30 *488:6 0.000239813
70 *202:53 *2732:B1 2.92038e-05
71 *202:53 *2804:C1 3.69113e-05
72 *202:53 *2809:B1 6.55406e-05
73 *202:53 *3436:A 0.000135487
74 *202:53 *356:79 0
75 *202:83 *2768:A1 0.000179277
76 *202:83 *2768:B2 9.50342e-06
77 *202:83 *2994:A 2.67022e-05
78 *202:83 *3066:A 5.02217e-05
79 *202:83 *3180:CLK 0.000153655
80 *202:83 *208:104 4.69088e-05
81 *202:83 *215:119 7.91531e-05
82 *202:83 *343:66 0
83 *202:83 *358:48 8.07213e-05
84 *202:83 *475:59 0.000127188
85 *202:83 *742:10 0.000472667
86 *202:96 *2768:A1 4.43871e-06
87 *202:96 *2768:B2 0.000126679
88 *202:96 *3120:A0 3.39151e-05
89 *202:121 *2704:A1 2.0851e-06
90 *202:121 *2706:B2 0
91 *202:121 *2710:A2 0.000538544
92 *202:121 *2769:B1 0.000239698
93 *202:121 *2770:C 0
94 *2702:A_N *202:16 3.32489e-05
95 *2704:A2 *202:121 0
96 *2727:A2 *202:53 5.85626e-05
97 *2766:A2 *202:121 0.00013646
98 *2769:B2 *202:121 9.78003e-05
99 *2796:A2 *202:16 0.000280633
100 *3154:D *2717:B1 0.000112087
101 *3175:D *202:121 1.56428e-05
102 *3178:D *202:83 5.63318e-05
103 *3180:D *202:83 0.000135416
104 *177:33 *202:121 1.16578e-05
105 *177:37 *202:121 4.82919e-05
106 *197:94 *2726:A2 1.89226e-05
107 *197:94 *202:30 0
108 *197:94 *202:53 9.20531e-05
*RES
1 *2702:X *202:16 16.27 
2 *202:16 *202:22 27.8 
3 *202:22 *202:30 28 
4 *202:30 *2717:B1 21.285 
5 *202:30 *202:53 10.195 
6 *202:53 *2804:B1 3.6 
7 *202:53 *2726:A2 15.85 
8 *202:22 *202:83 22.035 
9 *202:83 *2768:B1 4.05 
10 *202:83 *202:96 3.635 
11 *202:96 *2706:B1 4.495 
12 *202:96 *202:121 18.55 
13 *202:121 *2766:A3 1.6 
14 *202:121 *2704:A3 7.495 
15 *202:16 *2795:B1 1.6 
*END

*D_NET *203 0.000777978
*CONN
*I *2704:B1 I *D sky130_fd_sc_hd__a31o_1
*I *2703:X O *D sky130_fd_sc_hd__and3_1
*CAP
1 *2704:B1 0.000171629
2 *2703:X 0.000171629
3 *2704:B1 *2703:A 0.000122337
4 *2704:B1 *2704:A1 1.73877e-05
5 *2704:B1 *3008:A 0.000134134
6 *2704:B1 *419:39 9.11408e-05
7 *2704:B1 *753:31 6.3889e-05
8 *2704:B1 *753:45 5.83121e-06
*RES
1 *2703:X *2704:B1 11.295 
*END

*D_NET *204 0.00162741
*CONN
*I *2705:D I *D sky130_fd_sc_hd__or4_1
*I *2704:X O *D sky130_fd_sc_hd__a31o_1
*CAP
1 *2705:D 0.000409158
2 *2704:X 0.000409158
3 *2705:D *2762:B1 9.30717e-05
4 *2705:D *2762:C1 9.30717e-05
5 *2705:D *348:128 9.42224e-05
6 *2705:D *430:68 5.76626e-05
7 *2705:D *511:126 0.000383652
8 *2699:A3 *2705:D 2.42148e-05
9 *2705:A *2705:D 3.22681e-05
10 *2705:B *2705:D 3.09364e-05
11 *181:35 *2705:D 0
*RES
1 *2704:X *2705:D 14.73 
*END

*D_NET *205 0.00173063
*CONN
*I *2722:B1 I *D sky130_fd_sc_hd__a2111o_1
*I *2705:X O *D sky130_fd_sc_hd__or4_1
*CAP
1 *2722:B1 0.000434163
2 *2705:X 0.000434163
3 *2722:B1 *2770:A 1.91597e-05
4 *2722:B1 *2770:B 6.32369e-05
5 *2722:B1 *2770:C 3.21634e-05
6 *2722:B1 *2770:D 4.89295e-05
7 *2722:B1 *2792:B1 0.000153816
8 *2722:B1 *430:68 0.00030615
9 *2722:B1 *885:10 4.41506e-05
10 *2722:A1 *2722:B1 0.000194694
*RES
1 *2705:X *2722:B1 12.65 
*END

*D_NET *206 0.00323263
*CONN
*I *2710:A2 I *D sky130_fd_sc_hd__a22o_1
*I *2706:X O *D sky130_fd_sc_hd__a22o_1
*CAP
1 *2710:A2 0.000683752
2 *2706:X 0.000683752
3 *2710:A2 *2722:D1 0.000160651
4 *2710:A2 *2984:A 0.000126399
5 *2710:A2 *443:122 0.000425815
6 *2710:A2 *597:10 0.00045762
7 *2710:A2 *597:49 0
8 *2710:A2 *886:10 0.000124895
9 *2706:B1 *2710:A2 1.74678e-05
10 *193:40 *2710:A2 1.37328e-05
11 *202:121 *2710:A2 0.000538544
*RES
1 *2706:X *2710:A2 23.07 
*END

*D_NET *207 0.0261872
*CONN
*I *2737:A2 I *D sky130_fd_sc_hd__a31o_1
*I *2709:A2 I *D sky130_fd_sc_hd__a22o_1
*I *2767:A2 I *D sky130_fd_sc_hd__a22o_1
*I *2734:A2 I *D sky130_fd_sc_hd__a22o_1
*I *2785:A2 I *D sky130_fd_sc_hd__a22o_1
*I *2788:A2 I *D sky130_fd_sc_hd__a31o_1
*I *2714:A2 I *D sky130_fd_sc_hd__a221o_1
*I *2797:A2 I *D sky130_fd_sc_hd__a22o_1
*I *2707:X O *D sky130_fd_sc_hd__and4bb_4
*CAP
1 *2737:A2 0
2 *2709:A2 0
3 *2767:A2 0.000315362
4 *2734:A2 0.000281957
5 *2785:A2 1.86374e-05
6 *2788:A2 7.55954e-05
7 *2714:A2 0
8 *2797:A2 0.000680222
9 *2707:X 0.000356957
10 *207:159 0.0012199
11 *207:117 0.00179392
12 *207:103 0.00249749
13 *207:84 0.000359786
14 *207:80 0.0013359
15 *207:42 0.00105715
16 *207:28 0.00188521
17 *2734:A2 *2734:A1 0.000208032
18 *2734:A2 *2785:A1 8.46818e-05
19 *2734:A2 *3028:A 0.000155582
20 *2734:A2 *3416:A 9.47778e-05
21 *2734:A2 *764:64 0.000656177
22 *2734:A2 *846:10 0.000283968
23 *2767:A2 *2709:B1 5.4155e-06
24 *2767:A2 *2767:A1 3.48915e-05
25 *2767:A2 *2767:B1 4.9657e-05
26 *2767:A2 *2767:B2 8.98061e-05
27 *2767:A2 *2769:A2 1.19928e-05
28 *2767:A2 *2963:A 5.58436e-05
29 *2767:A2 *208:154 1.56428e-05
30 *2785:A2 *2785:B1 3.5678e-06
31 *2788:A2 *2788:A1 1.08758e-05
32 *2797:A2 *2578:B 3.31282e-05
33 *2797:A2 *2582:A 0.000124007
34 *2797:A2 *2793:A1 0.000293726
35 *2797:A2 *2798:B2 5.14477e-05
36 *2797:A2 *2799:B1 5.60203e-05
37 *2797:A2 *2800:A3 0.000226848
38 *2797:A2 *211:38 3.5168e-05
39 *2797:A2 *527:24 0.000601942
40 *2797:A2 *527:38 2.03241e-05
41 *2797:A2 *854:16 6.48748e-05
42 *207:28 *2918:A 3.70733e-05
43 *207:28 *2918:D_N 0.000160641
44 *207:28 *2930:C 8.73147e-06
45 *207:28 *2930:D_N 0.000113846
46 *207:28 *2954:A 0.000124674
47 *207:28 *2954:C 0.000140595
48 *207:28 *3462:A 4.66108e-05
49 *207:28 *3468:A 5.55258e-05
50 *207:28 *318:99 3.66286e-05
51 *207:28 *362:16 0.000128099
52 *207:28 *393:12 0.000153004
53 *207:28 *413:10 4.82919e-05
54 *207:28 *720:18 0.000146733
55 *207:42 *2573:A 3.86096e-05
56 *207:42 *2721:A1 0.000221843
57 *207:42 *2794:B1 0.000113373
58 *207:42 *211:32 1.16578e-05
59 *207:42 *211:38 4.6703e-05
60 *207:42 *352:24 2.30292e-05
61 *207:42 *362:16 0.00023468
62 *207:42 *374:45 0.000249214
63 *207:42 *569:10 0.000306308
64 *207:42 *854:16 0.000202974
65 *207:80 *2811:A1 0.000395582
66 *207:80 *2811:A2 0.000140438
67 *207:80 *2811:A3 0.000257944
68 *207:80 *2896:A 0.000186026
69 *207:80 *2908:B_N 0.000914341
70 *207:80 *3149:CLK 0.000116158
71 *207:80 *3457:A 0
72 *207:80 *231:20 3.09233e-05
73 *207:80 *231:30 0.000460123
74 *207:80 *316:82 0.000112169
75 *207:80 *348:44 3.86607e-05
76 *207:80 *356:67 8.22649e-05
77 *207:80 *362:16 1.58293e-05
78 *207:80 *372:22 0
79 *207:80 *374:45 0
80 *207:80 *382:10 0
81 *207:80 *397:18 0
82 *207:84 *2740:B1 0.000135533
83 *207:84 *2788:A3 4.96249e-05
84 *207:84 *231:20 1.75056e-05
85 *207:84 *372:18 0
86 *207:84 *372:22 0
87 *207:103 *2788:B1 0.000118991
88 *207:103 *372:18 0
89 *207:117 *2733:A1 1.54665e-05
90 *207:117 *2733:A2 0.000162814
91 *207:117 *2733:B2 2.88357e-05
92 *207:117 *2792:D1 8.46768e-05
93 *207:117 *2973:A 0.00014411
94 *207:117 *3061:A 0.000609326
95 *207:117 *3063:A 0.000346161
96 *207:117 *482:10 0.000232985
97 *207:159 *2709:A1 0.000169689
98 *207:159 *2787:A 0.000251396
99 *207:159 *2791:B1 5.0096e-05
100 *207:159 *2792:B1 3.21271e-05
101 *207:159 *2792:D1 8.35118e-05
102 *207:159 *2811:A1 8.49496e-05
103 *207:159 *2963:A 0.000117832
104 *207:159 *3369:A 0.00028469
105 *207:159 *362:60 0.000243232
106 *207:159 *419:10 7.70828e-05
107 *207:159 *428:65 0.000242837
108 *207:159 *881:10 2.4997e-05
109 *207:159 *882:10 3.34652e-05
110 *2733:B1 *207:117 3.5678e-06
111 *2749:A3 *207:84 7.26758e-05
112 *2787:B *207:159 2.97511e-05
113 *2792:A1 *207:159 3.84409e-05
114 *2797:B1 *2797:A2 1.76441e-05
115 *2798:B1 *2797:A2 0.000204432
116 *3148:D *207:80 0.000312434
117 *3204:D *207:117 0.000197243
118 *3470:A *207:28 6.60907e-06
119 *180:28 *207:28 9.11681e-05
120 *185:10 *207:28 0.000104063
121 *185:10 *207:42 5.83121e-06
122 *185:12 *207:42 0.000132415
123 *193:54 *207:159 0.000257247
124 *193:56 *207:84 0.000106331
125 *193:56 *207:103 0.000180765
126 *193:56 *207:159 5.0096e-05
127 *197:84 *207:117 8.28018e-06
128 *197:88 *207:117 0.000180525
*RES
1 *2707:X *207:28 16.355 
2 *207:28 *207:42 15.8725 
3 *207:42 *2797:A2 20.3525 
4 *207:42 *2714:A2 1.6 
5 *207:28 *207:80 30.965 
6 *207:80 *207:84 4.125 
7 *207:84 *2788:A2 4.77 
8 *207:84 *207:103 4.505 
9 *207:103 *207:117 28.05 
10 *207:117 *2785:A2 1.96 
11 *207:117 *2734:A2 14.855 
12 *207:103 *207:159 27.65 
13 *207:159 *2767:A2 6.25 
14 *207:159 *2709:A2 1.6 
15 *207:80 *2737:A2 3.6 
*END

*D_NET *208 0.0246923
*CONN
*I *2767:B1 I *D sky130_fd_sc_hd__a22o_1
*I *2709:B1 I *D sky130_fd_sc_hd__a22o_1
*I *2784:A2 I *D sky130_fd_sc_hd__a22o_1
*I *2735:A2 I *D sky130_fd_sc_hd__a211o_1
*I *2795:A2 I *D sky130_fd_sc_hd__a22o_1
*I *2806:A2 I *D sky130_fd_sc_hd__a221o_1
*I *2728:B1 I *D sky130_fd_sc_hd__a22o_1
*I *2717:A2 I *D sky130_fd_sc_hd__a22o_1
*I *2708:X O *D sky130_fd_sc_hd__and4bb_4
*CAP
1 *2767:B1 5.4363e-05
2 *2709:B1 1.58683e-05
3 *2784:A2 9.68534e-05
4 *2735:A2 0.000320814
5 *2795:A2 2.61242e-05
6 *2806:A2 2.7242e-05
7 *2728:B1 0.000177427
8 *2717:A2 7.88117e-05
9 *2708:X 0.000720924
10 *208:154 0.00125354
11 *208:121 0.00136958
12 *208:104 0.00155071
13 *208:73 0.0012214
14 *208:47 0.00103931
15 *208:24 0.00152624
16 *208:18 0.0013885
17 *2709:B1 *2767:A1 4.87171e-06
18 *2709:B1 *2767:B2 4.00541e-06
19 *2717:A2 *3296:A 0.000191757
20 *2717:A2 *218:63 5.16348e-05
21 *2717:A2 *591:52 9.50342e-06
22 *2728:B1 *2728:A1 5.60303e-05
23 *2728:B1 *2728:A2 0.000140552
24 *2728:B1 *764:64 3.14366e-05
25 *2735:A2 *2735:C1 0
26 *2735:A2 *2740:A2 3.01692e-05
27 *2735:A2 *3076:A 1.41095e-05
28 *2735:A2 *3180:CLK 0.000133977
29 *2735:A2 *473:74 8.23457e-05
30 *2735:A2 *607:62 1.41095e-05
31 *2767:B1 *2767:A1 0.000209896
32 *2767:B1 *2767:B2 5.65372e-05
33 *2784:A2 *2784:A1 1.52352e-05
34 *2784:A2 *2784:B1 4.26786e-05
35 *2784:A2 *2784:B2 0.000103092
36 *2806:A2 *2806:B2 1.98826e-05
37 *208:18 *2721:A1 4.82919e-05
38 *208:18 *2721:A2 0.000268734
39 *208:18 *2908:B_N 0.000152236
40 *208:18 *215:54 5.85443e-05
41 *208:18 *221:8 7.91708e-05
42 *208:18 *327:99 0.000102105
43 *208:18 *348:28 0.000559395
44 *208:18 *348:44 4.15739e-05
45 *208:18 *358:37 0.00019251
46 *208:24 *355:40 5.61482e-05
47 *208:24 *409:34 0.00136894
48 *208:24 *413:26 0.00039259
49 *208:47 *2806:B2 8.23457e-05
50 *208:47 *2808:A 5.30673e-05
51 *208:47 *2808:C 1.61831e-05
52 *208:47 *320:51 7.41023e-05
53 *208:47 *324:30 0.000498621
54 *208:47 *343:51 0.000380307
55 *208:47 *363:26 0.000266917
56 *208:73 *327:97 5.92191e-05
57 *208:73 *327:99 1.86013e-05
58 *208:73 *358:37 0.000138317
59 *208:104 *2876:A 0.000194547
60 *208:104 *2908:B_N 1.17701e-05
61 *208:104 *3076:A 0.000267557
62 *208:104 *3180:CLK 0.000119251
63 *208:104 *327:91 0.0002829
64 *208:104 *327:97 0.000243238
65 *208:104 *343:66 0.000841461
66 *208:104 *358:37 0.001212
67 *208:104 *358:48 0.000923894
68 *208:104 *500:91 0
69 *208:104 *601:109 4.2858e-05
70 *208:104 *742:10 4.72867e-05
71 *208:121 *2784:B2 0
72 *208:121 *742:10 0.000130313
73 *208:154 *2710:B1 4.99619e-05
74 *208:154 *2767:A1 9.49027e-05
75 *208:154 *2784:A1 0.000240714
76 *208:154 *2792:B1 2.24968e-05
77 *208:154 *2963:A 0.000732058
78 *208:154 *3428:A 0.000225182
79 *208:154 *3454:A 4.82863e-05
80 *208:154 *500:91 0
81 *208:154 *742:10 0.000900273
82 *208:154 *881:10 2.97004e-06
83 *2708:A_N *208:18 7.25441e-05
84 *2708:C *208:18 2.30292e-05
85 *2708:D *208:18 8.65905e-05
86 *2717:B1 *2717:A2 8.82017e-05
87 *2717:B1 *208:47 0.000180622
88 *2767:A2 *2709:B1 5.4155e-06
89 *2767:A2 *2767:B1 4.9657e-05
90 *2767:A2 *208:154 1.56428e-05
91 *2792:A1 *208:154 7.18452e-06
92 *2806:B1 *2806:A2 5.18856e-05
93 *2806:B1 *208:47 0.000129107
94 *3140:D *208:104 9.21068e-05
95 *3154:D *208:47 1.56428e-05
96 *3180:D *208:104 4.90227e-05
97 *3248:D *208:47 2.66935e-05
98 *171:41 *208:18 8.40269e-05
99 *202:16 *2795:A2 4.66108e-05
100 *202:83 *208:104 4.69088e-05
*RES
1 *2708:X *208:18 20.1825 
2 *208:18 *208:24 3.1356 
3 *208:24 *2717:A2 6.1275 
4 *208:24 *208:47 21.8375 
5 *208:47 *2728:B1 8.57 
6 *208:47 *2806:A2 2.39125 
7 *208:18 *208:73 1.7625 
8 *208:73 *2795:A2 4.05 
9 *208:73 *208:104 37.72 
10 *208:104 *2735:A2 8.58 
11 *208:104 *208:121 1.635 
12 *208:121 *2784:A2 5.91 
13 *208:121 *208:154 30.795 
14 *208:154 *2709:B1 1.96 
15 *208:154 *2767:B1 3.895 
*END

*D_NET *209 0.00065001
*CONN
*I *2710:B1 I *D sky130_fd_sc_hd__a22o_1
*I *2709:X O *D sky130_fd_sc_hd__a22o_1
*CAP
1 *2710:B1 0.000148454
2 *2709:X 0.000148454
3 *2710:B1 *2755:B1 1.80324e-05
4 *2710:B1 *397:59 8.15598e-05
5 *2792:A1 *2710:B1 0.000203547
6 *208:154 *2710:B1 4.99619e-05
*RES
1 *2709:X *2710:B1 10.815 
*END

*D_NET *210 0.000470786
*CONN
*I *2722:C1 I *D sky130_fd_sc_hd__a2111o_1
*I *2710:X O *D sky130_fd_sc_hd__a22o_1
*CAP
1 *2722:C1 7.20214e-05
2 *2710:X 7.20214e-05
3 *2722:C1 *2722:D1 0.000120655
4 *2722:C1 *2983:A1 3.59997e-05
5 *2722:C1 *397:59 4.94326e-05
6 *2722:C1 *885:10 0.000120655
*RES
1 *2710:X *2722:C1 9.465 
*END

*D_NET *211 0.02969
*CONN
*I *2773:B I *D sky130_fd_sc_hd__and3_1
*I *2745:B I *D sky130_fd_sc_hd__and3_1
*I *2782:A3 I *D sky130_fd_sc_hd__a31o_1
*I *2747:A3 I *D sky130_fd_sc_hd__a31o_1
*I *2714:B1 I *D sky130_fd_sc_hd__a221o_1
*I *2723:B1 I *D sky130_fd_sc_hd__a22o_1
*I *2801:B1 I *D sky130_fd_sc_hd__a22o_1
*I *2799:A2 I *D sky130_fd_sc_hd__a211o_1
*I *2711:X O *D sky130_fd_sc_hd__and4b_4
*CAP
1 *2773:B 0.000259151
2 *2745:B 0
3 *2782:A3 0.000223475
4 *2747:A3 0.000456246
5 *2714:B1 0
6 *2723:B1 0.000175979
7 *2801:B1 0.000179334
8 *2799:A2 6.62083e-05
9 *2711:X 2.01995e-05
10 *211:170 0.000975099
11 *211:124 0.000981625
12 *211:122 0.00251329
13 *211:65 0.00217969
14 *211:38 0.00274335
15 *211:32 0.00298613
16 *211:8 0.00364901
17 *2723:B1 *2723:A1 1.5285e-05
18 *2723:B1 *2723:B2 1.75875e-05
19 *2723:B1 *2801:A2 6.88971e-05
20 *2723:B1 *349:119 0.000103627
21 *2723:B1 *414:10 4.82863e-05
22 *2747:A3 *2747:B1 4.41939e-05
23 *2747:A3 *2754:B 7.50977e-05
24 *2747:A3 *2754:C 0.000267043
25 *2747:A3 *2974:S 4.12408e-05
26 *2747:A3 *2985:A 0.000283203
27 *2747:A3 *3366:A 4.21973e-05
28 *2747:A3 *888:6 2.75145e-05
29 *2773:B *2775:A 3.25571e-05
30 *2773:B *2775:B 9.12494e-06
31 *2773:B *479:10 0.000147294
32 *2773:B *511:102 2.34758e-05
33 *2782:A3 *2754:D 3.08712e-05
34 *2782:A3 *2783:D 0
35 *2799:A2 *2799:B1 3.60024e-06
36 *2799:A2 *527:50 6.74079e-05
37 *2801:B1 *2801:A2 0.000270089
38 *2801:B1 *2945:A 4.18398e-05
39 *211:8 *805:16 8.40213e-05
40 *211:8 *806:18 8.40213e-05
41 *211:32 *2711:D 1.52184e-05
42 *211:32 *2713:B2 0
43 *211:32 *2714:B2 1.12643e-05
44 *211:32 *2714:C1 0.000112057
45 *211:32 *2888:A 7.22354e-05
46 *211:32 *2936:A 8.23535e-05
47 *211:32 *2936:B 8.8266e-05
48 *211:32 *2936:C 7.06865e-05
49 *211:32 *2942:A 1.17309e-05
50 *211:32 *2942:B 0.000103546
51 *211:32 *2942:D_N 8.49205e-05
52 *211:32 *3267:D 9.00196e-05
53 *211:32 *3267:RESET_B 7.40482e-06
54 *211:32 *3271:RESET_B 3.14522e-05
55 *211:32 *3427:A 7.66083e-05
56 *211:32 *322:48 7.06865e-05
57 *211:32 *352:24 6.38385e-05
58 *211:32 *405:18 1.51976e-05
59 *211:32 *527:110 0.000271327
60 *211:32 *675:12 7.47457e-05
61 *211:32 *675:16 9.79383e-05
62 *211:32 *780:77 9.70699e-05
63 *211:32 *854:16 4.82919e-05
64 *211:38 *2612:A0 0.000569265
65 *211:38 *352:24 2.86265e-06
66 *211:38 *854:16 3.87112e-05
67 *211:65 *2611:A 0.000146392
68 *211:65 *2612:A0 0.000183447
69 *211:65 *2801:A1 0
70 *211:65 *2801:A2 1.0183e-05
71 *211:65 *2830:A1 5.05521e-05
72 *211:65 *2944:A1 2.87867e-05
73 *211:65 *2944:S 7.67552e-05
74 *211:65 *2946:A1 0.000120186
75 *211:65 *2951:A 0
76 *211:65 *3426:A 0.000155601
77 *211:65 *316:96 0.000284171
78 *211:65 *349:119 0.000248261
79 *211:65 *352:24 0.000131389
80 *211:65 *527:50 3.31204e-05
81 *211:65 *895:10 0.000241483
82 *211:65 *900:10 8.09021e-06
83 *211:122 *2628:A 5.83121e-06
84 *211:122 *2711:D 1.52184e-05
85 *211:122 *2754:C 0.000170323
86 *211:122 *2774:C 0.000168673
87 *211:122 *2988:S 0
88 *211:122 *218:20 4.11198e-05
89 *211:122 *218:152 0.00202674
90 *211:122 *231:14 2.74318e-05
91 *211:122 *322:24 0.000159957
92 *211:122 *352:100 0.000501463
93 *211:122 *417:39 0
94 *211:122 *527:110 0.000216643
95 *211:122 *591:86 0.000206123
96 *211:122 *780:77 0
97 *211:122 *780:90 0
98 *211:122 *929:12 0.000199973
99 *211:124 *2754:C 0.000365264
100 *211:124 *2988:A0 1.19928e-05
101 *211:170 *2988:A0 5.6361e-05
102 *211:170 *2989:A 2.07001e-05
103 *211:170 *3056:A 8.73389e-06
104 *211:170 *3387:A 5.76167e-05
105 *211:170 *473:18 1.56428e-05
106 *211:170 *473:33 1.83847e-05
107 *211:170 *479:10 0.000381974
108 *2672:D *211:122 7.01715e-05
109 *2723:A2 *2723:B1 1.85674e-05
110 *2797:A2 *211:38 3.5168e-05
111 *3165:D *211:65 0.000249921
112 *3256:D *211:65 4.99619e-05
113 *3258:D *211:38 5.01066e-05
114 *3458:A *211:122 3.03222e-05
115 *172:10 *211:122 3.63701e-06
116 *176:16 *2773:B 0.000158564
117 *177:135 *2782:A3 9.86611e-05
118 *183:10 *211:122 0.000449292
119 *183:23 *211:122 7.63204e-05
120 *183:110 *211:122 0.000501434
121 *207:42 *211:32 1.16578e-05
122 *207:42 *211:38 4.6703e-05
*RES
1 *2711:X *211:8 4.395 
2 *211:8 *211:32 39.46 
3 *211:32 *211:38 12.815 
4 *211:38 *2799:A2 4.98 
5 *211:38 *211:65 38.035 
6 *211:65 *2801:B1 6.81 
7 *211:65 *2723:B1 7.455 
8 *211:32 *2714:B1 1.6 
9 *211:8 *211:122 45.9695 
10 *211:122 *211:124 3.9 
11 *211:124 *2747:A3 14.405 
12 *211:124 *2782:A3 10.07 
13 *211:122 *211:170 8.73 
14 *211:170 *2745:B 1.6 
15 *211:170 *2773:B 9.44 
*END

*D_NET *212 0.0195078
*CONN
*I *2778:B I *D sky130_fd_sc_hd__and3_1
*I *2736:C I *D sky130_fd_sc_hd__and3_1
*I *2787:C I *D sky130_fd_sc_hd__and3_1
*I *2749:A2 I *D sky130_fd_sc_hd__a31o_1
*I *2739:A2 I *D sky130_fd_sc_hd__a32o_1
*I *2790:A2 I *D sky130_fd_sc_hd__a32o_1
*I *2793:A2 I *D sky130_fd_sc_hd__a22o_1
*I *2713:B1 I *D sky130_fd_sc_hd__a22o_1
*I *2712:X O *D sky130_fd_sc_hd__and4bb_4
*CAP
1 *2778:B 0.000527066
2 *2736:C 0
3 *2787:C 0.000212716
4 *2749:A2 0
5 *2739:A2 4.65399e-05
6 *2790:A2 6.32751e-05
7 *2793:A2 0.000437562
8 *2713:B1 0
9 *2712:X 0.000631081
10 *212:113 0.00113429
11 *212:109 0.00165234
12 *212:92 0.000796654
13 *212:73 0.000799254
14 *212:56 0.00117343
15 *212:26 0.000854535
16 *212:14 0.00199844
17 *2739:A2 *2904:A 1.50225e-05
18 *2739:A2 *2905:A0 4.90253e-05
19 *2739:A2 *2905:S 4.21973e-05
20 *2778:B *2977:S 0.000229512
21 *2778:B *473:43 0.000564809
22 *2787:C *2787:A 4.66108e-05
23 *2787:C *2791:C1 4.27429e-05
24 *2787:C *2811:A1 7.00456e-05
25 *2787:C *215:148 0.000142514
26 *2790:A2 *2790:B1 1.59999e-05
27 *2790:A2 *2919:B 3.64099e-05
28 *2790:A2 *560:22 0
29 *2790:A2 *914:10 8.40269e-05
30 *2793:A2 *2793:B1 4.41293e-05
31 *2793:A2 *316:82 0.000120186
32 *2793:A2 *405:18 0.000198652
33 *2793:A2 *405:35 0.000104341
34 *212:14 *2686:D_N 0.000385993
35 *212:14 *215:16 0.000416909
36 *212:14 *322:48 0.000110299
37 *212:14 *804:19 4.5368e-05
38 *212:14 *804:68 1.23268e-05
39 *212:26 *2907:D 5.26505e-05
40 *212:26 *215:16 0.00011577
41 *212:26 *322:66 5.43173e-05
42 *212:26 *339:91 9.55454e-05
43 *212:26 *362:16 0.000146512
44 *212:56 *2599:B 0.000117016
45 *212:56 *2790:A1 1.70935e-05
46 *212:56 *318:58 0
47 *212:56 *318:99 0
48 *212:56 *378:35 0.000320922
49 *212:56 *393:31 4.10263e-05
50 *212:56 *528:68 0
51 *212:73 *2739:A1 0.000114814
52 *212:73 *2790:A1 6.34101e-06
53 *212:73 *2904:A 1.95781e-05
54 *212:73 *378:56 0.000184937
55 *212:73 *914:10 0.000181376
56 *212:92 *2739:B1 0.000387604
57 *212:92 *2749:A1 8.7152e-06
58 *212:92 *2755:B2 0.000454194
59 *212:92 *2905:A0 3.74864e-06
60 *212:92 *2905:S 4.21973e-05
61 *212:109 *2749:A1 0.000314648
62 *212:109 *2977:S 0.000133606
63 *212:109 *417:58 1.32026e-05
64 *212:113 *2746:C 1.70906e-05
65 *212:113 *2791:C1 0.000146208
66 *212:113 *2973:B 2.49909e-05
67 *212:113 *417:58 0.000549742
68 *2685:C *212:56 0.000174555
69 *2702:A_N *212:56 1.0129e-05
70 *2738:A2 *212:92 8.58063e-05
71 *2739:B2 *212:92 0.000118081
72 *2787:B *2787:C 6.88204e-05
73 *171:52 *212:56 0.000176519
74 *174:92 *2790:A2 0
75 *174:102 *212:56 0.000847765
76 *174:102 *212:73 8.53113e-06
77 *176:20 *212:109 0.000120989
78 *176:31 *212:113 3.84244e-05
79 *181:35 *212:92 0.000846523
80 *181:35 *212:109 0.000343561
*RES
1 *2712:X *212:14 17.45 
2 *212:14 *212:26 11.395 
3 *212:26 *2713:B1 1.6 
4 *212:26 *2793:A2 13.265 
5 *212:14 *212:56 22.25 
6 *212:56 *2790:A2 5.1 
7 *212:56 *212:73 6.545 
8 *212:73 *2739:A2 2.755 
9 *212:73 *212:92 18.485 
10 *212:92 *2749:A2 3.6 
11 *212:92 *212:109 10.195 
12 *212:109 *212:113 13.55 
13 *212:113 *2787:C 9.83 
14 *212:113 *2736:C 1.6 
15 *212:109 *2778:B 11.79 
*END

*D_NET *213 0.000793788
*CONN
*I *2714:C1 I *D sky130_fd_sc_hd__a221o_1
*I *2713:X O *D sky130_fd_sc_hd__a22o_1
*CAP
1 *2714:C1 0.000150176
2 *2713:X 0.000150176
3 *2714:C1 *2573:A 3.22182e-05
4 *2714:C1 *2713:A1 2.83801e-05
5 *2714:C1 *2713:B2 0
6 *2714:C1 *2714:B2 4.43871e-06
7 *2714:C1 *316:82 7.23602e-05
8 *2714:C1 *316:96 0.0001101
9 *2714:C1 *352:24 2.75145e-05
10 *2714:C1 *374:45 3.23391e-05
11 *2714:C1 *405:18 7.4027e-05
12 *211:32 *2714:C1 0.000112057
*RES
1 *2713:X *2714:C1 11.325 
*END

*D_NET *214 0.0024488
*CONN
*I *2721:A1 I *D sky130_fd_sc_hd__o21a_1
*I *2714:X O *D sky130_fd_sc_hd__a221o_1
*CAP
1 *2721:A1 0.000484794
2 *2714:X 0.000484794
3 *2721:A1 *2794:A1 0.000241856
4 *2721:A1 *2794:B1 0.000113373
5 *2721:A1 *2800:A1 0.000149165
6 *2721:A1 *2800:A3 0.000509792
7 *2721:A1 *352:24 8.57024e-05
8 *2721:A1 *374:45 1.74609e-05
9 *2721:A1 *854:16 9.17274e-05
10 *207:42 *2721:A1 0.000221843
11 *208:18 *2721:A1 4.82919e-05
*RES
1 *2714:X *2721:A1 20.025 
*END

*D_NET *215 0.0314493
*CONN
*I *2777:C I *D sky130_fd_sc_hd__and3_1
*I *2746:C I *D sky130_fd_sc_hd__and3_1
*I *2784:B1 I *D sky130_fd_sc_hd__a22o_1
*I *2733:A2 I *D sky130_fd_sc_hd__a22o_1
*I *2751:B I *D sky130_fd_sc_hd__and3_1
*I *2803:B1 I *D sky130_fd_sc_hd__a22o_1
*I *2716:A2 I *D sky130_fd_sc_hd__a22o_1
*I *2798:A2 I *D sky130_fd_sc_hd__a22o_1
*I *2715:X O *D sky130_fd_sc_hd__and4b_4
*CAP
1 *2777:C 0.000740784
2 *2746:C 6.89191e-05
3 *2784:B1 0.000100472
4 *2733:A2 0.000473592
5 *2751:B 0.000317139
6 *2803:B1 0.0013453
7 *2716:A2 2.31791e-05
8 *2798:A2 0.000106954
9 *2715:X 0.000998546
10 *215:148 0.00227653
11 *215:119 0.00176828
12 *215:100 0.00150934
13 *215:79 0.00124138
14 *215:54 0.00246908
15 *215:24 0.000850821
16 *215:16 0.00275353
17 *2716:A2 *343:32 1.29127e-05
18 *2733:A2 *2733:A1 0.000272283
19 *2733:A2 *2735:B1 0.000104662
20 *2733:A2 *3061:A 0.000455109
21 *2733:A2 *482:10 0.000231826
22 *2746:C *2746:A 4.28112e-06
23 *2746:C *417:58 1.79445e-05
24 *2746:C *753:29 3.06667e-05
25 *2777:C *2777:A 0
26 *2777:C *2792:C1 0.00056014
27 *2777:C *2977:A1 7.03276e-05
28 *2777:C *3049:A 6.85806e-06
29 *2784:B1 *2784:A1 5.79713e-05
30 *2784:B1 *2784:B2 3.2172e-05
31 *2784:B1 *3180:CLK 5.83121e-06
32 *2798:A2 *2799:C1 8.97264e-05
33 *2798:A2 *343:32 6.30425e-05
34 *2798:A2 *527:38 2.8125e-05
35 *2803:B1 *2803:B2 1.67131e-05
36 *2803:B1 *231:52 0.000119841
37 *2803:B1 *320:64 0
38 *2803:B1 *324:24 7.05863e-06
39 *2803:B1 *343:51 0.000103483
40 *215:16 *2686:D_N 0.000350151
41 *215:16 *2879:C_N 9.58678e-06
42 *215:16 *218:20 0.000295263
43 *215:16 *318:58 1.7635e-05
44 *215:16 *322:48 0.000429155
45 *215:16 *339:91 0.000124007
46 *215:16 *401:22 0.00050609
47 *215:16 *528:37 0
48 *215:24 *2582:A 4.13879e-05
49 *215:24 *2716:B2 4.534e-05
50 *215:24 *3259:CLK 0
51 *215:24 *358:37 0.000522415
52 *215:24 *369:18 0
53 *215:24 *599:27 0
54 *215:54 *2566:A1 9.60582e-07
55 *215:54 *2572:A 0
56 *215:54 *2721:A2 9.23116e-05
57 *215:54 *2908:B_N 0.000318012
58 *215:54 *322:85 0.001272
59 *215:54 *327:97 0.00014225
60 *215:54 *327:99 0.000104
61 *215:54 *358:37 0.000660912
62 *215:54 *362:35 0
63 *215:54 *601:85 8.97727e-05
64 *215:54 *601:109 1.74182e-05
65 *215:54 *813:12 0.000116165
66 *215:79 *2908:B_N 0.000271847
67 *215:79 *322:85 1.92979e-05
68 *215:79 *322:104 0.000140963
69 *215:100 *2908:B_N 0.000924174
70 *215:100 *322:104 0.000277052
71 *215:100 *607:64 0
72 *215:100 *607:66 0
73 *215:100 *742:10 0.000635323
74 *215:100 *916:8 1.19928e-05
75 *215:119 *3061:A 7.26398e-05
76 *215:119 *3180:CLK 0.000153655
77 *215:119 *742:10 0.000312168
78 *215:148 *2792:C1 0.000136719
79 *215:148 *2997:A0 8.62994e-05
80 *215:148 *2997:A1 0.000170004
81 *215:148 *3076:A 0.000231815
82 *215:148 *3084:A0 0.000193666
83 *215:148 *3180:CLK 1.91597e-05
84 *215:148 *366:10 0.000135416
85 *215:148 *378:56 0.000303281
86 *2727:A2 *2803:B1 4.3603e-05
87 *2784:A2 *2784:B1 4.26786e-05
88 *2787:B *215:148 0.000193129
89 *2787:C *215:148 0.000142514
90 *2798:B1 *2716:A2 1.94284e-05
91 *2798:B1 *2798:A2 8.22183e-05
92 *2803:A2 *2803:B1 5.51574e-05
93 *3146:D *215:100 6.97358e-05
94 *3147:D *215:100 7.4027e-05
95 *3155:D *2803:B1 9.21068e-05
96 *3180:D *215:148 1.43717e-05
97 *3254:D *215:54 0.000133453
98 *3258:D *215:24 0
99 *3259:D *215:24 0
100 *177:135 *2777:C 0.000147537
101 *181:106 *2803:B1 0.000447147
102 *183:52 *2751:B 0.000456814
103 *202:83 *215:119 7.91531e-05
104 *207:117 *2733:A2 0.000162814
105 *208:18 *215:54 5.85443e-05
106 *212:14 *215:16 0.000416909
107 *212:26 *215:16 0.00011577
108 *212:113 *2746:C 1.70906e-05
*RES
1 *2715:X *215:16 18.2833 
2 *215:16 *215:24 7.90393 
3 *215:24 *2798:A2 6.0675 
4 *215:24 *2716:A2 4.0875 
5 *215:16 *215:54 29.335 
6 *215:54 *2803:B1 12.7633 
7 *215:54 *215:79 3.2925 
8 *215:79 *2751:B 7.845 
9 *215:79 *215:100 23.97 
10 *215:100 *2733:A2 11.395 
11 *215:100 *215:119 8.725 
12 *215:119 *2784:B1 3.445 
13 *215:119 *215:148 25.84 
14 *215:148 *2746:C 6.89 
15 *215:148 *2777:C 16.715 
*END

*D_NET *216 0.00206044
*CONN
*I *2720:A I *D sky130_fd_sc_hd__or3_1
*I *2716:X O *D sky130_fd_sc_hd__a22o_1
*CAP
1 *2720:A 0.000386417
2 *2716:X 0.000386417
3 *2720:A *2569:S 0.000158532
4 *2720:A *2799:C1 1.77665e-05
5 *2720:A *3241:CLK 0.000324671
6 *2720:A *343:32 0.000513607
7 *2720:A *405:35 0.000158532
8 *2720:A *527:50 0
9 *2720:A *541:12 0.000114492
*RES
1 *2716:X *2720:A 16.89 
*END

*D_NET *217 0.00229212
*CONN
*I *2720:B I *D sky130_fd_sc_hd__or3_1
*I *2717:X O *D sky130_fd_sc_hd__a22o_1
*CAP
1 *2720:B 0.000710312
2 *2717:X 0.000710312
3 *2720:B *2563:B 3.97171e-05
4 *2720:B *2569:A1 0
5 *2720:B *2569:S 2.49909e-05
6 *2720:B *2590:S 0
7 *2720:B *2591:A 7.01753e-05
8 *2720:B *3241:CLK 0
9 *2720:B *3390:A 6.08134e-05
10 *2720:B *343:51 1.88904e-05
11 *2720:B *401:22 0
12 *2720:B *500:115 2.28191e-05
13 *2720:B *528:37 2.97339e-05
14 *2720:B *591:30 0.000187444
15 *2720:B *601:12 4.66108e-05
16 *2720:B *764:30 9.04308e-05
17 *2720:B *814:10 9.14049e-05
18 *2797:B1 *2720:B 2.09665e-05
19 *187:16 *2720:B 0.000167502
*RES
1 *2717:X *2720:B 17.1872 
*END

*D_NET *218 0.0329482
*CONN
*I *2744:A3 I *D sky130_fd_sc_hd__a311o_1
*I *2774:C I *D sky130_fd_sc_hd__and3_1
*I *2793:B1 I *D sky130_fd_sc_hd__a22o_1
*I *2734:B1 I *D sky130_fd_sc_hd__a22o_1
*I *2785:B1 I *D sky130_fd_sc_hd__a22o_1
*I *2807:B1 I *D sky130_fd_sc_hd__a22o_1
*I *2724:B1 I *D sky130_fd_sc_hd__a221o_1
*I *2719:B1 I *D sky130_fd_sc_hd__a22o_1
*I *2718:X O *D sky130_fd_sc_hd__and4b_4
*CAP
1 *2744:A3 0.000145856
2 *2774:C 0.000506056
3 *2793:B1 5.1091e-05
4 *2734:B1 0.000486028
5 *2785:B1 0.000128186
6 *2807:B1 0
7 *2724:B1 0.000369294
8 *2719:B1 0.00013485
9 *2718:X 0.000102345
10 *218:152 0.00163651
11 *218:109 0.00150844
12 *218:92 0.00130725
13 *218:63 0.00162623
14 *218:36 0.00208529
15 *218:20 0.00336121
16 *218:10 0.00329053
17 *2719:B1 *2570:A 4.66108e-05
18 *2719:B1 *2719:A1 1.15688e-05
19 *2719:B1 *2719:B2 4.66108e-05
20 *2719:B1 *2830:A1 9.16315e-05
21 *2719:B1 *320:51 0.000261569
22 *2719:B1 *528:43 4.08514e-05
23 *2719:B1 *566:10 0.000122325
24 *2724:B1 *2724:A1 2.11084e-05
25 *2724:B1 *2801:A2 1.60083e-05
26 *2724:B1 *764:38 0.000269739
27 *2734:B1 *2734:B2 0.000559707
28 *2734:B1 *3038:A 0.000137364
29 *2734:B1 *3335:A 0.000154987
30 *2744:A3 *2744:C1 0
31 *2744:A3 *2749:B1 3.05943e-05
32 *2774:C *2754:C 2.40731e-05
33 *2774:C *2774:A 0.000222657
34 *2774:C *2775:D 1.47652e-05
35 *2774:C *2986:A0 3.86607e-05
36 *2774:C *2988:A0 8.23279e-05
37 *2774:C *3002:A 8.53011e-05
38 *2774:C *3387:A 0
39 *2774:C *884:10 0
40 *2785:B1 *2785:A1 6.31559e-05
41 *2785:B1 *2785:B2 0.000156771
42 *2793:B1 *2721:A2 5.83121e-06
43 *2793:B1 *405:35 2.49909e-05
44 *218:10 *2671:A 0.000110668
45 *218:10 *609:12 0
46 *218:10 *805:50 4.99619e-05
47 *218:20 *2614:B 0.000633345
48 *218:20 *2711:B 4.01535e-05
49 *218:20 *2721:A2 1.10537e-05
50 *218:20 *2793:A1 1.88602e-05
51 *218:20 *3114:A 0
52 *218:20 *352:94 0.000147788
53 *218:20 *369:18 0
54 *218:20 *401:22 0
55 *218:20 *528:37 0.000116533
56 *218:36 *2568:B 0.000147009
57 *218:36 *2569:A0 0.000195476
58 *218:36 *2721:A2 3.09233e-05
59 *218:36 *2793:A1 0.000137192
60 *218:36 *3259:CLK 1.9872e-05
61 *218:36 *3390:A 8.65961e-05
62 *218:36 *3402:A 1.37328e-05
63 *218:36 *327:99 5.84378e-05
64 *218:36 *369:30 2.39856e-05
65 *218:36 *528:43 0.000163109
66 *218:36 *541:12 0.000119242
67 *218:36 *853:6 1.08758e-05
68 *218:63 *2565:A 0.000149749
69 *218:63 *2717:A1 0.000166346
70 *218:63 *2719:A1 4.70999e-05
71 *218:63 *2729:A1 0.00026898
72 *218:63 *3164:CLK 0.000164679
73 *218:63 *320:51 2.92496e-05
74 *218:63 *409:34 0.000810535
75 *218:63 *591:30 0.000260638
76 *218:63 *591:52 1.18553e-06
77 *218:63 *600:23 0.000114492
78 *218:63 *601:12 0.000495101
79 *218:92 *2729:A1 8.97025e-05
80 *218:92 *2732:A1 8.23457e-05
81 *218:92 *3127:CLK 2.49909e-05
82 *218:92 *3421:A 0.000158213
83 *218:92 *600:23 3.90951e-05
84 *218:92 *600:36 0.000136204
85 *218:92 *764:38 1.4174e-05
86 *218:109 *2728:A1 0.000224145
87 *218:109 *2806:C1 2.39856e-05
88 *218:109 *2807:A1 7.03219e-05
89 *218:109 *3038:A 0.000202317
90 *218:109 *3159:CLK 0.00018471
91 *218:109 *3335:A 0.000159531
92 *218:109 *3408:A 0.000107205
93 *218:109 *324:74 0.000590177
94 *218:109 *405:66 0
95 *218:109 *606:34 0.000180682
96 *218:109 *620:46 0.000524676
97 *218:109 *901:12 4.66108e-05
98 *218:109 *904:8 0.000129047
99 *218:152 *2749:B1 2.88529e-05
100 *218:152 *2754:C 9.50342e-06
101 *218:152 *2968:A 8.44749e-05
102 *218:152 *316:43 0.000368014
103 *218:152 *316:60 8.36444e-05
104 *218:152 *352:94 8.35683e-05
105 *218:152 *352:100 0.00127229
106 *218:152 *417:39 0
107 *218:152 *803:56 0
108 *218:152 *884:10 0
109 *2717:A2 *218:63 5.16348e-05
110 *2717:B1 *218:63 5.16348e-05
111 *2723:A2 *218:63 0.000195482
112 *2744:A2 *2744:A3 3.4853e-05
113 *2785:A2 *2785:B1 3.5678e-06
114 *2793:A2 *2793:B1 4.41293e-05
115 *3177:D *2774:C 0.000367359
116 *3259:D *218:36 4.82319e-06
117 *176:16 *2774:C 1.5868e-05
118 *176:18 *2774:C 4.8783e-05
119 *179:16 *218:152 8.92435e-05
120 *179:81 *218:152 9.30787e-05
121 *179:96 *218:152 5.33085e-05
122 *183:10 *218:152 6.44702e-05
123 *183:110 *2774:C 7.90035e-05
124 *183:110 *218:152 2.96556e-06
125 *187:16 *218:20 0
126 *187:57 *218:63 5.35021e-05
127 *187:57 *218:92 5.36975e-06
128 *187:66 *218:92 0.000104348
129 *187:66 *218:109 5.31158e-06
130 *187:83 *2734:B1 0
131 *187:83 *218:109 0.000103758
132 *187:124 *218:20 0
133 *197:42 *218:20 0.000114209
134 *211:122 *2774:C 0.000168673
135 *211:122 *218:20 4.11198e-05
136 *211:122 *218:152 0.00202674
137 *215:16 *218:20 0.000295263
*RES
1 *2718:X *218:10 5.445 
2 *218:10 *218:20 7.11167 
3 *218:20 *218:36 19.175 
4 *218:36 *2719:B1 9.77 
5 *218:36 *218:63 28.92 
6 *218:63 *2724:B1 8.55 
7 *218:63 *218:92 13 
8 *218:92 *2807:B1 3.6 
9 *218:92 *218:109 26.53 
10 *218:109 *2785:B1 6.24 
11 *218:109 *2734:B1 13.62 
12 *218:20 *2793:B1 4.77 
13 *218:10 *218:152 31.665 
14 *218:152 *2774:C 15.135 
15 *218:152 *2744:A3 5.655 
*END

*D_NET *219 0.00136983
*CONN
*I *2720:C I *D sky130_fd_sc_hd__or3_1
*I *2719:X O *D sky130_fd_sc_hd__a22o_1
*CAP
1 *2720:C 0.000350247
2 *2719:X 0.000350247
3 *2720:C *2564:A0 7.15931e-05
4 *2720:C *2569:A0 7.32599e-05
5 *2720:C *2569:S 0.000134516
6 *2720:C *2570:A 6.71882e-05
7 *2720:C *405:35 0.000278405
8 *187:33 *2720:C 4.43682e-05
*RES
1 *2719:X *2720:C 13.455 
*END

*D_NET *220 0.00353923
*CONN
*I *2721:A2 I *D sky130_fd_sc_hd__o21a_1
*I *2720:X O *D sky130_fd_sc_hd__or3_1
*CAP
1 *2721:A2 0.000947405
2 *2720:X 0.000947405
3 *2721:A2 *2569:S 6.47753e-05
4 *2721:A2 *2571:A0 8.3329e-05
5 *2721:A2 *2793:A1 1.80524e-05
6 *2721:A2 *2793:B2 2.8185e-05
7 *2721:A2 *2800:A3 9.72235e-05
8 *2721:A2 *221:8 0.000124895
9 *2721:A2 *322:85 8.93428e-05
10 *2721:A2 *327:99 0.000607797
11 *2721:A2 *405:35 9.16017e-05
12 *2721:A2 *813:12 3.03684e-05
13 *2793:B1 *2721:A2 5.83121e-06
14 *208:18 *2721:A2 0.000268734
15 *215:54 *2721:A2 9.23116e-05
16 *218:20 *2721:A2 1.10537e-05
17 *218:36 *2721:A2 3.09233e-05
*RES
1 *2720:X *2721:A2 24.315 
*END

*D_NET *221 0.0108718
*CONN
*I *2722:D1 I *D sky130_fd_sc_hd__a2111o_1
*I *2721:X O *D sky130_fd_sc_hd__o21a_1
*CAP
1 *2722:D1 0.000635666
2 *2721:X 0.000200363
3 *221:12 0.00241367
4 *221:8 0.00197836
5 *2722:D1 *2769:B1 2.53643e-05
6 *2722:D1 *2984:A 0.000247567
7 *2722:D1 *443:122 0.000137819
8 *2722:D1 *597:16 6.2957e-05
9 *2722:D1 *885:10 0.000129099
10 *221:12 *2605:A0 3.24721e-05
11 *221:12 *2740:A2 0.000203048
12 *221:12 *2800:A1 4.40578e-05
13 *221:12 *2800:A2 7.4027e-05
14 *221:12 *2800:A3 9.21068e-05
15 *221:12 *2897:A0 2.25695e-05
16 *221:12 *2899:A0 7.23602e-05
17 *221:12 *2990:A 0.000490236
18 *221:12 *2992:A 5.4003e-05
19 *221:12 *2997:A1 8.35277e-05
20 *221:12 *3404:A 0.000118246
21 *221:12 *322:85 0.000543954
22 *221:12 *322:104 0.000979747
23 *221:12 *372:22 0.00010565
24 *221:12 *374:45 0
25 *221:12 *374:51 0.00088743
26 *221:12 *440:90 0.000188883
27 *221:12 *443:122 0.00030121
28 *221:12 *597:16 0.000214829
29 *2710:A2 *2722:D1 0.000160651
30 *2721:A2 *221:8 0.000124895
31 *2722:C1 *2722:D1 0.000120655
32 *3181:D *221:12 4.71719e-05
33 *208:18 *221:8 7.91708e-05
*RES
1 *2721:X *221:8 6.12 
2 *221:8 *221:12 45.9075 
3 *221:12 *2722:D1 14.3925 
*END

*D_NET *222 0.0144581
*CONN
*I *2755:B1 I *D sky130_fd_sc_hd__o221a_1
*I *2722:X O *D sky130_fd_sc_hd__a2111o_1
*CAP
1 *2755:B1 0.00462961
2 *2722:X 0.00462961
3 *2755:B1 *2625:A1 5.7969e-05
4 *2755:B1 *2755:B2 0.000254535
5 *2755:B1 *2755:C1 2.11806e-05
6 *2755:B1 *2770:B 7.4027e-05
7 *2755:B1 *2791:C1 0.000116216
8 *2755:B1 *2792:B1 0.000157156
9 *2755:B1 *2810:B1 1.88602e-05
10 *2755:B1 *3114:A 0
11 *2755:B1 *327:91 9.5381e-05
12 *2755:B1 *355:40 0
13 *2755:B1 *355:82 7.96104e-06
14 *2755:B1 *389:22 0.000221613
15 *2755:B1 *393:31 0.000172772
16 *2755:B1 *393:50 0.00139189
17 *2755:B1 *409:84 0.000240719
18 *2755:B1 *591:18 0.00110449
19 *2755:B1 *591:132 0.000924512
20 *2710:B1 *2755:B1 1.80324e-05
21 *2792:A1 *2755:B1 0.000183043
22 *3287:A *2755:B1 0
23 *177:45 *2755:B1 0.000138551
*RES
1 *2722:X *2755:B1 26.2523 
*END

*D_NET *223 0.00072447
*CONN
*I *2724:C1 I *D sky130_fd_sc_hd__a221o_1
*I *2723:X O *D sky130_fd_sc_hd__a22o_1
*CAP
1 *2724:C1 0.000296315
2 *2723:X 0.000296315
3 *2724:C1 *2724:B2 9.50342e-06
4 *2724:C1 *2801:A2 0
5 *2724:C1 *414:10 0.000122337
*RES
1 *2723:X *2724:C1 11.76 
*END

*D_NET *224 0.00545538
*CONN
*I *2732:A1 I *D sky130_fd_sc_hd__o31a_1
*I *2724:X O *D sky130_fd_sc_hd__a221o_1
*CAP
1 *2732:A1 0.0016321
2 *2724:X 0.0016321
3 *2732:A1 *2730:A 0.000114524
4 *2732:A1 *2732:B1 3.31106e-05
5 *2732:A1 *2809:B1 0.000105209
6 *2732:A1 *2830:A0 7.03276e-05
7 *2732:A1 *2831:A 0.000225507
8 *2732:A1 *3350:A 0.000123256
9 *2732:A1 *231:52 7.91379e-06
10 *2732:A1 *320:51 0.000121036
11 *2732:A1 *356:79 1.47601e-05
12 *2732:A1 *764:38 0.000183203
13 *2717:B1 *2732:A1 0.000504093
14 *2727:A2 *2732:A1 0.000463428
15 *3127:D *2732:A1 4.40552e-05
16 *187:57 *2732:A1 3.54721e-05
17 *202:30 *2732:A1 6.2939e-05
18 *218:92 *2732:A1 8.23457e-05
*RES
1 *2724:X *2732:A1 36.5625 
*END

*D_NET *225 0.000948037
*CONN
*I *2726:B1 I *D sky130_fd_sc_hd__a21o_1
*I *2725:X O *D sky130_fd_sc_hd__a22o_1
*CAP
1 *2726:B1 0.000339554
2 *2725:X 0.000339554
3 *2726:B1 *2726:A1 0
4 *2726:B1 *372:61 6.75662e-05
5 *2726:B1 *606:49 0.000197358
6 *2726:A2 *2726:B1 4.00541e-06
*RES
1 *2725:X *2726:B1 7.715 
*END

*D_NET *226 0.00252201
*CONN
*I *2732:A2 I *D sky130_fd_sc_hd__o31a_1
*I *2726:X O *D sky130_fd_sc_hd__a21o_1
*CAP
1 *2732:A2 0.000664926
2 *2726:X 0.000664926
3 *2732:A2 *2732:A3 0.000347029
4 *2732:A2 *2732:B1 4.82863e-05
5 *2732:A2 *2808:A 4.19688e-05
6 *2732:A2 *2914:A1 3.67779e-05
7 *2732:A2 *2932:A0 0
8 *2732:A2 *231:52 1.16578e-05
9 *2732:A2 *349:38 0
10 *2732:A2 *356:79 0.000194342
11 *2732:A2 *372:61 0.00049767
12 *2726:A2 *2732:A2 1.44259e-05
13 *197:94 *2732:A2 0
*RES
1 *2726:X *2732:A2 19.125 
*END

*D_NET *227 0.00112145
*CONN
*I *2730:A I *D sky130_fd_sc_hd__or3_1
*I *2727:X O *D sky130_fd_sc_hd__a22o_1
*CAP
1 *2730:A 0.000375757
2 *2727:X 0.000375757
3 *2730:A *2834:A 0.000132591
4 *2730:A *3437:A 0.000122821
5 *2732:A1 *2730:A 0.000114524
*RES
1 *2727:X *2730:A 14.205 
*END

*D_NET *228 0.000185713
*CONN
*I *2730:B I *D sky130_fd_sc_hd__or3_1
*I *2728:X O *D sky130_fd_sc_hd__a22o_1
*CAP
1 *2730:B 2.12323e-05
2 *2728:X 2.12323e-05
3 *2730:B *2809:A1 7.1624e-05
4 *2730:B *401:34 7.1624e-05
*RES
1 *2728:X *2730:B 8.07 
*END

*D_NET *229 0.001126
*CONN
*I *2730:C I *D sky130_fd_sc_hd__or3_1
*I *2729:X O *D sky130_fd_sc_hd__a22o_1
*CAP
1 *2730:C 0.000280307
2 *2729:X 0.000280307
3 *2730:C *2809:A1 0.000112595
4 *2730:C *324:34 0.000340192
5 *2730:C *401:34 0.000112595
*RES
1 *2729:X *2730:C 11.79 
*END

*D_NET *230 0.00223342
*CONN
*I *2732:A3 I *D sky130_fd_sc_hd__o31a_1
*I *2730:X O *D sky130_fd_sc_hd__or3_1
*CAP
1 *2732:A3 0.000718981
2 *2730:X 0.000718981
3 *2732:A3 *2728:A2 0.0001142
4 *2732:A3 *2806:B2 0.000132752
5 *2732:A3 *2808:A 0
6 *2732:A3 *2932:A0 8.93035e-05
7 *2732:A3 *2932:A1 3.86529e-05
8 *2732:A3 *2934:A1 5.05521e-05
9 *2732:A3 *356:79 1.12578e-05
10 *2732:A3 *363:26 0
11 *2727:B1 *2732:A3 0
12 *2732:A2 *2732:A3 0.000347029
13 *2806:B1 *2732:A3 1.17114e-05
14 *197:94 *2732:A3 0
*RES
1 *2730:X *2732:A3 20.73 
*END

*D_NET *231 0.0182065
*CONN
*I *2788:A3 I *D sky130_fd_sc_hd__a31o_1
*I *2737:A3 I *D sky130_fd_sc_hd__a31o_1
*I *2751:C I *D sky130_fd_sc_hd__and3_1
*I *2739:A3 I *D sky130_fd_sc_hd__a32o_1
*I *2790:A3 I *D sky130_fd_sc_hd__a32o_1
*I *2732:B1 I *D sky130_fd_sc_hd__o31a_1
*I *2809:B1 I *D sky130_fd_sc_hd__o21a_1
*I *2731:X O *D sky130_fd_sc_hd__and2_2
*CAP
1 *2788:A3 0.000137952
2 *2737:A3 2.45445e-05
3 *2751:C 1.42731e-05
4 *2739:A3 3.60787e-05
5 *2790:A3 0.000140375
6 *2732:B1 5.39994e-05
7 *2809:B1 0.000466383
8 *2731:X 0.00326198
9 *231:82 0.000532787
10 *231:52 0.00168958
11 *231:32 0.00154763
12 *231:30 0.000249775
13 *231:20 0.000314681
14 *231:14 0.00347666
15 *2732:B1 *356:79 4.82863e-05
16 *2788:A3 *2811:A1 0.000167301
17 *2790:A3 *2791:C1 0.00015891
18 *2790:A3 *2904:A 4.50225e-05
19 *2790:A3 *349:12 2.75538e-05
20 *2790:A3 *393:31 0.000262642
21 *2809:B1 *2727:A1 1.54665e-05
22 *2809:B1 *2727:B2 8.53011e-05
23 *2809:B1 *2809:A2 9.25963e-05
24 *2809:B1 *2811:A3 0.000347324
25 *231:14 *2754:A 0.000110444
26 *231:14 *2782:B1 0.000397054
27 *231:14 *2931:B 0
28 *231:14 *3308:A 0
29 *231:14 *511:102 0
30 *231:14 *807:21 7.4027e-05
31 *231:14 *808:27 1.68017e-05
32 *231:20 *2737:A1 4.66742e-05
33 *231:20 *2811:A1 3.20382e-05
34 *231:30 *2896:A 0.00035254
35 *231:30 *372:22 0
36 *231:52 *2803:B2 0.000225922
37 *231:52 *2804:C1 0.000120849
38 *231:52 *356:79 2.32315e-05
39 *231:52 *923:6 4.35348e-05
40 *231:82 *2740:C1 0.00011381
41 *231:82 *2752:C1 3.31103e-05
42 *231:82 *2791:C1 3.07573e-05
43 *231:82 *2904:A 1.37864e-05
44 *231:82 *378:56 0
45 *2727:A2 *2809:B1 0.000512879
46 *2727:B1 *2809:B1 2.88357e-05
47 *2732:A1 *2732:B1 3.31106e-05
48 *2732:A1 *2809:B1 0.000105209
49 *2732:A1 *231:52 7.91379e-06
50 *2732:A2 *2732:B1 4.82863e-05
51 *2732:A2 *231:52 1.16578e-05
52 *2749:A3 *2788:A3 7.1009e-05
53 *2803:B1 *231:52 0.000119841
54 *3141:D *231:52 5.12715e-05
55 *183:52 *231:52 0.000937351
56 *183:52 *231:82 0.000567748
57 *183:110 *231:14 4.3249e-05
58 *193:56 *2788:A3 0.000156059
59 *197:94 *2809:B1 0
60 *202:53 *2732:B1 2.92038e-05
61 *202:53 *2809:B1 6.55406e-05
62 *207:80 *231:20 3.09233e-05
63 *207:80 *231:30 0.000460123
64 *207:84 *2788:A3 4.96249e-05
65 *207:84 *231:20 1.75056e-05
66 *211:122 *231:14 2.74318e-05
*RES
1 *2731:X *231:14 11.5424 
2 *231:14 *231:20 3.5375 
3 *231:20 *231:30 10.0975 
4 *231:30 *231:32 0.36 
5 *231:32 *231:52 24.3125 
6 *231:52 *2809:B1 15.615 
7 *231:52 *2732:B1 4.92 
8 *231:32 *231:82 9.5975 
9 *231:82 *2790:A3 7.785 
10 *231:82 *2739:A3 4.05 
11 *231:30 *2751:C 1.8325 
12 *231:20 *2737:A3 1.96 
13 *231:14 *2788:A3 7.4025 
*END

*D_NET *232 0.00825547
*CONN
*I *2754:A I *D sky130_fd_sc_hd__or4_1
*I *2732:X O *D sky130_fd_sc_hd__o31a_1
*CAP
1 *2754:A 0.00265565
2 *2732:X 0.00265565
3 *2754:A *2754:D 0
4 *2754:A *2782:B1 0.00102006
5 *2754:A *2804:B2 0
6 *2754:A *2804:C1 7.27402e-06
7 *2754:A *2917:A 0
8 *2754:A *2985:A 0.000853263
9 *2754:A *356:79 0.000110198
10 *2782:A2 *2754:A 1.16465e-05
11 *177:135 *2754:A 0
12 *181:35 *2754:A 0.000144233
13 *197:94 *2754:A 0
14 *202:30 *2754:A 0.000687064
15 *231:14 *2754:A 0.000110444
*RES
1 *2732:X *2754:A 23.4985 
*END

*D_NET *233 0.00110285
*CONN
*I *2735:B1 I *D sky130_fd_sc_hd__a211o_1
*I *2733:X O *D sky130_fd_sc_hd__a22o_1
*CAP
1 *2735:B1 0.000341155
2 *2733:X 0.000341155
3 *2735:B1 *2733:A1 0.000196073
4 *2735:B1 *2735:A1 8.7152e-06
5 *2735:B1 *3066:B 0.00011109
6 *2735:B1 *473:74 0
7 *2733:A2 *2735:B1 0.000104662
*RES
1 *2733:X *2735:B1 12.135 
*END

*D_NET *234 0.00348886
*CONN
*I *2735:C1 I *D sky130_fd_sc_hd__a211o_1
*I *2734:X O *D sky130_fd_sc_hd__a22o_1
*CAP
1 *2735:C1 0.0011031
2 *2734:X 0.0011031
3 *2735:C1 *2786:A1 1.17309e-05
4 *2735:C1 *2786:B1 2.86265e-06
5 *2735:C1 *2786:C1 4.80285e-05
6 *2735:C1 *3062:A0 0
7 *2735:C1 *591:210 2.69153e-05
8 *2735:C1 *591:216 0.000279573
9 *2735:C1 *591:220 0.000411455
10 *2735:C1 *607:10 0.000109859
11 *2735:C1 *607:24 3.98029e-05
12 *2735:C1 *607:62 2.1742e-05
13 *2735:C1 *852:8 0.000305697
14 *2735:A2 *2735:C1 0
15 *2786:A2 *2735:C1 2.49909e-05
*RES
1 *2734:X *2735:C1 25.86 
*END

*D_NET *235 0.00350038
*CONN
*I *2740:A2 I *D sky130_fd_sc_hd__a211o_1
*I *2735:X O *D sky130_fd_sc_hd__a211o_1
*CAP
1 *2740:A2 0.000954799
2 *2735:X 0.000954799
3 *2740:A2 *2740:C1 8.43255e-05
4 *2740:A2 *2897:A0 0.000113841
5 *2740:A2 *2899:A0 0.00012064
6 *2740:A2 *2899:A1 8.23457e-05
7 *2740:A2 *2900:A 8.73147e-06
8 *2740:A2 *2973:A 1.29248e-05
9 *2740:A2 *2998:A 0.000159179
10 *2740:A2 *3076:A 0.000534952
11 *2740:A2 *322:104 0.000108702
12 *2740:A2 *366:10 0
13 *2740:A2 *366:20 0
14 *2740:A2 *473:74 4.77807e-05
15 *2740:A2 *607:62 8.41384e-05
16 *2735:A2 *2740:A2 3.01692e-05
17 *221:12 *2740:A2 0.000203048
*RES
1 *2735:X *2740:A2 25.305 
*END

*D_NET *236 0.00130993
*CONN
*I *2737:B1 I *D sky130_fd_sc_hd__a31o_1
*I *2736:X O *D sky130_fd_sc_hd__and3_1
*CAP
1 *2737:B1 0.000202263
2 *2736:X 0.000202263
3 *2737:B1 *2811:A1 0.000454779
4 *2737:B1 *362:60 0.000450625
*RES
1 *2736:X *2737:B1 13.455 
*END

*D_NET *237 0.00040822
*CONN
*I *2740:B1 I *D sky130_fd_sc_hd__a211o_1
*I *2737:X O *D sky130_fd_sc_hd__a31o_1
*CAP
1 *2740:B1 0.000121658
2 *2737:X 0.000121658
3 *2740:B1 *2737:A1 2.937e-05
4 *2740:B1 *372:22 0
5 *207:84 *2740:B1 0.000135533
*RES
1 *2737:X *2740:B1 9.285 
*END

*D_NET *238 0.00100295
*CONN
*I *2739:B1 I *D sky130_fd_sc_hd__a32o_1
*I *2738:X O *D sky130_fd_sc_hd__a22o_1
*CAP
1 *2739:B1 0.00025628
2 *2738:X 0.00025628
3 *2739:B1 *2905:A0 0.000102788
4 *212:92 *2739:B1 0.000387604
*RES
1 *2738:X *2739:B1 7.9775 
*END

*D_NET *239 0.00319296
*CONN
*I *2740:C1 I *D sky130_fd_sc_hd__a211o_1
*I *2739:X O *D sky130_fd_sc_hd__a32o_1
*CAP
1 *2740:C1 0.000553746
2 *2739:X 0.000553746
3 *2740:C1 *2752:A2 3.39064e-05
4 *2740:C1 *2754:B 5.85534e-05
5 *2740:C1 *2791:C1 0.000801191
6 *2740:C1 *2975:A 8.57835e-05
7 *2740:C1 *3171:CLK 0.000139238
8 *2740:C1 *322:104 0.000560918
9 *2740:C1 *378:56 0
10 *2740:C1 *595:35 0.000168435
11 *2740:A2 *2740:C1 8.43255e-05
12 *2749:A3 *2740:C1 3.93101e-05
13 *174:150 *2740:C1 0
14 *231:82 *2740:C1 0.00011381
*RES
1 *2739:X *2740:C1 23.07 
*END

*D_NET *240 0.00302279
*CONN
*I *2754:B I *D sky130_fd_sc_hd__or4_1
*I *2740:X O *D sky130_fd_sc_hd__a211o_1
*CAP
1 *2754:B 0.00112788
2 *2740:X 0.00112788
3 *2754:B *2974:A1 3.95409e-05
4 *2754:B *2975:A 0.000115254
5 *2754:B *3172:CLK 5.79373e-05
6 *2754:B *3366:A 8.49205e-05
7 *2754:B *362:60 0.000101118
8 *2754:B *397:59 2.75716e-05
9 *2754:B *888:6 0.000197264
10 *2740:C1 *2754:B 5.85534e-05
11 *2747:A3 *2754:B 7.50977e-05
12 *3172:D *2754:B 9.77048e-06
*RES
1 *2740:X *2754:B 21.63 
*END

*D_NET *241 0.00230371
*CONN
*I *2742:B1 I *D sky130_fd_sc_hd__a31o_1
*I *2741:X O *D sky130_fd_sc_hd__and3_1
*CAP
1 *2742:B1 0.000560281
2 *2741:X 0.000560281
3 *2742:B1 *2753:A 0.000270961
4 *2742:B1 *2780:A 0
5 *2742:B1 *473:124 5.5429e-05
6 *2742:B1 *596:43 8.80711e-05
7 *2742:B1 *609:53 3.47757e-05
8 *2742:B1 *631:20 1.00762e-05
9 *2742:B1 *631:33 2.25075e-05
10 *2741:C *2742:B1 4.77807e-05
11 *2742:A3 *2742:B1 2.49909e-05
12 *2745:C *2742:B1 0.000347891
13 *174:10 *2742:B1 5.83121e-06
14 *192:25 *2742:B1 0.000274837
*RES
1 *2741:X *2742:B1 20.13 
*END

*D_NET *242 0.00122402
*CONN
*I *2744:B1 I *D sky130_fd_sc_hd__a311o_1
*I *2742:X O *D sky130_fd_sc_hd__a31o_1
*CAP
1 *2744:B1 0.000162985
2 *2742:X 0.000162985
3 *2744:B1 *2749:B1 0
4 *2744:B1 *2753:A 2.61093e-05
5 *2744:B1 *348:91 0.000180699
6 *2744:B1 *596:33 0.000264756
7 *2744:B1 *631:20 0.00034752
8 *2744:B1 *884:10 7.89689e-05
*RES
1 *2742:X *2744:B1 12.555 
*END

*D_NET *243 0.00200677
*CONN
*I *2744:C1 I *D sky130_fd_sc_hd__a311o_1
*I *2743:X O *D sky130_fd_sc_hd__and3_1
*CAP
1 *2744:C1 0.000504233
2 *2743:X 0.000504233
3 *2744:C1 *2780:B 0.000171486
4 *2744:C1 *2988:A0 0.000161636
5 *2744:C1 *2989:A 0
6 *2744:C1 *3002:A 0.000238231
7 *2744:C1 *3387:A 0.000116158
8 *2744:C1 *348:91 0.000307236
9 *2744:A3 *2744:C1 0
10 *3177:D *2744:C1 3.56128e-06
*RES
1 *2743:X *2744:C1 18.54 
*END

*D_NET *244 0.00209201
*CONN
*I *2754:C I *D sky130_fd_sc_hd__or4_1
*I *2744:X O *D sky130_fd_sc_hd__a311o_1
*CAP
1 *2754:C 0.000352353
2 *2744:X 0.000352353
3 *2754:C *2749:B1 5.24813e-05
4 *2754:C *2985:A 0.000178071
5 *2754:C *2986:S 0.000158106
6 *2754:C *2988:A0 2.75145e-05
7 *2754:C *2988:A1 4.66108e-05
8 *2754:C *434:6 4.1745e-05
9 *2747:A3 *2754:C 0.000267043
10 *2774:C *2754:C 2.40731e-05
11 *183:110 *2754:C 4.65643e-05
12 *211:122 *2754:C 0.000170323
13 *211:124 *2754:C 0.000365264
14 *218:152 *2754:C 9.50342e-06
*RES
1 *2744:X *2754:C 17.25 
*END

*D_NET *245 0.00419641
*CONN
*I *2753:A I *D sky130_fd_sc_hd__or4_1
*I *2745:X O *D sky130_fd_sc_hd__and3_1
*CAP
1 *2753:A 0.00118236
2 *2745:X 0.00118236
3 *2753:A *2968:A 6.36861e-06
4 *2753:A *2986:A1 0.00027204
5 *2753:A *3056:A 0.000417714
6 *2753:A *3176:CLK 2.49909e-05
7 *2753:A *596:33 0.000164124
8 *2753:A *596:43 1.59137e-05
9 *2753:A *609:53 0.000354901
10 *2753:A *631:20 2.04352e-05
11 *2742:A3 *2753:A 0.00015639
12 *2742:B1 *2753:A 0.000270961
13 *2744:B1 *2753:A 2.61093e-05
14 *3176:D *2753:A 1.43717e-05
15 *174:10 *2753:A 3.57349e-05
16 *174:25 *2753:A 5.16418e-05
*RES
1 *2745:X *2753:A 25.665 
*END

*D_NET *246 0.000611584
*CONN
*I *2747:B1 I *D sky130_fd_sc_hd__a31o_1
*I *2746:X O *D sky130_fd_sc_hd__and3_1
*CAP
1 *2747:B1 0.000141081
2 *2746:X 0.000141081
3 *2747:B1 *2746:A 0
4 *2747:B1 *2974:S 0
5 *2747:B1 *753:29 0.000285227
6 *2747:A3 *2747:B1 4.41939e-05
*RES
1 *2746:X *2747:B1 10.62 
*END

*D_NET *247 0.000860068
*CONN
*I *2753:B I *D sky130_fd_sc_hd__or4_1
*I *2747:X O *D sky130_fd_sc_hd__a31o_1
*CAP
1 *2753:B 0.000290425
2 *2747:X 0.000290425
3 *2753:B *2747:A1 3.69226e-05
4 *2753:B *2755:B2 3.32923e-05
5 *2753:B *2974:S 5.18872e-05
6 *2753:B *2986:A1 2.39856e-05
7 *2753:B *3380:A 0.000114745
8 *2747:A2 *2753:B 1.83847e-05
*RES
1 *2747:X *2753:B 11.55 
*END

*D_NET *248 0.00472944
*CONN
*I *2749:B1 I *D sky130_fd_sc_hd__a31o_1
*I *2748:X O *D sky130_fd_sc_hd__and3_1
*CAP
1 *2749:B1 0.00105407
2 *2748:X 0.00105407
3 *2749:B1 *2782:A1 2.75759e-05
4 *2749:B1 *2782:B1 6.61627e-05
5 *2749:B1 *2783:D 0.000122797
6 *2749:B1 *2825:B 1.19928e-05
7 *2749:B1 *2960:C 0.000140912
8 *2749:B1 *2968:A 9.23116e-05
9 *2749:B1 *2974:S 9.03508e-06
10 *2749:B1 *2986:A1 0.000130128
11 *2749:B1 *2987:A 2.01565e-05
12 *2749:B1 *352:100 0.000268278
13 *2749:B1 *409:115 0.000122331
14 *2749:B1 *473:18 4.66108e-05
15 *2749:B1 *631:20 0
16 *2749:B1 *684:44 0.000309705
17 *2749:B1 *684:71 0.000167715
18 *2749:B1 *884:10 2.87867e-05
19 *2744:A2 *2749:B1 0.000513481
20 *2744:A3 *2749:B1 3.05943e-05
21 *2744:B1 *2749:B1 0
22 *2747:A2 *2749:B1 0.000265375
23 *2748:B *2749:B1 1.08758e-05
24 *2749:A3 *2749:B1 3.50357e-05
25 *2754:C *2749:B1 5.24813e-05
26 *2782:A2 *2749:B1 9.43331e-06
27 *177:137 *2749:B1 0.000110665
28 *218:152 *2749:B1 2.88529e-05
*RES
1 *2748:X *2749:B1 30.66 
*END

*D_NET *249 0.000251441
*CONN
*I *2753:C I *D sky130_fd_sc_hd__or4_1
*I *2749:X O *D sky130_fd_sc_hd__a31o_1
*CAP
1 *2753:C 6.56717e-05
2 *2749:X 6.56717e-05
3 *2753:C *2754:D 0
4 *2753:C *2782:A1 0.000114565
5 *2753:C *2987:A 0
6 *2782:A2 *2753:C 5.53249e-06
*RES
1 *2749:X *2753:C 8.58 
*END

*D_NET *250 0.0039704
*CONN
*I *2782:B1 I *D sky130_fd_sc_hd__a31o_1
*I *2752:B1 I *D sky130_fd_sc_hd__a311o_1
*I *2750:X O *D sky130_fd_sc_hd__and2_1
*CAP
1 *2782:B1 0.000688887
2 *2752:B1 0.000187994
3 *2750:X 0
4 *250:4 0.000876882
5 *2752:B1 *2752:A2 1.8731e-05
6 *2752:B1 *349:18 3.0807e-05
7 *2782:B1 *2753:D 7.23533e-05
8 *2782:B1 *2782:A1 0.000121536
9 *2782:B1 *2791:C1 0.000139203
10 *2782:B1 *322:104 1.7635e-05
11 *2782:B1 *397:59 0.00019145
12 *2749:B1 *2782:B1 6.61627e-05
13 *2752:A3 *2752:B1 0.000123592
14 *2754:A *2782:B1 0.00102006
15 *2782:A2 *2782:B1 7.96104e-06
16 *181:35 *2782:B1 1.00941e-05
17 *231:14 *2782:B1 0.000397054
*RES
1 *2750:X *250:4 1.6 
2 *250:4 *2752:B1 4.84 
3 *250:4 *2782:B1 12.9345 
*END

*D_NET *251 0.000855289
*CONN
*I *2752:C1 I *D sky130_fd_sc_hd__a311o_1
*I *2751:X O *D sky130_fd_sc_hd__and3_1
*CAP
1 *2752:C1 0.000171166
2 *2751:X 0.000171166
3 *2752:C1 *2811:A1 0.000311095
4 *2752:C1 *362:60 0.000168751
5 *231:82 *2752:C1 3.31103e-05
*RES
1 *2751:X *2752:C1 11.67 
*END

*D_NET *252 0.00222849
*CONN
*I *2753:D I *D sky130_fd_sc_hd__or4_1
*I *2752:X O *D sky130_fd_sc_hd__a311o_1
*CAP
1 *2753:D 0.000753889
2 *2752:X 0.000753889
3 *2753:D *2986:A1 0.00056846
4 *2753:D *3170:CLK 2.49909e-05
5 *2753:D *397:59 4.05358e-05
6 *2782:B1 *2753:D 7.23533e-05
7 *3170:D *2753:D 1.43717e-05
*RES
1 *2752:X *2753:D 18.3 
*END

*D_NET *253 0.000934418
*CONN
*I *2754:D I *D sky130_fd_sc_hd__or4_1
*I *2753:X O *D sky130_fd_sc_hd__or4_1
*CAP
1 *2754:D 0.000316092
2 *2753:X 0.000316092
3 *2754:D *2985:A 4.77719e-05
4 *2754:D *2986:A1 2.937e-05
5 *2754:D *2987:A 3.67779e-05
6 *2753:C *2754:D 0
7 *2754:A *2754:D 0
8 *2782:A2 *2754:D 0.000110411
9 *2782:A3 *2754:D 3.08712e-05
10 *177:135 *2754:D 4.70326e-05
*RES
1 *2753:X *2754:D 12.165 
*END

*D_NET *254 0.00705267
*CONN
*I *2755:B2 I *D sky130_fd_sc_hd__o221a_1
*I *2754:X O *D sky130_fd_sc_hd__or4_1
*CAP
1 *2755:B2 0.00195697
2 *2754:X 0.00195697
3 *2755:B2 *2598:A 0.000195437
4 *2755:B2 *2601:A 7.03276e-05
5 *2755:B2 *2602:A1 9.30787e-05
6 *2755:B2 *2625:A1 2.89492e-06
7 *2755:B2 *2738:A1 0.00030888
8 *2755:B2 *2749:A1 0.000132176
9 *2755:B2 *2969:A1 0
10 *2755:B2 *2972:A 4.92096e-05
11 *2755:B2 *2974:S 0.000135731
12 *2755:B2 *2985:A 8.23457e-05
13 *2755:B2 *3307:A 0.000841899
14 *2755:B2 *3344:A 0.0001497
15 *2755:B2 *3423:A 4.84632e-05
16 *2755:B2 *389:63 0.000116216
17 *2755:B2 *682:12 0
18 *2755:B2 *753:29 0
19 *2755:B2 *920:8 1.858e-05
20 *2753:B *2755:B2 3.32923e-05
21 *2755:B1 *2755:B2 0.000254535
22 *3250:D *2755:B2 0.000127624
23 *3251:D *2755:B2 1.18307e-05
24 *181:20 *2755:B2 8.08153e-06
25 *181:35 *2755:B2 4.24292e-06
26 *197:70 *2755:B2 0
27 *212:92 *2755:B2 0.000454194
*RES
1 *2754:X *2755:B2 44.775 
*END

*D_NET *255 0.00333844
*CONN
*I *2759:B1 I *D sky130_fd_sc_hd__a211o_1
*I *2756:X O *D sky130_fd_sc_hd__a22o_1
*CAP
1 *2759:B1 0.000894445
2 *2756:X 0.000894445
3 *2759:B1 *2684:B2 5.4419e-05
4 *2759:B1 *2756:A1 0.000120412
5 *2759:B1 *2759:A2 0.000467074
6 *2759:B1 *3016:A0 8.53011e-05
7 *2759:B1 *3016:A1 0
8 *2759:B1 *3095:A 0
9 *2759:B1 *3096:A0 3.21081e-06
10 *2759:B1 *3096:A1 0.000172739
11 *2759:B1 *3097:A 0.000133935
12 *2759:B1 *3347:A 3.21081e-06
13 *2759:B1 *443:26 0
14 *2759:B1 *443:40 0.000275548
15 *2759:B1 *594:67 0
16 *2759:B1 *594:78 0
17 *2759:B1 *871:14 0.000100871
18 *2684:B1 *2759:B1 0.000132827
*RES
1 *2756:X *2759:B1 23.94 
*END

*D_NET *256 0.00156027
*CONN
*I *2758:C1 I *D sky130_fd_sc_hd__a221o_1
*I *2757:X O *D sky130_fd_sc_hd__a22o_1
*CAP
1 *2758:C1 0.000325756
2 *2757:X 0.000325756
3 *2758:C1 *2688:A2 4.76581e-05
4 *2758:C1 *2688:B2 0
5 *2758:C1 *2758:A1 8.08153e-06
6 *2758:C1 *2758:A2 8.45991e-05
7 *2758:C1 *2758:B2 2.48591e-05
8 *2758:C1 *3033:B 0.000224487
9 *2758:C1 *3034:S 1.53032e-05
10 *2758:C1 *3036:S 4.92096e-05
11 *2758:C1 *3043:A 3.89528e-05
12 *2758:C1 *3044:A1 0.000268739
13 *2758:C1 *3044:S 6.35111e-05
14 *2758:C1 *428:114 0
15 *2758:C1 *470:8 0
16 *2758:C1 *742:45 8.33534e-05
*RES
1 *2757:X *2758:C1 15.795 
*END

*D_NET *257 0.00170791
*CONN
*I *2759:C1 I *D sky130_fd_sc_hd__a211o_1
*I *2758:X O *D sky130_fd_sc_hd__a221o_1
*CAP
1 *2759:C1 0.000581453
2 *2758:X 0.000581453
3 *2759:C1 *2759:A1 2.99518e-06
4 *2759:C1 *3024:A0 0
5 *2759:C1 *3027:A 0
6 *2759:C1 *3044:A1 0
7 *2759:C1 *742:45 0.000542006
*RES
1 *2758:X *2759:C1 15.045 
*END

*D_NET *258 0.00991112
*CONN
*I *2792:A2 I *D sky130_fd_sc_hd__a2111o_1
*I *2759:X O *D sky130_fd_sc_hd__a211o_1
*CAP
1 *2792:A2 0.0028445
2 *2759:X 0.0028445
3 *2792:A2 *2786:A1 0
4 *2792:A2 *3024:A0 0.00020272
5 *2792:A2 *3055:A 0
6 *2792:A2 *3062:A0 0.000153644
7 *2792:A2 *3063:A 0.000144134
8 *2792:A2 *3207:CLK 7.18452e-06
9 *2792:A2 *3290:A 0
10 *2792:A2 *3451:A 0
11 *2792:A2 *322:104 0.000163218
12 *2792:A2 *397:59 0.000163218
13 *2792:A2 *419:85 0
14 *2792:A2 *430:86 9.04515e-05
15 *2792:A2 *430:130 9.86611e-05
16 *2792:A2 *440:42 0
17 *2792:A2 *443:40 0
18 *2792:A2 *473:68 0.000557854
19 *2792:A2 *591:210 0.00226202
20 *2792:A2 *591:220 0
21 *2792:A2 *594:8 8.90058e-05
22 *2786:A2 *2792:A2 7.03717e-05
23 *3205:D *2792:A2 0.000109489
24 *197:84 *2792:A2 0.00011016
*RES
1 *2759:X *2792:A2 34.6897 
*END

*D_NET *259 0.000896823
*CONN
*I *2762:B1 I *D sky130_fd_sc_hd__a311o_1
*I *2760:X O *D sky130_fd_sc_hd__and3_1
*CAP
1 *2762:B1 0.000134307
2 *2760:X 0.000134307
3 *2762:B1 *2762:A1 8.51862e-05
4 *2762:B1 *2762:C1 0.000124478
5 *2762:B1 *348:128 0.000264929
6 *2705:D *2762:B1 9.30717e-05
7 *2762:A2 *2762:B1 3.26889e-05
8 *177:29 *2762:B1 2.78553e-05
*RES
1 *2760:X *2762:B1 11.775 
*END

*D_NET *260 0.00169961
*CONN
*I *2762:C1 I *D sky130_fd_sc_hd__a311o_1
*I *2761:X O *D sky130_fd_sc_hd__and3_1
*CAP
1 *2762:C1 0.000365297
2 *2761:X 0.000365297
3 *2762:C1 *2760:A 4.76303e-05
4 *2762:C1 *2762:A1 1.31227e-05
5 *2762:C1 *348:128 3.03406e-05
6 *2762:C1 *500:69 0.000415323
7 *2698:B *2762:C1 1.91597e-05
8 *2705:D *2762:C1 9.30717e-05
9 *2760:B *2762:C1 8.247e-05
10 *2762:B1 *2762:C1 0.000124478
11 *177:20 *2762:C1 0
12 *177:29 *2762:C1 4.77757e-05
13 *181:35 *2762:C1 9.56458e-05
*RES
1 *2761:X *2762:C1 16.455 
*END

*D_NET *261 0.00079201
*CONN
*I *2770:A I *D sky130_fd_sc_hd__or4_1
*I *2762:X O *D sky130_fd_sc_hd__a311o_1
*CAP
1 *2770:A 0.00019621
2 *2762:X 0.00019621
3 *2770:A *348:128 4.7043e-05
4 *2770:A *430:68 0.000267846
5 *2770:A *753:29 6.55406e-05
6 *2722:B1 *2770:A 1.91597e-05
*RES
1 *2762:X *2770:A 11.445 
*END

*D_NET *262 0.000679903
*CONN
*I *2764:B1 I *D sky130_fd_sc_hd__a31o_1
*I *2763:X O *D sky130_fd_sc_hd__and3_1
*CAP
1 *2764:B1 0.000263458
2 *2763:X 0.000263458
3 *2764:B1 *2544:A0 3.67779e-05
4 *2764:B1 *2701:A2 0
5 *2764:B1 *2764:A1 8.7152e-06
6 *2764:B1 *2779:A 0
7 *2764:B1 *731:56 5.63701e-05
8 *192:40 *2764:B1 2.05056e-05
9 *192:53 *2764:B1 3.06178e-05
10 *193:12 *2764:B1 0
*RES
1 *2763:X *2764:B1 10.755 
*END

*D_NET *263 0.00544466
*CONN
*I *2770:B I *D sky130_fd_sc_hd__or4_1
*I *2764:X O *D sky130_fd_sc_hd__a31o_1
*CAP
1 *2770:B 0.00178556
2 *2764:X 0.00178556
3 *2770:B *2764:A3 1.19928e-05
4 *2770:B *2767:B2 8.40213e-05
5 *2770:B *2792:B1 6.03272e-05
6 *2770:B *3091:A1 0.000192125
7 *2770:B *419:39 0.000120655
8 *2770:B *597:100 9.41656e-05
9 *2705:C *2770:B 0.00101423
10 *2722:B1 *2770:B 6.32369e-05
11 *2755:B1 *2770:B 7.4027e-05
12 *193:40 *2770:B 0.000158758
*RES
1 *2764:X *2770:B 31.29 
*END

*D_NET *264 0.000831742
*CONN
*I *2766:B1 I *D sky130_fd_sc_hd__a31o_1
*I *2765:X O *D sky130_fd_sc_hd__and3_1
*CAP
1 *2766:B1 0.000236802
2 *2765:X 0.000236802
3 *2766:B1 *2703:A 8.37704e-05
4 *2766:B1 *2765:A 8.51862e-05
5 *2766:B1 *2766:A1 0.000116151
6 *2766:B1 *3023:A 3.09451e-05
7 *2766:B1 *475:45 1.70935e-05
8 *2766:B1 *834:14 2.49909e-05
*RES
1 *2765:X *2766:B1 11.1 
*END

*D_NET *265 0.000944017
*CONN
*I *2770:C I *D sky130_fd_sc_hd__or4_1
*I *2766:X O *D sky130_fd_sc_hd__a31o_1
*CAP
1 *2770:C 0.000253488
2 *2766:X 0.000253488
3 *2770:C *2769:A2 0.000163019
4 *2770:C *2770:D 5.21046e-05
5 *2770:C *419:39 2.77874e-05
6 *2770:C *511:126 0.000123313
7 *2704:A2 *2770:C 3.86529e-05
8 *2722:B1 *2770:C 3.21634e-05
9 *177:39 *2770:C 0
10 *177:45 *2770:C 0
11 *202:121 *2770:C 0
*RES
1 *2766:X *2770:C 12.21 
*END

*D_NET *266 0.00220647
*CONN
*I *2769:A2 I *D sky130_fd_sc_hd__a22o_1
*I *2767:X O *D sky130_fd_sc_hd__a22o_1
*CAP
1 *2769:A2 0.000458916
2 *2767:X 0.000458916
3 *2769:A2 *2767:A1 4.28024e-05
4 *2769:A2 *2792:B1 1.88904e-05
5 *2769:A2 *2964:A1 2.75229e-05
6 *2769:A2 *2965:A 0.000215249
7 *2769:A2 *3293:A 4.17687e-05
8 *2769:A2 *419:39 0.000491731
9 *2769:A2 *430:68 7.83144e-05
10 *2767:A2 *2769:A2 1.19928e-05
11 *2770:C *2769:A2 0.000163019
12 *177:33 *2769:A2 0.000197352
13 *177:45 *2769:A2 0
*RES
1 *2767:X *2769:A2 18.48 
*END

*D_NET *267 0.00200408
*CONN
*I *2769:B1 I *D sky130_fd_sc_hd__a22o_1
*I *2768:X O *D sky130_fd_sc_hd__a22o_1
*CAP
1 *2769:B1 0.000809418
2 *2768:X 0.000809418
3 *2769:B1 *3175:CLK 1.85099e-05
4 *2769:B1 *443:122 0
5 *2722:A2 *2769:B1 3.47837e-05
6 *2722:D1 *2769:B1 2.53643e-05
7 *2769:B2 *2769:B1 4.66826e-05
8 *3175:D *2769:B1 1.43717e-05
9 *177:37 *2769:B1 5.83121e-06
10 *202:121 *2769:B1 0.000239698
*RES
1 *2768:X *2769:B1 18.195 
*END

*D_NET *268 0.000272336
*CONN
*I *2770:D I *D sky130_fd_sc_hd__or4_1
*I *2769:X O *D sky130_fd_sc_hd__a22o_1
*CAP
1 *2770:D 8.56511e-05
2 *2769:X 8.56511e-05
3 *2722:B1 *2770:D 4.89295e-05
4 *2770:C *2770:D 5.21046e-05
5 *177:39 *2770:D 0
*RES
1 *2769:X *2770:D 8.775 
*END

*D_NET *269 0.00459299
*CONN
*I *2792:B1 I *D sky130_fd_sc_hd__a2111o_1
*I *2770:X O *D sky130_fd_sc_hd__or4_1
*CAP
1 *2792:B1 0.00114972
2 *2770:X 0.00114972
3 *2792:B1 *2709:A1 9.47454e-05
4 *2792:B1 *2767:B2 0.000420398
5 *2792:B1 *2792:C1 0.00012272
6 *2792:B1 *2962:A 4.11281e-05
7 *2792:B1 *2996:A 0.000173912
8 *2792:B1 *3049:A 0.000139238
9 *2792:B1 *3083:A 0.000139238
10 *2792:B1 *3212:CLK 1.14359e-05
11 *2792:B1 *322:104 5.22047e-05
12 *2792:B1 *378:56 8.9257e-05
13 *2792:B1 *419:10 0.000139245
14 *2792:B1 *419:39 5.00699e-05
15 *2792:B1 *595:31 0.000240142
16 *2792:B1 *595:33 6.90254e-05
17 *2722:B1 *2792:B1 0.000153816
18 *2755:B1 *2792:B1 0.000157156
19 *2762:A2 *2792:B1 6.59809e-05
20 *2769:A2 *2792:B1 1.88904e-05
21 *2770:B *2792:B1 6.03272e-05
22 *2792:A1 *2792:B1 0
23 *207:159 *2792:B1 3.21271e-05
24 *208:154 *2792:B1 2.24968e-05
*RES
1 *2770:X *2792:B1 29.64 
*END

*D_NET *270 0.000762048
*CONN
*I *2775:A I *D sky130_fd_sc_hd__or4_1
*I *2771:X O *D sky130_fd_sc_hd__and3_1
*CAP
1 *2775:A 0.00018342
2 *2771:X 0.00018342
3 *2775:A *2775:B 7.1624e-05
4 *2775:A *511:102 4.10914e-05
5 *2775:A *631:41 0.000249935
6 *2773:B *2775:A 3.25571e-05
*RES
1 *2771:X *2775:A 11.775 
*END

*D_NET *271 0.000781949
*CONN
*I *2775:B I *D sky130_fd_sc_hd__or4_1
*I *2772:X O *D sky130_fd_sc_hd__and3_1
*CAP
1 *2775:B 0.000162515
2 *2772:X 0.000162515
3 *2775:B *609:53 0.000241576
4 *2775:B *631:41 0.000134595
5 *2773:B *2775:B 9.12494e-06
6 *2775:A *2775:B 7.1624e-05
*RES
1 *2772:X *2775:B 11.385 
*END

*D_NET *272 0.000309193
*CONN
*I *2775:C I *D sky130_fd_sc_hd__or4_1
*I *2773:X O *D sky130_fd_sc_hd__and3_1
*CAP
1 *2775:C 7.66844e-05
2 *2773:X 7.66844e-05
3 *2775:C *2775:D 8.34497e-05
4 *2775:C *609:53 5.69075e-05
5 *176:16 *2775:C 1.54665e-05
*RES
1 *2773:X *2775:C 5.06 
*END

*D_NET *273 0.000861059
*CONN
*I *2775:D I *D sky130_fd_sc_hd__or4_1
*I *2774:X O *D sky130_fd_sc_hd__and3_1
*CAP
1 *2775:D 0.000193528
2 *2774:X 0.000193528
3 *2775:D *609:53 0.000111641
4 *2774:C *2775:D 1.47652e-05
5 *2775:C *2775:D 8.34497e-05
6 *176:16 *2775:D 0.000264146
*RES
1 *2774:X *2775:D 8.3 
*END

*D_NET *274 0.000905648
*CONN
*I *2783:A I *D sky130_fd_sc_hd__or4_1
*I *2775:X O *D sky130_fd_sc_hd__or4_1
*CAP
1 *2783:A 0.000247127
2 *2775:X 0.000247127
3 *2783:A *2792:C1 4.89254e-05
4 *2783:A *631:41 0.000112589
5 *2692:A *2783:A 4.66108e-05
6 *2745:C *2783:A 4.57506e-05
7 *191:33 *2783:A 4.66108e-05
8 *191:46 *2783:A 2.85623e-05
9 *192:10 *2783:A 8.23457e-05
*RES
1 *2775:X *2783:A 12.135 
*END

*D_NET *275 0.00387147
*CONN
*I *2780:A I *D sky130_fd_sc_hd__or4_1
*I *2776:X O *D sky130_fd_sc_hd__and3_1
*CAP
1 *2780:A 0.000819035
2 *2776:X 0.000819035
3 *2780:A *2742:A1 0.000245007
4 *2780:A *2780:D 0.000339026
5 *2780:A *2960:A_N 0.0002014
6 *2780:A *2989:A 3.86529e-05
7 *2780:A *355:82 0.000357739
8 *2780:A *428:45 0.000412903
9 *2780:A *473:124 4.87939e-05
10 *2780:A *631:33 0.000137563
11 *2780:A *720:49 0.000294594
12 *2780:A *779:74 0.000115464
13 *2742:B1 *2780:A 0
14 *2778:C *2780:A 4.22597e-05
*RES
1 *2776:X *2780:A 27.015 
*END

*D_NET *276 0.00179235
*CONN
*I *2780:B I *D sky130_fd_sc_hd__or4_1
*I *2777:X O *D sky130_fd_sc_hd__and3_1
*CAP
1 *2780:B 0.00030813
2 *2777:X 0.00030813
3 *2780:B *3002:A 4.72912e-05
4 *2780:B *3049:A 0.000524845
5 *2780:B *348:91 0.0001361
6 *2744:C1 *2780:B 0.000171486
7 *2777:B *2780:B 0.000192504
8 *187:124 *2780:B 0.000103865
*RES
1 *2777:X *2780:B 15.3 
*END

*D_NET *277 0.000509553
*CONN
*I *2780:C I *D sky130_fd_sc_hd__or4_1
*I *2778:X O *D sky130_fd_sc_hd__and3_1
*CAP
1 *2780:C 6.07711e-05
2 *2778:X 6.07711e-05
3 *2780:C *428:45 0.000144665
4 *2780:C *473:43 0.000243346
*RES
1 *2778:X *2780:C 5.735 
*END

*D_NET *278 0.00322744
*CONN
*I *2780:D I *D sky130_fd_sc_hd__or4_1
*I *2779:X O *D sky130_fd_sc_hd__and3_1
*CAP
1 *2780:D 0.000523345
2 *2779:X 0.000523345
3 *2780:D *2544:A0 0.00011046
4 *2780:D *2743:A 0.000266618
5 *2780:D *3087:B 0.000208121
6 *2780:D *3117:S 3.4222e-05
7 *2780:D *355:82 0.000433726
8 *2780:D *409:115 2.16306e-05
9 *2780:D *428:45 9.68403e-05
10 *2780:D *473:124 4.25877e-05
11 *2780:D *498:12 3.86607e-05
12 *2780:D *720:49 5.8678e-05
13 *2743:C *2780:D 8.3945e-05
14 *2778:C *2780:D 0.000446232
15 *2780:A *2780:D 0.000339026
*RES
1 *2779:X *2780:D 22.77 
*END

*D_NET *279 0.000424705
*CONN
*I *2783:B I *D sky130_fd_sc_hd__or4_1
*I *2780:X O *D sky130_fd_sc_hd__or4_1
*CAP
1 *2783:B 0.000125912
2 *2780:X 0.000125912
3 *2783:B *2783:D 3.09296e-05
4 *2783:B *348:91 7.1624e-05
5 *2783:B *731:42 7.03276e-05
*RES
1 *2780:X *2783:B 9.21 
*END

*D_NET *280 0.00129624
*CONN
*I *2783:C I *D sky130_fd_sc_hd__or4_1
*I *2781:X O *D sky130_fd_sc_hd__and3_1
*CAP
1 *2783:C 0.000132247
2 *2781:X 0.000132247
3 *2783:C *355:82 0.000453651
4 *2783:C *409:115 0.000451598
5 *2783:C *720:49 0.000126494
*RES
1 *2781:X *2783:C 12.66 
*END

*D_NET *281 0.00311951
*CONN
*I *2783:D I *D sky130_fd_sc_hd__or4_1
*I *2782:X O *D sky130_fd_sc_hd__a31o_1
*CAP
1 *2783:D 0.000598532
2 *2782:X 0.000598532
3 *2783:D *2792:C1 0.000630682
4 *2783:D *2986:A1 2.20014e-05
5 *2783:D *2987:A 8.64421e-05
6 *2783:D *2988:A1 0.000322624
7 *2783:D *417:39 7.06865e-05
8 *2783:D *596:12 0.000154433
9 *2783:D *596:16 0.000366478
10 *2744:A2 *2783:D 8.40269e-05
11 *2749:B1 *2783:D 0.000122797
12 *2782:A3 *2783:D 0
13 *2783:B *2783:D 3.09296e-05
14 *183:110 *2783:D 3.13459e-05
*RES
1 *2782:X *2783:D 25.9 
*END

*D_NET *282 0.0048443
*CONN
*I *2792:C1 I *D sky130_fd_sc_hd__a2111o_1
*I *2783:X O *D sky130_fd_sc_hd__or4_1
*CAP
1 *2792:C1 0.00132572
2 *2783:X 0.00132572
3 *2792:C1 *2978:A 0.000128654
4 *2792:C1 *3084:A0 0.000193666
5 *2792:C1 *3084:S 8.23457e-05
6 *2792:C1 *3085:A 5.0958e-05
7 *2792:C1 *378:56 0.000238057
8 *2777:C *2792:C1 0.00056014
9 *2783:A *2792:C1 4.89254e-05
10 *2783:D *2792:C1 0.000630682
11 *2792:B1 *2792:C1 0.00012272
12 *215:148 *2792:C1 0.000136719
*RES
1 *2783:X *2792:C1 27.815 
*END

*D_NET *283 0.00453965
*CONN
*I *2786:B1 I *D sky130_fd_sc_hd__a211o_1
*I *2784:X O *D sky130_fd_sc_hd__a22o_1
*CAP
1 *2786:B1 0.00125443
2 *2784:X 0.00125443
3 *2786:B1 *2784:A1 1.15125e-05
4 *2786:B1 *2784:B2 0.000416443
5 *2786:B1 *2786:A1 0.000554547
6 *2786:B1 *2786:C1 2.79099e-05
7 *2786:B1 *2791:A2 2.13725e-05
8 *2786:B1 *3062:S 9.05535e-05
9 *2786:B1 *3064:A1 0
10 *2786:B1 *320:64 0.000349967
11 *2786:B1 *428:83 0.000112297
12 *2786:B1 *851:12 9.25469e-05
13 *2735:C1 *2786:B1 2.86265e-06
14 *3207:D *2786:B1 0.00035077
*RES
1 *2784:X *2786:B1 27.765 
*END

*D_NET *284 0.00134879
*CONN
*I *2786:C1 I *D sky130_fd_sc_hd__a211o_1
*I *2785:X O *D sky130_fd_sc_hd__a22o_1
*CAP
1 *2786:C1 0.00029788
2 *2785:X 0.00029788
3 *2786:C1 *3077:A0 7.03276e-05
4 *2786:C1 *405:68 0.000343132
5 *2786:C1 *591:220 0.000263631
6 *2735:C1 *2786:C1 4.80285e-05
7 *2786:A2 *2786:C1 0
8 *2786:B1 *2786:C1 2.79099e-05
*RES
1 *2785:X *2786:C1 15.855 
*END

*D_NET *285 0.00623629
*CONN
*I *2791:A2 I *D sky130_fd_sc_hd__a211o_1
*I *2786:X O *D sky130_fd_sc_hd__a211o_1
*CAP
1 *2791:A2 0.00173246
2 *2786:X 0.00173246
3 *2791:A2 *2786:A1 2.04748e-05
4 *2791:A2 *2788:B1 0.000114077
5 *2791:A2 *2990:B 0.000138092
6 *2791:A2 *2997:A0 0.000295915
7 *2791:A2 *2997:S 2.47547e-05
8 *2791:A2 *3000:A0 0
9 *2791:A2 *372:18 0
10 *2791:A2 *428:65 0.000387251
11 *2791:A2 *428:83 0.000269806
12 *2791:A2 *849:8 0.000566219
13 *2786:A2 *2791:A2 0.000204026
14 *2786:B1 *2791:A2 2.13725e-05
15 *3207:D *2791:A2 9.27038e-05
16 *193:54 *2791:A2 0.000627542
17 *193:56 *2791:A2 9.12494e-06
*RES
1 *2786:X *2791:A2 39.345 
*END

*D_NET *286 0.00056442
*CONN
*I *2788:B1 I *D sky130_fd_sc_hd__a31o_1
*I *2787:X O *D sky130_fd_sc_hd__and3_1
*CAP
1 *2788:B1 0.000151519
2 *2787:X 0.000151519
3 *2788:B1 *372:18 0
4 *2791:A2 *2788:B1 0.000114077
5 *193:56 *2788:B1 2.83135e-05
6 *207:103 *2788:B1 0.000118991
*RES
1 *2787:X *2788:B1 10.62 
*END

*D_NET *287 0.000411984
*CONN
*I *2791:B1 I *D sky130_fd_sc_hd__a211o_1
*I *2788:X O *D sky130_fd_sc_hd__a31o_1
*CAP
1 *2791:B1 8.98688e-05
2 *2788:X 8.98688e-05
3 *2791:B1 *2811:A1 0.000135593
4 *193:56 *2791:B1 4.65578e-05
5 *207:159 *2791:B1 5.0096e-05
*RES
1 *2788:X *2791:B1 9.285 
*END

*D_NET *288 0.00215488
*CONN
*I *2790:B1 I *D sky130_fd_sc_hd__a32o_1
*I *2789:X O *D sky130_fd_sc_hd__a22o_1
*CAP
1 *2790:B1 0.000590538
2 *2789:X 0.000590538
3 *2790:B1 *2598:A 5.33085e-05
4 *2790:B1 *2600:S 0.000102529
5 *2790:B1 *2738:A1 0.000138551
6 *2790:B1 *2902:A 4.77757e-05
7 *2790:B1 *2919:B 0.000209484
8 *2790:B1 *3447:A 2.79137e-05
9 *2790:B1 *316:60 5.4155e-06
10 *2790:B1 *316:80 1.08758e-05
11 *2790:B1 *356:49 4.18893e-05
12 *2790:B1 *560:22 0.000220015
13 *2789:A2 *2790:B1 6.60324e-05
14 *2790:A2 *2790:B1 1.59999e-05
15 *174:92 *2790:B1 2.8185e-05
16 *181:16 *2790:B1 5.83121e-06
*RES
1 *2789:X *2790:B1 17.8575 
*END

*D_NET *289 0.00436641
*CONN
*I *2791:C1 I *D sky130_fd_sc_hd__a211o_1
*I *2790:X O *D sky130_fd_sc_hd__a32o_1
*CAP
1 *2791:C1 0.000658714
2 *2790:X 0.000658714
3 *2791:C1 *2792:D1 0.000119873
4 *2791:C1 *322:104 0.00038507
5 *2791:C1 *349:12 0.000761428
6 *2791:C1 *397:59 0
7 *2791:C1 *595:33 0.000112412
8 *2791:C1 *595:35 7.66377e-05
9 *2740:C1 *2791:C1 0.000801191
10 *2750:A *2791:C1 1.44259e-05
11 *2755:B1 *2791:C1 0.000116216
12 *2782:B1 *2791:C1 0.000139203
13 *2787:C *2791:C1 4.27429e-05
14 *2790:A3 *2791:C1 0.00015891
15 *176:31 *2791:C1 0.000143903
16 *212:113 *2791:C1 0.000146208
17 *231:82 *2791:C1 3.07573e-05
*RES
1 *2790:X *2791:C1 28.71 
*END

*D_NET *290 0.00116656
*CONN
*I *2792:D1 I *D sky130_fd_sc_hd__a2111o_1
*I *2791:X O *D sky130_fd_sc_hd__a211o_1
*CAP
1 *2792:D1 0.000237763
2 *2791:X 0.000237763
3 *2792:D1 *362:60 0.000171888
4 *2787:B *2792:D1 0.000219669
5 *2791:C1 *2792:D1 0.000119873
6 *176:31 *2792:D1 1.14192e-05
7 *207:117 *2792:D1 8.46768e-05
8 *207:159 *2792:D1 8.35118e-05
*RES
1 *2791:X *2792:D1 12.555 
*END

*D_NET *291 0.00455321
*CONN
*I *2811:A1 I *D sky130_fd_sc_hd__o31a_1
*I *2792:X O *D sky130_fd_sc_hd__a2111o_1
*CAP
1 *2811:A1 0.000931424
2 *2792:X 0.000931424
3 *2811:A1 *2752:A1 0
4 *2811:A1 *2811:A3 0.000138144
5 *2811:A1 *2906:A 7.4027e-05
6 *2811:A1 *356:67 8.0605e-05
7 *2811:A1 *362:60 0.000281568
8 *2811:A1 *397:18 5.80063e-05
9 *2737:B1 *2811:A1 0.000454779
10 *2752:C1 *2811:A1 0.000311095
11 *2787:B *2811:A1 4.59884e-05
12 *2787:C *2811:A1 7.00456e-05
13 *2788:A3 *2811:A1 0.000167301
14 *2791:B1 *2811:A1 0.000135593
15 *3148:D *2811:A1 0.00033517
16 *193:56 *2811:A1 2.54701e-05
17 *207:80 *2811:A1 0.000395582
18 *207:159 *2811:A1 8.49496e-05
19 *231:20 *2811:A1 3.20382e-05
*RES
1 *2792:X *2811:A1 33.615 
*END

*D_NET *292 0.000517599
*CONN
*I *2794:B1 I *D sky130_fd_sc_hd__a21o_1
*I *2793:X O *D sky130_fd_sc_hd__a22o_1
*CAP
1 *2794:B1 0.000103413
2 *2793:X 0.000103413
3 *2794:B1 *405:35 8.40269e-05
4 *2721:A1 *2794:B1 0.000113373
5 *207:42 *2794:B1 0.000113373
*RES
1 *2793:X *2794:B1 9.375 
*END

*D_NET *293 0.00120969
*CONN
*I *2800:A1 I *D sky130_fd_sc_hd__o31a_1
*I *2794:X O *D sky130_fd_sc_hd__a21o_1
*CAP
1 *2800:A1 0.000248947
2 *2794:X 0.000248947
3 *2800:A1 *2800:A3 0
4 *2800:A1 *362:16 4.82863e-05
5 *2800:A1 *374:45 0.000470284
6 *2721:A1 *2800:A1 0.000149165
7 *221:12 *2800:A1 4.40578e-05
*RES
1 *2794:X *2800:A1 13.365 
*END

*D_NET *294 0.000602545
*CONN
*I *2796:B1 I *D sky130_fd_sc_hd__a21o_1
*I *2795:X O *D sky130_fd_sc_hd__a22o_1
*CAP
1 *2796:B1 0.00015764
2 *2795:X 0.00015764
3 *2796:B1 *2795:A1 1.37328e-05
4 *202:16 *2796:B1 0.000273532
*RES
1 *2795:X *2796:B1 6.335 
*END

*D_NET *295 0.000479837
*CONN
*I *2800:A2 I *D sky130_fd_sc_hd__o31a_1
*I *2796:X O *D sky130_fd_sc_hd__a21o_1
*CAP
1 *2800:A2 0.000127144
2 *2796:X 0.000127144
3 *2800:A2 *2800:A3 1.19928e-05
4 *2800:A2 *322:85 7.4027e-05
5 *2800:A2 *413:26 9.53428e-06
6 *2800:B1 *2800:A2 5.59676e-05
7 *221:12 *2800:A2 7.4027e-05
*RES
1 *2796:X *2800:A2 9.93 
*END

*D_NET *296 0.000479178
*CONN
*I *2799:B1 I *D sky130_fd_sc_hd__a211o_1
*I *2797:X O *D sky130_fd_sc_hd__a22o_1
*CAP
1 *2799:B1 0.000143005
2 *2797:X 0.000143005
3 *2799:B1 *343:32 0.000133547
4 *2799:B1 *527:50 0
5 *2797:A2 *2799:B1 5.60203e-05
6 *2799:A2 *2799:B1 3.60024e-06
*RES
1 *2797:X *2799:B1 9.63 
*END

*D_NET *297 0.00064618
*CONN
*I *2799:C1 I *D sky130_fd_sc_hd__a211o_1
*I *2798:X O *D sky130_fd_sc_hd__a22o_1
*CAP
1 *2799:C1 0.000130844
2 *2798:X 0.000130844
3 *2799:C1 *2716:A1 1.99109e-05
4 *2799:C1 *2799:A1 1.20052e-05
5 *2799:C1 *2800:A3 0.000155358
6 *2720:A *2799:C1 1.77665e-05
7 *2798:A2 *2799:C1 8.97264e-05
8 *2798:B1 *2799:C1 8.97264e-05
*RES
1 *2798:X *2799:C1 10.635 
*END

*D_NET *298 0.00563857
*CONN
*I *2800:A3 I *D sky130_fd_sc_hd__o31a_1
*I *2799:X O *D sky130_fd_sc_hd__a211o_1
*CAP
1 *2800:A3 0.00141255
2 *2799:X 0.00141255
3 *2800:A3 *2573:A 0
4 *2800:A3 *2578:A 1.56428e-05
5 *2800:A3 *2578:B 7.63883e-05
6 *2800:A3 *2616:A 0.000154213
7 *2800:A3 *2617:A1 7.23602e-05
8 *2800:A3 *2714:A1 7.00066e-05
9 *2800:A3 *2716:A1 9.86509e-05
10 *2800:A3 *2793:A1 0.000340422
11 *2800:A3 *2794:A1 0.000244224
12 *2800:A3 *2799:A1 0.000122801
13 *2800:A3 *322:85 0.00036869
14 *2800:A3 *413:26 8.40269e-05
15 *2800:A3 *854:16 2.15594e-05
16 *2721:A1 *2800:A3 0.000509792
17 *2721:A2 *2800:A3 9.72235e-05
18 *2797:A2 *2800:A3 0.000226848
19 *2799:C1 *2800:A3 0.000155358
20 *2800:A1 *2800:A3 0
21 *2800:A2 *2800:A3 1.19928e-05
22 *2800:B1 *2800:A3 4.82919e-05
23 *197:42 *2800:A3 2.86265e-06
24 *221:12 *2800:A3 9.21068e-05
*RES
1 *2799:X *2800:A3 36.99 
*END

*D_NET *299 0.00097557
*CONN
*I *2811:A2 I *D sky130_fd_sc_hd__o31a_1
*I *2800:X O *D sky130_fd_sc_hd__o31a_1
*CAP
1 *2811:A2 0.000330902
2 *2800:X 0.000330902
3 *2811:A2 *397:18 8.29388e-05
4 *2800:B1 *2811:A2 3.64998e-06
5 *174:102 *2811:A2 8.67385e-05
6 *207:80 *2811:A2 0.000140438
*RES
1 *2800:X *2811:A2 12.54 
*END

*D_NET *300 0.00162222
*CONN
*I *2802:C1 I *D sky130_fd_sc_hd__a221o_1
*I *2801:X O *D sky130_fd_sc_hd__a22o_1
*CAP
1 *2802:C1 0.000359678
2 *2801:X 0.000359678
3 *2802:C1 *2944:A0 4.82863e-05
4 *2802:C1 *2944:A1 3.96737e-05
5 *2802:C1 *2944:S 8.65905e-05
6 *2802:C1 *2945:A 7.14241e-05
7 *2802:C1 *2950:A0 0.0004262
8 *2802:C1 *2950:A1 9.66106e-05
9 *2802:C1 *2950:S 4.82919e-05
10 *2802:C1 *900:10 8.57914e-05
*RES
1 *2801:X *2802:C1 15.945 
*END

*D_NET *301 0.00281712
*CONN
*I *2809:A1 I *D sky130_fd_sc_hd__o21a_1
*I *2802:X O *D sky130_fd_sc_hd__a221o_1
*CAP
1 *2809:A1 0.000659885
2 *2802:X 0.000659885
3 *2809:A1 *2728:A2 8.41384e-05
4 *2809:A1 *2802:A2 2.46089e-05
5 *2809:A1 *2806:B2 2.53191e-06
6 *2809:A1 *401:34 0.00052231
7 *2809:A1 *409:34 7.47145e-05
8 *2809:A1 *620:29 0.000108213
9 *2809:A1 *764:30 0.000113315
10 *2809:A1 *764:64 0.000289589
11 *2730:B *2809:A1 7.1624e-05
12 *2730:C *2809:A1 0.000112595
13 *185:28 *2809:A1 9.37118e-05
*RES
1 *2802:X *2809:A1 23.445 
*END

*D_NET *302 0.00101379
*CONN
*I *2804:C1 I *D sky130_fd_sc_hd__a221o_1
*I *2803:X O *D sky130_fd_sc_hd__a22o_1
*CAP
1 *2804:C1 0.000349915
2 *2803:X 0.000349915
3 *2804:C1 *2804:B2 7.9642e-06
4 *2804:C1 *356:79 0.000134361
5 *2726:A2 *2804:C1 6.60257e-06
6 *2754:A *2804:C1 7.27402e-06
7 *202:53 *2804:C1 3.69113e-05
8 *231:52 *2804:C1 0.000120849
*RES
1 *2803:X *2804:C1 12.135 
*END

*D_NET *303 0.00127766
*CONN
*I *2808:A I *D sky130_fd_sc_hd__or3_1
*I *2804:X O *D sky130_fd_sc_hd__a221o_1
*CAP
1 *2808:A 0.000373941
2 *2804:X 0.000373941
3 *2808:A *363:26 8.92044e-05
4 *2732:A2 *2808:A 4.19688e-05
5 *2732:A3 *2808:A 0
6 *197:94 *2808:A 0.00034554
7 *208:47 *2808:A 5.30673e-05
*RES
1 *2804:X *2808:A 15.495 
*END

*D_NET *304 0.00165751
*CONN
*I *2806:C1 I *D sky130_fd_sc_hd__a221o_1
*I *2805:X O *D sky130_fd_sc_hd__a22o_1
*CAP
1 *2806:C1 0.000453431
2 *2805:X 0.000453431
3 *2806:C1 *2728:B2 6.71882e-05
4 *2806:C1 *2806:B2 6.61527e-06
5 *2806:C1 *2808:C 0.000193011
6 *2806:C1 *2940:A1 0
7 *2806:C1 *3408:A 6.33103e-05
8 *2806:C1 *901:12 3.70488e-05
9 *2806:B1 *2806:C1 9.72742e-06
10 *3158:D *2806:C1 3.68682e-05
11 *181:106 *2806:C1 0.000152503
12 *187:83 *2806:C1 0.000160387
13 *218:109 *2806:C1 2.39856e-05
*RES
1 *2805:X *2806:C1 16.845 
*END

*D_NET *305 0.000550482
*CONN
*I *2808:B I *D sky130_fd_sc_hd__or3_1
*I *2806:X O *D sky130_fd_sc_hd__a221o_1
*CAP
1 *2808:B 0.000156616
2 *2806:X 0.000156616
3 *2808:B *2808:C 0.000237249
*RES
1 *2806:X *2808:B 5.375 
*END

*D_NET *306 0.00192563
*CONN
*I *2808:C I *D sky130_fd_sc_hd__or3_1
*I *2807:X O *D sky130_fd_sc_hd__a22o_1
*CAP
1 *2808:C 0.000387393
2 *2807:X 0.000387393
3 *2808:C *2728:B2 0.000157103
4 *2808:C *2806:B2 1.21515e-05
5 *2808:C *324:74 0.000155429
6 *2806:B1 *2808:C 0.000379717
7 *2806:C1 *2808:C 0.000193011
8 *2808:B *2808:C 0.000237249
9 *208:47 *2808:C 1.61831e-05
*RES
1 *2807:X *2808:C 16.02 
*END

*D_NET *307 0.000750018
*CONN
*I *2809:A2 I *D sky130_fd_sc_hd__o21a_1
*I *2808:X O *D sky130_fd_sc_hd__or3_1
*CAP
1 *2809:A2 0.000244132
2 *2808:X 0.000244132
3 *2809:A2 *2727:A1 1.22325e-05
4 *2809:A2 *2727:B2 8.53011e-05
5 *2727:B1 *2809:A2 7.1624e-05
6 *2809:B1 *2809:A2 9.25963e-05
*RES
1 *2808:X *2809:A2 11.655 
*END

*D_NET *308 0.00551411
*CONN
*I *2811:A3 I *D sky130_fd_sc_hd__o31a_1
*I *2809:X O *D sky130_fd_sc_hd__o21a_1
*CAP
1 *2811:A3 0.00195763
2 *2809:X 0.00195763
3 *2811:A3 *2605:A1 2.39856e-05
4 *2811:A3 *2727:A1 7.18107e-06
5 *2811:A3 *2811:B1 3.64816e-05
6 *2811:A3 *2889:A 5.06989e-05
7 *2811:A3 *2908:B_N 2.36768e-05
8 *2811:A3 *3154:CLK 0.000351527
9 *2811:A3 *316:80 8.54281e-05
10 *2811:A3 *370:30 0.000223104
11 *2727:A2 *2811:A3 2.21074e-05
12 *2809:B1 *2811:A3 0.000347324
13 *2811:A1 *2811:A3 0.000138144
14 *3154:D *2811:A3 6.22023e-06
15 *3254:D *2811:A3 2.50284e-05
16 *207:80 *2811:A3 0.000257944
*RES
1 *2809:X *2811:A3 35.955 
*END

*D_NET *309 0.00591684
*CONN
*I *2811:B1 I *D sky130_fd_sc_hd__o31a_1
*I *2810:X O *D sky130_fd_sc_hd__o21a_1
*CAP
1 *2811:B1 0.00114814
2 *2810:X 0.00114814
3 *2811:B1 *2594:A 2.93517e-05
4 *2811:B1 *2595:A1 7.1624e-05
5 *2811:B1 *2595:S 1.08758e-05
6 *2811:B1 *2603:A 0.000158541
7 *2811:B1 *3423:A 0.000380089
8 *2811:B1 *316:43 0.000158556
9 *2811:B1 *352:100 5.96861e-05
10 *2811:B1 *528:72 0.000411764
11 *2811:B1 *557:10 2.01737e-05
12 *2811:B1 *631:20 0.000236411
13 *2811:A3 *2811:B1 3.64816e-05
14 *3255:D *2811:B1 0.000156294
15 *3273:D *2811:B1 0.00189071
*RES
1 *2810:X *2811:B1 36.21 
*END

*D_NET *310 0.00435344
*CONN
*I *2816:A1 I *D sky130_fd_sc_hd__a32o_1
*I *2634:B1 I *D sky130_fd_sc_hd__o21ai_1
*I *2836:B I *D sky130_fd_sc_hd__nand2_1
*I *2844:B I *D sky130_fd_sc_hd__and2_1
*I *2817:A I *D sky130_fd_sc_hd__and2_1
*I *2812:Y O *D sky130_fd_sc_hd__inv_2
*CAP
1 *2816:A1 2.0116e-05
2 *2634:B1 4.50874e-05
3 *2836:B 1.67644e-05
4 *2844:B 0.000106779
5 *2817:A 3.25634e-05
6 *2812:Y 0.000246691
7 *310:23 0.000361307
8 *310:19 0.000282851
9 *310:8 0.000107327
10 *310:6 0.00034157
11 *2634:B1 *2634:A1 5.98004e-06
12 *2634:B1 *603:22 0.000134516
13 *2816:A1 *2635:B2 2.23407e-05
14 *2816:A1 *2816:B1 4.9968e-05
15 *2816:A1 *311:8 5.53249e-06
16 *2817:A *2634:A1 2.75145e-05
17 *2836:B *785:10 4.82919e-05
18 *2844:B *2844:A 4.99619e-05
19 *2844:B *330:10 3.23663e-05
20 *2844:B *785:10 2.956e-05
21 *310:6 *2816:B2 0.000185505
22 *310:6 *3136:D 1.96006e-05
23 *310:6 *3284:RESET_B 2.59926e-05
24 *310:6 *3354:A 0.00011964
25 *310:6 *3359:A 5.30673e-05
26 *310:6 *653:40 0.00026033
27 *310:8 *2634:A1 1.91597e-05
28 *310:8 *2816:B2 0.000122325
29 *310:8 *784:16 2.75229e-05
30 *310:23 *2634:A1 2.24423e-05
31 *310:23 *2818:A 4.62396e-05
32 *310:23 *330:10 0
33 *310:23 *603:22 0.000226841
34 *310:23 *784:16 2.50049e-05
35 *2815:C *2817:A 0
36 *159:36 *2634:B1 0.000108975
37 *159:36 *2817:A 4.82863e-05
38 *159:36 *310:6 0.000804115
39 *159:36 *310:8 0.000271303
*RES
1 *2812:Y *310:6 11.02 
2 *310:6 *310:8 2.52 
3 *310:8 *2817:A 2.41 
4 *310:8 *310:19 2 
5 *310:19 *310:23 6.695 
6 *310:23 *2844:B 3.805 
7 *310:23 *2836:B 2.05 
8 *310:19 *2634:B1 5.235 
9 *310:6 *2816:A1 6.215 
*END

*D_NET *311 0.00198518
*CONN
*I *2635:B2 I *D sky130_fd_sc_hd__a22o_1
*I *2816:A3 I *D sky130_fd_sc_hd__a32o_1
*I *2813:X O *D sky130_fd_sc_hd__or2_1
*CAP
1 *2635:B2 0.000407081
2 *2816:A3 0
3 *2813:X 0.000267204
4 *311:8 0.000674286
5 *2635:B2 *2635:B1 2.69153e-05
6 *2635:B2 *2816:B1 2.88519e-05
7 *2635:B2 *603:16 0
8 *2635:B2 *603:22 0
9 *311:8 *2813:B 0
10 *311:8 *2816:A2 8.34314e-05
11 *311:8 *3354:A 0
12 *311:8 *603:22 0
13 *311:8 *603:30 6.44134e-05
14 *311:8 *785:32 0
15 *2635:A2 *2635:B2 0.000317582
16 *2635:A2 *311:8 5.84573e-05
17 *2816:A1 *2635:B2 2.23407e-05
18 *2816:A1 *311:8 5.53249e-06
19 *3128:D *311:8 2.90837e-05
20 *8:10 *311:8 0
*RES
1 *2813:X *311:8 9.06 
2 *311:8 *2816:A3 3.6 
3 *311:8 *2635:B2 11.61 
*END

*D_NET *312 0.00356122
*CONN
*I *2815:D I *D sky130_fd_sc_hd__and4_1
*I *2838:B I *D sky130_fd_sc_hd__nand2_1
*I *2855:A1 I *D sky130_fd_sc_hd__a21o_1
*I *2814:X O *D sky130_fd_sc_hd__and4_1
*CAP
1 *2815:D 0.000561437
2 *2838:B 0
3 *2855:A1 0
4 *2814:X 0.000434398
5 *312:25 0.000807915
6 *312:10 0.000680877
7 *2815:D *2634:A1 0.000210151
8 *2815:D *2839:A1 0
9 *2815:D *2840:A2 0
10 *2815:D *330:10 0
11 *2815:D *330:27 0
12 *2815:D *603:16 0
13 *2815:D *779:24 0.000121032
14 *312:10 *2845:A 8.12896e-06
15 *312:10 *2855:B1 1.25877e-05
16 *312:10 *2859:A1_N 0.00013406
17 *312:10 *2859:A2_N 5.06989e-05
18 *312:10 *2859:B2 0.000158515
19 *312:10 *334:10 2.99981e-06
20 *312:10 *334:18 3.30017e-05
21 *312:10 *602:16 0
22 *312:25 *2855:B1 0.000207304
23 *312:25 *602:16 0
24 *312:25 *779:24 4.26765e-05
25 *2815:C *2815:D 9.54399e-05
*RES
1 *2814:X *312:10 9.99 
2 *312:10 *2855:A1 3.6 
3 *312:10 *312:25 6.35 
4 *312:25 *2838:B 1.6 
5 *312:25 *2815:D 15.17 
*END

*D_NET *313 0.00116669
*CONN
*I *2816:B1 I *D sky130_fd_sc_hd__a32o_1
*I *2634:A2 I *D sky130_fd_sc_hd__o21ai_1
*I *2815:X O *D sky130_fd_sc_hd__and4_1
*CAP
1 *2816:B1 0.000328104
2 *2634:A2 0
3 *2815:X 2.2036e-05
4 *313:10 0.00035014
5 *2816:B1 *2635:B1 0.000209355
6 *2816:B1 *2816:B2 2.09749e-05
7 *2816:B1 *603:22 0
8 *313:10 *2634:A1 7.4027e-05
9 *2635:B2 *2816:B1 2.88519e-05
10 *2816:A1 *2816:B1 4.9968e-05
11 *159:36 *2816:B1 1.08758e-05
12 *159:36 *313:10 7.23533e-05
*RES
1 *2815:X *313:10 6.47 
2 *313:10 *2634:A2 1.6 
3 *313:10 *2816:B1 10.3025 
*END

*D_NET *314 0.00112184
*CONN
*I *2818:A I *D sky130_fd_sc_hd__buf_1
*I *2817:X O *D sky130_fd_sc_hd__and2_1
*CAP
1 *2818:A 0.000250954
2 *2817:X 0.000250954
3 *2818:A *2816:A2 0
4 *2818:A *698:14 3.00381e-05
5 *2818:A *784:16 0.00018305
6 *8:10 *2818:A 0.000360604
7 *310:23 *2818:A 4.62396e-05
*RES
1 *2817:X *2818:A 13.215 
*END

*D_NET *315 0.0017996
*CONN
*I *2644:A2 I *D sky130_fd_sc_hd__o21ai_1
*I *2820:A I *D sky130_fd_sc_hd__buf_2
*I *3108:A I *D sky130_fd_sc_hd__clkbuf_4
*I *2861:A I *D sky130_fd_sc_hd__clkbuf_4
*I *2819:X O *D sky130_fd_sc_hd__xor2_2
*CAP
1 *2644:A2 0.000233274
2 *2820:A 0
3 *3108:A 4.79116e-05
4 *2861:A 0
5 *2819:X 7.59671e-05
6 *315:23 0.000122228
7 *315:19 0.000390115
8 *315:8 0.000158492
9 *2644:A2 *2643:B 4.66742e-05
10 *2644:A2 *2644:A1 3.26889e-05
11 *2644:A2 *2644:B1 3.00381e-05
12 *2644:A2 *2645:B1 3.00381e-05
13 *2644:A2 *327:14 2.59926e-05
14 *3108:A *316:6 7.60965e-05
15 *3108:A *327:14 0.000122155
16 *315:8 *327:14 6.47594e-05
17 *315:8 *801:25 1.01661e-05
18 *315:19 *2643:A 2.75538e-05
19 *315:19 *2643:B 0
20 *315:19 *327:14 7.55391e-05
21 *315:19 *605:53 0.000204463
22 *315:23 *327:14 2.54431e-05
*RES
1 *2819:X *315:8 5.235 
2 *315:8 *2861:A 3.6 
3 *315:8 *315:19 4.655 
4 *315:19 *315:23 1.155 
5 *315:23 *3108:A 3.43 
6 *315:23 *2820:A 1.6 
7 *315:19 *2644:A2 5.515 
*END

*D_NET *316 0.0275721
*CONN
*I *2620:A0 I *D sky130_fd_sc_hd__mux2_1
*I *2585:A0 I *D sky130_fd_sc_hd__mux2_1
*I *2625:A0 I *D sky130_fd_sc_hd__mux2_1
*I *2600:A0 I *D sky130_fd_sc_hd__mux2_1
*I *2605:A0 I *D sky130_fd_sc_hd__mux2_1
*I *2615:A0 I *D sky130_fd_sc_hd__mux2_1
*I *2610:A0 I *D sky130_fd_sc_hd__mux2_1
*I *2830:A1 I *D sky130_fd_sc_hd__mux2_1
*I *2595:A0 I *D sky130_fd_sc_hd__mux2_1
*I *2632:A0 I *D sky130_fd_sc_hd__mux2_1
*I *2820:X O *D sky130_fd_sc_hd__buf_2
*CAP
1 *2620:A0 0.000483596
2 *2585:A0 0
3 *2625:A0 2.11176e-05
4 *2600:A0 0
5 *2605:A0 9.90309e-05
6 *2615:A0 0.000157009
7 *2610:A0 0
8 *2830:A1 0.0010605
9 *2595:A0 8.03427e-05
10 *2632:A0 0.00058426
11 *2820:X 0.000106529
12 *316:166 0.000952628
13 *316:96 0.00265271
14 *316:82 0.0023353
15 *316:80 0.00166655
16 *316:60 0.0013901
17 *316:43 0.000756153
18 *316:37 0.000927973
19 *316:12 0.00141254
20 *316:6 0.000764124
21 *2595:A0 *2595:S 8.97053e-06
22 *2605:A0 *374:45 4.76051e-05
23 *2615:A0 *2615:A1 8.49936e-05
24 *2615:A0 *2617:S 1.34594e-05
25 *2620:A0 *2586:A 9.91714e-05
26 *2620:A0 *2587:A0 0.00022786
27 *2620:A0 *2587:A1 0.000303382
28 *2620:A0 *2620:A1 0.000279498
29 *2620:A0 *3246:CLK 8.09021e-06
30 *2620:A0 *605:109 8.47542e-05
31 *2632:A0 *2631:A 0
32 *2632:A0 *2632:A1 0
33 *2632:A0 *2819:B 0
34 *2632:A0 *355:12 6.55406e-05
35 *2632:A0 *511:12 0
36 *2632:A0 *551:16 0.000512724
37 *2830:A1 *2610:A1 4.61744e-05
38 *2830:A1 *2612:S 0
39 *2830:A1 *2613:A 0
40 *2830:A1 *2719:A1 0
41 *2830:A1 *2831:A 3.06743e-05
42 *2830:A1 *2833:S 0.000180726
43 *2830:A1 *3240:CLK 0
44 *2830:A1 *320:51 0.00040185
45 *2830:A1 *324:34 4.90291e-05
46 *2830:A1 *566:10 0
47 *2830:A1 *601:12 0
48 *316:6 *327:14 9.27255e-06
49 *316:12 *327:14 8.10455e-05
50 *316:37 *2626:A 0.000405551
51 *316:37 *2627:A1 0.000115051
52 *316:37 *2755:C1 0.000119873
53 *316:37 *2810:A1 0.000145857
54 *316:37 *3310:A 0.00018955
55 *316:37 *551:16 8.59296e-05
56 *316:37 *605:33 6.64033e-05
57 *316:43 *2625:S 2.69217e-05
58 *316:43 *352:100 0.000365356
59 *316:60 *2597:A1 0.000154801
60 *316:60 *2598:A 5.83278e-05
61 *316:60 *2600:A1 4.66108e-05
62 *316:60 *2600:S 2.10214e-05
63 *316:60 *327:64 0.000335429
64 *316:60 *327:81 5.12743e-05
65 *316:60 *352:100 9.14729e-05
66 *316:80 *2598:A 0.000111607
67 *316:80 *2599:A 6.13343e-05
68 *316:80 *2599:B 8.41384e-05
69 *316:80 *2600:S 2.03356e-05
70 *316:80 *2601:A 0.000272739
71 *316:80 *2605:A1 0.000195457
72 *316:80 *2738:A1 0.000112909
73 *316:80 *2908:B_N 7.6949e-05
74 *316:80 *3317:A 0.000131525
75 *316:80 *3355:A 4.89395e-05
76 *316:80 *374:45 0.00026985
77 *316:80 *560:22 2.69153e-05
78 *316:80 *604:35 0.000234051
79 *316:80 *898:8 6.91623e-05
80 *316:82 *2614:B 1.17036e-05
81 *316:82 *2796:A1 0.00015705
82 *316:82 *2908:B_N 0.000179686
83 *316:82 *3317:A 6.50549e-05
84 *316:82 *374:45 0.000814781
85 *316:82 *405:18 3.00525e-05
86 *316:96 *2612:A0 4.82919e-05
87 *316:96 *2617:A0 3.0807e-05
88 *316:96 *2617:S 0.000124448
89 *316:96 *2618:A 5.34747e-05
90 *316:96 *3295:A 3.89731e-05
91 *316:96 *3430:A 0.000160641
92 *316:96 *374:45 0.0001101
93 *316:96 *529:8 5.21627e-05
94 *316:96 *599:6 2.14569e-05
95 *316:96 *599:10 0.000109709
96 *316:96 *599:25 6.31732e-05
97 *316:96 *854:16 0.00015639
98 *316:166 *551:16 0
99 *316:166 *605:45 1.98983e-05
100 *316:166 *605:53 0
101 *316:166 *605:109 0
102 *2675:B *316:166 0.000307425
103 *2713:A2 *316:82 6.02005e-05
104 *2714:C1 *316:82 7.23602e-05
105 *2714:C1 *316:96 0.0001101
106 *2719:B1 *2830:A1 9.16315e-05
107 *2721:B1 *316:82 0.000176388
108 *2790:B1 *316:60 5.4155e-06
109 *2790:B1 *316:80 1.08758e-05
110 *2793:A2 *316:82 0.000120186
111 *2797:B1 *316:96 7.44375e-05
112 *2811:A3 *316:80 8.54281e-05
113 *2811:B1 *316:43 0.000158556
114 *3108:A *316:6 7.60965e-05
115 *3238:D *2830:A1 9.54469e-05
116 *3240:D *2830:A1 3.47837e-05
117 *3247:D *2620:A0 9.14049e-05
118 *3253:D *316:80 1.43717e-05
119 *3255:D *2605:A0 0.000119873
120 *3259:D *316:96 2.86265e-06
121 *3262:D *316:166 0.000155489
122 *3272:D *316:166 0.000324918
123 *3273:D *316:37 4.5434e-05
124 *3273:D *316:43 0.000106377
125 *163:27 *2632:A0 4.82863e-05
126 *187:57 *2830:A1 2.42043e-05
127 *207:80 *316:82 0.000112169
128 *211:65 *2830:A1 5.05521e-05
129 *211:65 *316:96 0.000284171
130 *218:152 *316:43 0.000368014
131 *218:152 *316:60 8.36444e-05
132 *221:12 *2605:A0 3.24721e-05
*RES
1 *2820:X *316:6 3.085 
2 *316:6 *316:12 4.535 
3 *316:12 *2632:A0 15.12 
4 *316:12 *316:37 17.745 
5 *316:37 *316:43 9.65 
6 *316:43 *2595:A0 4.395 
7 *316:43 *316:60 10.145 
8 *316:60 *316:80 26.67 
9 *316:80 *316:82 16.17 
10 *316:82 *316:96 28.2 
11 *316:96 *2830:A1 25.655 
12 *316:96 *2610:A0 1.6 
13 *316:82 *2615:A0 5.43 
14 *316:80 *2605:A0 9.865 
15 *316:60 *2600:A0 1.6 
16 *316:37 *2625:A0 1.96 
17 *316:6 *316:166 13.1 
18 *316:166 *2585:A0 3.6 
19 *316:166 *2620:A0 13.71 
*END

*D_NET *317 0.00993932
*CONN
*I *2918:B I *D sky130_fd_sc_hd__or4bb_4
*I *2936:B I *D sky130_fd_sc_hd__or3_4
*I *2948:B I *D sky130_fd_sc_hd__or3_4
*I *2930:C I *D sky130_fd_sc_hd__or4b_4
*I *2954:D I *D sky130_fd_sc_hd__or4_4
*I *2924:A I *D sky130_fd_sc_hd__or3b_4
*I *2942:C I *D sky130_fd_sc_hd__or4b_4
*I *2824:A I *D sky130_fd_sc_hd__nand2_2
*I *2852:A_N I *D sky130_fd_sc_hd__nand2b_2
*I *2853:B2 I *D sky130_fd_sc_hd__a2bb2o_1
*I *2821:X O *D sky130_fd_sc_hd__buf_2
*CAP
1 *2918:B 0.000314929
2 *2936:B 0.000301369
3 *2948:B 6.55081e-05
4 *2930:C 0.000177877
5 *2954:D 9.73191e-06
6 *2924:A 0
7 *2942:C 0
8 *2824:A 2.89741e-05
9 *2852:A_N 0.000125701
10 *2853:B2 0.000136276
11 *2821:X 0.000269327
12 *317:99 0.000393406
13 *317:97 0.000673064
14 *317:73 0.000239319
15 *317:69 0.000430972
16 *317:62 0.000221945
17 *317:49 0.000337019
18 *317:38 0.000224145
19 *317:10 0.000311091
20 *317:8 0.000350882
21 *2824:A *527:16 2.49909e-05
22 *2852:A_N *2848:A1 1.19106e-05
23 *2852:A_N *319:10 0.000114803
24 *2852:A_N *320:16 4.80058e-05
25 *2852:A_N *343:32 4.6075e-05
26 *2853:B2 *2824:B 3.12855e-05
27 *2853:B2 *2835:A 1.8731e-05
28 *2853:B2 *2842:A1 9.50342e-06
29 *2853:B2 *2847:A1_N 4.45065e-05
30 *2853:B2 *2847:B1 4.66742e-05
31 *2853:B2 *2853:A1_N 5.4155e-06
32 *2853:B2 *329:26 0.000118274
33 *2853:B2 *329:49 7.92997e-05
34 *2853:B2 *336:25 0.000114524
35 *2918:B *2918:A 0.000496095
36 *2918:B *378:35 0.000146279
37 *2918:B *720:18 4.99619e-05
38 *2930:C *2930:A 6.35885e-05
39 *2930:C *2930:D_N 9.0444e-05
40 *2930:C *3462:A 1.34503e-05
41 *2930:C *339:106 9.387e-06
42 *2930:C *393:12 1.01276e-05
43 *2936:B *2936:A 5.83121e-06
44 *2936:B *2936:C 1.43867e-05
45 *2936:B *2942:A 6.90381e-05
46 *2936:B *3307:A 0
47 *2936:B *322:48 0
48 *2936:B *378:35 0.000168987
49 *2948:B *2918:C_N 4.21973e-05
50 *2948:B *2948:A 5.4155e-06
51 *2948:B *2948:C 0
52 *2948:B *318:69 4.92062e-05
53 *2948:B *409:12 0
54 *2948:B *528:10 9.14035e-05
55 *2954:D *2918:D_N 4.82863e-05
56 *317:8 *511:14 0.000376544
57 *317:10 *2824:B 0.000177017
58 *317:10 *336:25 0.000169195
59 *317:38 *2824:B 0.000113222
60 *317:38 *336:25 0.000105393
61 *317:49 *2824:B 8.33066e-06
62 *317:49 *2879:C_N 0.00026151
63 *317:49 *329:26 0.000128121
64 *317:49 *336:25 0.000130579
65 *317:49 *336:34 0.000288997
66 *317:49 *336:49 9.17274e-05
67 *317:62 *2879:C_N 0.000196447
68 *317:62 *2948:C 4.66108e-05
69 *317:62 *318:58 0
70 *317:62 *336:49 0.000356004
71 *317:62 *528:10 1.58143e-05
72 *317:69 *2907:B 0
73 *317:69 *2948:C 8.52137e-06
74 *317:69 *393:12 1.77893e-05
75 *317:73 *339:106 4.9646e-05
76 *317:73 *393:12 3.03135e-05
77 *317:97 *2918:C_N 8.40213e-05
78 *317:97 *2948:C 4.14782e-05
79 *317:97 *318:69 0.000198945
80 *317:99 *3307:A 0
81 *317:99 *378:35 5.16348e-05
82 *2685:B *2918:B 1.15688e-05
83 *2685:D_N *2918:B 4.92861e-05
84 *3470:A *2930:C 8.57024e-05
85 *185:10 *2954:D 4.82863e-05
86 *207:28 *2930:C 8.73147e-06
87 *211:32 *2936:B 8.8266e-05
*RES
1 *2821:X *317:8 7.155 
2 *317:8 *317:10 2.145 
3 *317:10 *2853:B2 7.41 
4 *317:10 *2852:A_N 6.405 
5 *317:8 *317:38 1.38 
6 *317:38 *2824:A 4.05 
7 *317:38 *317:49 5.97 
8 *317:49 *2942:C 3.6 
9 *317:49 *317:62 6.89 
10 *317:62 *2924:A 1.6 
11 *317:62 *317:69 0.87 
12 *317:69 *317:73 3.125 
13 *317:73 *2954:D 4.05 
14 *317:73 *2930:C 6.63 
15 *317:69 *317:97 6.245 
16 *317:97 *317:99 0.615 
17 *317:99 *2948:B 5.445 
18 *317:99 *2936:B 9.54 
19 *317:97 *2918:B 10.08 
*END

*D_NET *318 0.00846479
*CONN
*I *2823:C I *D sky130_fd_sc_hd__and3_1
*I *2930:D_N I *D sky130_fd_sc_hd__or4b_4
*I *2954:C I *D sky130_fd_sc_hd__or4_4
*I *2918:C_N I *D sky130_fd_sc_hd__or4bb_4
*I *2948:A I *D sky130_fd_sc_hd__or3_4
*I *2924:C_N I *D sky130_fd_sc_hd__or3b_4
*I *2936:A I *D sky130_fd_sc_hd__or3_4
*I *2942:B I *D sky130_fd_sc_hd__or4b_4
*I *2864:A I *D sky130_fd_sc_hd__and3_1
*I *2849:B1 I *D sky130_fd_sc_hd__a31o_1
*I *2822:X O *D sky130_fd_sc_hd__buf_2
*CAP
1 *2823:C 8.69743e-05
2 *2930:D_N 4.53172e-05
3 *2954:C 3.09141e-05
4 *2918:C_N 0.000246972
5 *2948:A 9.79893e-06
6 *2924:C_N 0
7 *2936:A 9.09993e-05
8 *2942:B 9.82716e-05
9 *2864:A 6.16358e-05
10 *2849:B1 0.000200367
11 *2822:X 0
12 *318:99 0.000264725
13 *318:69 0.000320935
14 *318:60 6.41647e-05
15 *318:58 0.00040991
16 *318:38 0.000189271
17 *318:36 0.0004975
18 *318:23 0.000560035
19 *318:8 0.000589636
20 *318:4 0.000253927
21 *2823:C *2843:A 9.57069e-05
22 *2823:C *2843:B_N 1.22325e-05
23 *2823:C *2886:A 0.000111293
24 *2823:C *339:6 1.32102e-05
25 *2823:C *339:14 3.31862e-05
26 *2823:C *339:42 0.000111293
27 *2823:C *776:31 2.92137e-05
28 *2849:B1 *2835:A 2.73857e-05
29 *2849:B1 *2853:B1 0
30 *2849:B1 *329:26 0
31 *2849:B1 *339:14 0.000134987
32 *2849:B1 *775:33 1.38207e-05
33 *2864:A *527:16 1.1392e-05
34 *2918:C_N *2918:A 8.40269e-05
35 *2918:C_N *2918:D_N 4.66826e-05
36 *2918:C_N *409:12 0.000234651
37 *2918:C_N *528:10 1.80164e-05
38 *2930:D_N *2930:A 3.6195e-06
39 *2936:A *2942:A 0.000268739
40 *2936:A *2942:D_N 4.21973e-05
41 *2942:B *2942:A 0.000112581
42 *2942:B *2942:D_N 1.08758e-05
43 *2948:A *2948:C 4.00541e-06
44 *2954:C *2918:A 0.000138914
45 *318:8 *778:27 0.000194287
46 *318:8 *778:33 1.32102e-05
47 *318:23 *2864:C 7.04612e-05
48 *318:23 *527:16 1.39862e-05
49 *318:23 *778:33 0.000109489
50 *318:36 *2578:A 0.000196671
51 *318:36 *2879:C_N 6.58059e-05
52 *318:36 *2887:B_N 3.50033e-05
53 *318:36 *329:26 5.36866e-05
54 *318:36 *339:72 4.61196e-05
55 *318:36 *339:91 1.74629e-05
56 *318:36 *351:10 1.52776e-05
57 *318:36 *358:16 0.000183166
58 *318:36 *368:12 0.000113797
59 *318:36 *775:70 0
60 *318:36 *778:33 6.6817e-05
61 *318:58 *2879:C_N 4.59849e-05
62 *318:58 *339:91 5.93963e-05
63 *318:58 *378:35 0
64 *318:58 *528:10 4.88568e-05
65 *318:69 *2948:C 5.2212e-05
66 *318:69 *393:12 2.85515e-05
67 *318:69 *528:10 9.27255e-06
68 *318:99 *2918:A 0.000186474
69 *318:99 *2918:D_N 7.67415e-06
70 *318:99 *528:10 3.17482e-05
71 *318:99 *528:27 0.000133495
72 *318:99 *528:68 3.85204e-05
73 *2685:A *318:99 7.37227e-05
74 *2930:C *2930:D_N 9.0444e-05
75 *2936:B *2936:A 5.83121e-06
76 *2948:B *2918:C_N 4.21973e-05
77 *2948:B *2948:A 5.4155e-06
78 *2948:B *318:69 4.92062e-05
79 *3470:A *2930:D_N 3.59531e-06
80 *207:28 *2930:D_N 0.000113846
81 *207:28 *2954:C 0.000140595
82 *207:28 *318:99 3.66286e-05
83 *211:32 *2936:A 8.23535e-05
84 *211:32 *2942:B 0.000103546
85 *212:56 *318:58 0
86 *212:56 *318:99 0
87 *215:16 *318:58 1.7635e-05
88 *317:62 *318:58 0
89 *317:97 *2918:C_N 8.40213e-05
90 *317:97 *318:69 0.000198945
*RES
1 *2822:X *318:4 1.6 
2 *318:4 *318:8 4.175 
3 *318:8 *2849:B1 7.275 
4 *318:8 *318:23 5.285 
5 *318:23 *2864:A 2.41 
6 *318:23 *318:36 8.99 
7 *318:36 *318:38 2 
8 *318:38 *2942:B 4.15 
9 *318:38 *2936:A 4.465 
10 *318:36 *318:58 3.93 
11 *318:58 *318:60 2 
12 *318:60 *2924:C_N 1.6 
13 *318:60 *318:69 2.445 
14 *318:69 *2948:A 1.96 
15 *318:69 *2918:C_N 10.895 
16 *318:58 *318:99 6.245 
17 *318:99 *2954:C 2.9125 
18 *318:99 *2930:D_N 6.98 
19 *318:4 *2823:C 8.57375 
*END

*D_NET *319 0.00287705
*CONN
*I *2824:B I *D sky130_fd_sc_hd__nand2_2
*I *2852:B I *D sky130_fd_sc_hd__nand2b_2
*I *2848:A1 I *D sky130_fd_sc_hd__o21ai_1
*I *2823:X O *D sky130_fd_sc_hd__and3_1
*CAP
1 *2824:B 9.28181e-05
2 *2852:B 0
3 *2848:A1 0.000403308
4 *2823:X 0.000171029
5 *319:10 0.000475057
6 *319:6 0.000335596
7 *2824:B *329:26 0.000304075
8 *2848:A1 *2842:A1 0
9 *2848:A1 *2847:A1_N 3.87929e-05
10 *2848:A1 *2847:A2_N 2.28346e-05
11 *2848:A1 *2847:B1 0
12 *2848:A1 *2848:A2 0.000108647
13 *2848:A1 *2853:A2_N 2.34345e-05
14 *2848:A1 *329:10 6.98629e-05
15 *2848:A1 *343:32 8.23457e-05
16 *319:6 *2843:A 8.53011e-05
17 *319:6 *2843:B_N 4.89395e-05
18 *319:6 *336:8 1.95444e-05
19 *319:10 *336:8 4.41506e-05
20 *2852:A_N *2848:A1 1.19106e-05
21 *2852:A_N *319:10 0.000114803
22 *2853:B2 *2824:B 3.12855e-05
23 *3133:D *2848:A1 9.47454e-05
24 *317:10 *2824:B 0.000177017
25 *317:38 *2824:B 0.000113222
26 *317:49 *2824:B 8.33066e-06
*RES
1 *2823:X *319:6 4.465 
2 *319:6 *319:10 1.755 
3 *319:10 *2848:A1 12.815 
4 *319:10 *2852:B 1.6 
5 *319:6 *2824:B 9.275 
*END

*D_NET *320 0.0221895
*CONN
*I *2963:A I *D sky130_fd_sc_hd__nor2_1
*I *3051:A I *D sky130_fd_sc_hd__nor2_1
*I *2829:A I *D sky130_fd_sc_hd__nor2_1
*I *2548:A I *D sky130_fd_sc_hd__or2_1
*I *2824:Y O *D sky130_fd_sc_hd__nand2_2
*CAP
1 *2963:A 0.000815057
2 *3051:A 0
3 *2829:A 0
4 *2548:A 0
5 *2824:Y 0.00233105
6 *320:64 0.00265369
7 *320:51 0.0025181
8 *320:16 0.00301052
9 *2963:A *2767:A1 3.74161e-05
10 *2963:A *2993:A0 0.000349686
11 *2963:A *2994:A 4.21973e-05
12 *2963:A *3454:A 4.82863e-05
13 *2963:A *440:90 0.000858669
14 *2963:A *476:8 8.65905e-05
15 *2963:A *881:10 7.4027e-05
16 *320:16 *2549:S 8.89673e-05
17 *320:16 *2552:A 0.000118513
18 *320:16 *2612:S 0.000205428
19 *320:16 *2797:A1 7.27298e-06
20 *320:16 *329:10 0.000261683
21 *320:16 *336:25 0.000143088
22 *320:16 *343:32 0.000308674
23 *320:16 *401:22 0.000106973
24 *320:16 *529:8 0.000200402
25 *320:16 *566:10 0.00031375
26 *320:16 *591:30 9.3062e-06
27 *320:16 *936:10 0.000640982
28 *320:51 *2719:A1 0.000159131
29 *320:51 *2833:S 3.12855e-05
30 *320:51 *3350:A 8.43862e-05
31 *320:51 *3419:A 4.91952e-05
32 *320:51 *566:10 4.21314e-05
33 *320:51 *591:30 2.66852e-05
34 *320:64 *2733:A1 0.000194144
35 *320:64 *2803:A1 0.000134477
36 *320:64 *2866:B 3.28162e-05
37 *320:64 *2916:A0 0
38 *320:64 *2920:S 0.000225759
39 *320:64 *3051:B 5.53249e-06
40 *320:64 *3062:S 2.44944e-05
41 *320:64 *3064:A1 0
42 *320:64 *3066:B 0.000125018
43 *320:64 *3068:A 0
44 *320:64 *3071:B 5.75612e-05
45 *320:64 *3328:A 0.00010974
46 *320:64 *3441:A 0.000499492
47 *320:64 *324:24 2.33236e-05
48 *320:64 *324:30 4.77807e-05
49 *320:64 *343:51 0
50 *320:64 *349:38 0
51 *320:64 *353:22 0.000113222
52 *320:64 *366:20 0
53 *320:64 *369:30 0.000127108
54 *320:64 *369:47 0.000387413
55 *320:64 *370:30 0.000164907
56 *320:64 *372:40 0.000516101
57 *320:64 *430:86 0.000296088
58 *320:64 *440:20 5.98004e-06
59 *320:64 *440:26 4.7043e-05
60 *320:64 *482:10 2.0794e-05
61 *2717:B1 *320:51 0.000134756
62 *2719:B1 *320:51 0.000261569
63 *2727:A2 *320:64 4.07115e-05
64 *2732:A1 *320:51 0.000121036
65 *2767:A2 *2963:A 5.58436e-05
66 *2786:B1 *320:64 0.000349967
67 *2792:A1 *2963:A 2.92838e-05
68 *2803:A2 *320:64 1.7309e-05
69 *2803:B1 *320:64 0
70 *2830:A1 *320:51 0.00040185
71 *2852:A_N *320:16 4.80058e-05
72 *3232:D *320:16 5.46094e-05
73 *3238:D *320:51 9.54469e-05
74 *187:57 *320:51 0.00084397
75 *202:30 *320:64 0
76 *207:159 *2963:A 0.000117832
77 *208:47 *320:51 7.41023e-05
78 *208:154 *2963:A 0.000732058
79 *218:63 *320:51 2.92496e-05
*RES
1 *2824:Y *320:16 43.93 
2 *320:16 *2548:A 3.6 
3 *320:16 *320:51 29.185 
4 *320:51 *2829:A 1.6 
5 *320:51 *320:64 46.165 
6 *320:64 *3051:A 1.6 
7 *320:64 *2963:A 27.155 
*END

*D_NET *321 0.0143518
*CONN
*I *2827:A I *D sky130_fd_sc_hd__or2_1
*I *2908:A I *D sky130_fd_sc_hd__or2b_1
*I *2874:A I *D sky130_fd_sc_hd__or2_1
*I *2880:A I *D sky130_fd_sc_hd__or2_1
*I *2889:A I *D sky130_fd_sc_hd__nor2_1
*I *2866:A I *D sky130_fd_sc_hd__or2_1
*I *2896:A I *D sky130_fd_sc_hd__nor2_1
*I *2902:A I *D sky130_fd_sc_hd__nor2_1
*I *2825:Y O *D sky130_fd_sc_hd__nand3_4
*CAP
1 *2827:A 2.14552e-05
2 *2908:A 0.000637136
3 *2874:A 0
4 *2880:A 0
5 *2889:A 1.63446e-05
6 *2866:A 0.000235909
7 *2896:A 0.000422055
8 *2902:A 6.77949e-05
9 *2825:Y 0.0010229
10 *321:107 0.000807498
11 *321:70 0.000492991
12 *321:62 0.000621412
13 *321:50 0.000711813
14 *321:48 0.000473129
15 *321:31 0.0015785
16 *321:16 0.00195625
17 *2866:A *2866:B 4.77719e-05
18 *2866:A *500:93 0.000105798
19 *2889:A *3154:CLK 8.52845e-05
20 *2896:A *2751:A 9.17456e-05
21 *2896:A *3149:CLK 5.23362e-05
22 *2896:A *349:18 4.24744e-05
23 *2896:A *372:22 0
24 *2896:A *374:45 0.000235801
25 *2902:A *560:22 4.66108e-05
26 *2902:A *682:12 5.06607e-05
27 *2908:A *2908:B_N 0.000104933
28 *2908:A *3146:CLK 3.30017e-05
29 *2908:A *359:10 0.000162243
30 *2908:A *742:10 0.000137432
31 *321:16 *2789:A1 1.34503e-05
32 *321:16 *2987:A 0
33 *321:16 *3393:A 3.86529e-05
34 *321:16 *3418:A 0.000231326
35 *321:16 *681:18 5.05716e-06
36 *321:16 *682:12 1.53032e-05
37 *321:31 *2906:A 6.27059e-05
38 *321:31 *3393:A 0.000326764
39 *321:31 *913:6 0.000119756
40 *321:48 *2906:A 8.65905e-05
41 *321:50 *2828:A 0.000232105
42 *321:62 *2828:A 8.65905e-05
43 *321:62 *2919:B 0.000104173
44 *321:62 *324:8 1.47347e-05
45 *321:62 *500:93 0.000116088
46 *321:62 *742:10 0
47 *321:70 *3379:A 9.08126e-05
48 *321:70 *363:26 3.34652e-05
49 *321:70 *369:47 0
50 *321:70 *500:93 1.24708e-05
51 *321:107 *742:10 0.00013256
52 *2789:A2 *321:16 0.000180757
53 *2789:B1 *321:16 0.000161467
54 *2790:B1 *2902:A 4.77757e-05
55 *2811:A3 *2889:A 5.06989e-05
56 *3146:D *2908:A 6.25711e-06
57 *3176:D *321:16 7.09661e-05
58 *3287:A *2896:A 9.58678e-06
59 *3469:A *321:16 0
60 *181:16 *321:16 5.92381e-05
61 *183:23 *321:16 2.99731e-05
62 *183:52 *321:16 5.99309e-05
63 *183:110 *321:16 8.71735e-05
64 *197:70 *2902:A 0.00013661
65 *197:70 *321:16 0.000107634
66 *202:22 *2908:A 0.000453142
67 *202:22 *321:107 0.000368122
68 *207:80 *2896:A 0.000186026
69 *231:30 *2896:A 0.00035254
*RES
1 *2825:Y *321:16 23.425 
2 *321:16 *2902:A 5.685 
3 *321:16 *321:31 11.765 
4 *321:31 *2896:A 15.77 
5 *321:31 *321:48 4.515 
6 *321:48 *321:50 2.865 
7 *321:50 *321:62 10.585 
8 *321:62 *321:70 5.825 
9 *321:70 *2866:A 7.815 
10 *321:70 *2889:A 4.395 
11 *321:62 *2880:A 1.6 
12 *321:50 *321:107 6.44 
13 *321:107 *2874:A 3.6 
14 *321:107 *2908:A 15.48 
15 *321:48 *2827:A 1.96 
*END

*D_NET *322 0.029261
*CONN
*I *2547:A I *D sky130_fd_sc_hd__or2_2
*I *2888:B I *D sky130_fd_sc_hd__or3_4
*I *2863:A I *D sky130_fd_sc_hd__inv_2
*I *2901:A I *D sky130_fd_sc_hd__or3_2
*I *2895:B I *D sky130_fd_sc_hd__or4b_4
*I *3049:A I *D sky130_fd_sc_hd__or2_1
*I *2961:A I *D sky130_fd_sc_hd__or2_1
*I *2827:B I *D sky130_fd_sc_hd__or2_1
*I *2907:C I *D sky130_fd_sc_hd__nor4_1
*I *2826:X O *D sky130_fd_sc_hd__or4bb_4
*CAP
1 *2547:A 0
2 *2888:B 0
3 *2863:A 0
4 *2901:A 0
5 *2895:B 5.44173e-05
6 *3049:A 0.00133076
7 *2961:A 0.000118504
8 *2827:B 0
9 *2907:C 0
10 *2826:X 0.0013977
11 *322:104 0.00260254
12 *322:85 0.00231297
13 *322:66 0.00134571
14 *322:62 0.000373686
15 *322:56 0.000224148
16 *322:54 0.000324566
17 *322:48 0.00135718
18 *322:24 0.00252121
19 *2895:B *2907:D 8.57024e-05
20 *2895:B *329:20 3.15283e-05
21 *2895:B *352:24 2.31547e-05
22 *2895:B *368:23 0
23 *2895:B *374:8 1.08758e-05
24 *2961:A *2962:A 0.000198046
25 *2961:A *417:98 9.55262e-05
26 *3049:A *2743:A 3.00355e-05
27 *3049:A *2777:A 2.86975e-05
28 *3049:A *3050:A 2.00986e-05
29 *3049:A *3082:A0 1.95444e-05
30 *3049:A *3084:A1 0.000266942
31 *3049:A *3085:A 0.000319582
32 *3049:A *3212:CLK 0.000116158
33 *3049:A *417:98 2.62017e-05
34 *3049:A *596:10 0.000340809
35 *322:24 *2632:A1 0.000352156
36 *322:24 *2633:A 0.000312958
37 *322:24 *2667:A 4.11198e-05
38 *322:24 *2711:B 7.35729e-05
39 *322:24 *3305:A 0
40 *322:24 *603:8 1.61831e-05
41 *322:24 *780:77 5.93757e-05
42 *322:24 *800:94 5.53249e-06
43 *322:24 *800:115 4.02505e-05
44 *322:24 *806:12 3.69909e-05
45 *322:48 *2583:A 8.23457e-05
46 *322:48 *2686:B 6.53761e-05
47 *322:48 *2686:D_N 2.71527e-05
48 *322:48 *2886:A 4.18603e-06
49 *322:48 *2936:C 3.31351e-05
50 *322:48 *2942:A 0
51 *322:48 *3307:A 0
52 *322:48 *339:57 0
53 *322:48 *369:18 0
54 *322:48 *528:10 6.07575e-06
55 *322:48 *675:12 0
56 *322:48 *803:10 6.16107e-06
57 *322:48 *804:10 1.0555e-05
58 *322:48 *804:19 2.74056e-05
59 *322:48 *804:40 0.000343641
60 *322:48 *805:22 0.000195406
61 *322:48 *805:28 4.66108e-05
62 *322:54 *2886:B 2.15271e-05
63 *322:54 *2888:A 2.15986e-05
64 *322:54 *2888:C 4.60903e-05
65 *322:54 *367:6 7.55531e-06
66 *322:56 *2578:A 8.65961e-05
67 *322:56 *2886:B 1.08758e-05
68 *322:56 *2895:D_N 1.4174e-05
69 *322:56 *339:57 9.80032e-06
70 *322:56 *352:24 8.43862e-05
71 *322:56 *378:35 6.90876e-05
72 *322:62 *2895:D_N 8.34281e-06
73 *322:62 *329:20 0.000244162
74 *322:62 *352:24 0.000471762
75 *322:62 *368:23 2.8694e-05
76 *322:66 *2713:B2 0.000321664
77 *322:66 *2907:D 0.000187775
78 *322:66 *329:10 4.18603e-06
79 *322:66 *329:83 1.23244e-05
80 *322:66 *362:16 7.46228e-05
81 *322:85 *2907:D 3.70433e-05
82 *322:85 *329:94 9.31831e-06
83 *322:85 *329:109 8.27128e-05
84 *322:85 *362:16 4.97967e-05
85 *322:85 *382:10 0.000236772
86 *322:85 *413:10 7.06865e-05
87 *322:85 *620:12 0.000341896
88 *322:104 *2897:A0 5.20968e-05
89 *322:104 *2908:B_N 7.21296e-06
90 *322:104 *2996:A 0.000166101
91 *322:104 *3083:A 0.000140905
92 *322:104 *366:20 0
93 *322:104 *378:56 0.000173009
94 *322:104 *397:59 0.000295685
95 *322:104 *595:33 3.4107e-05
96 *2631:B *322:24 0.000232105
97 *2658:B *322:24 9.5433e-05
98 *2667:C *322:24 0
99 *2668:A *322:24 0
100 *2721:A2 *322:85 8.93428e-05
101 *2740:A2 *322:104 0.000108702
102 *2740:C1 *322:104 0.000560918
103 *2743:C *3049:A 6.83656e-05
104 *2749:A3 *322:104 0.000453717
105 *2762:A2 *3049:A 1.34361e-05
106 *2777:B *3049:A 4.40028e-05
107 *2777:C *3049:A 6.85806e-06
108 *2780:B *3049:A 0.000524845
109 *2782:B1 *322:104 1.7635e-05
110 *2791:C1 *322:104 0.00038507
111 *2792:A1 *322:104 0.000238689
112 *2792:A2 *322:104 0.000163218
113 *2792:B1 *3049:A 0.000139238
114 *2792:B1 *322:104 5.22047e-05
115 *2800:A2 *322:85 7.4027e-05
116 *2800:A3 *322:85 0.00036869
117 *2936:B *322:48 0
118 *3212:D *3049:A 3.71929e-05
119 *3213:D *3049:A 4.50959e-05
120 *3470:A *322:85 0.000155995
121 *11:23 *322:24 0.000159964
122 *163:27 *322:24 0.000383737
123 *211:32 *322:48 7.06865e-05
124 *211:122 *322:24 0.000159957
125 *212:14 *322:48 0.000110299
126 *212:26 *322:66 5.43173e-05
127 *215:16 *322:48 0.000429155
128 *215:54 *322:85 0.001272
129 *215:79 *322:85 1.92979e-05
130 *215:79 *322:104 0.000140963
131 *215:100 *322:104 0.000277052
132 *221:12 *322:85 0.000543954
133 *221:12 *322:104 0.000979747
*RES
1 *2826:X *322:24 34.86 
2 *322:24 *322:48 26.855 
3 *322:48 *322:54 3.405 
4 *322:54 *322:56 2.52 
5 *322:56 *322:62 4.875 
6 *322:62 *322:66 7.46 
7 *322:66 *2907:C 3.6 
8 *322:66 *322:85 31.705 
9 *322:85 *2827:B 3.6 
10 *322:85 *322:104 38.73 
11 *322:104 *2961:A 4.465 
12 *322:104 *3049:A 29 
13 *322:62 *2895:B 3.445 
14 *322:56 *2901:A 1.6 
15 *322:54 *2863:A 1.6 
16 *322:48 *2888:B 1.6 
17 *322:24 *2547:A 1.6 
*END

*D_NET *323 0.000603745
*CONN
*I *2828:A I *D sky130_fd_sc_hd__buf_2
*I *2827:X O *D sky130_fd_sc_hd__or2_1
*CAP
1 *2828:A 0.000142525
2 *2827:X 0.000142525
3 *321:50 *2828:A 0.000232105
4 *321:62 *2828:A 8.65905e-05
*RES
1 *2827:X *2828:A 6.065 
*END

*D_NET *324 0.0130674
*CONN
*I *2919:A I *D sky130_fd_sc_hd__nor2_1
*I *2913:A I *D sky130_fd_sc_hd__nor2_1
*I *2829:B I *D sky130_fd_sc_hd__nor2_1
*I *2931:A I *D sky130_fd_sc_hd__or2_1
*I *2925:A I *D sky130_fd_sc_hd__nor2_1
*I *2937:A I *D sky130_fd_sc_hd__nor2_1
*I *2949:A I *D sky130_fd_sc_hd__or2_1
*I *2955:A I *D sky130_fd_sc_hd__or2_1
*I *2943:A I *D sky130_fd_sc_hd__or2_1
*I *2828:X O *D sky130_fd_sc_hd__buf_2
*CAP
1 *2919:A 0
2 *2913:A 0.000288262
3 *2829:B 2.0132e-05
4 *2931:A 4.9994e-05
5 *2925:A 0.000111842
6 *2937:A 0
7 *2949:A 0
8 *2955:A 8.83146e-05
9 *2943:A 0.000209324
10 *2828:X 0.000316227
11 *324:74 0.000401427
12 *324:63 0.000363471
13 *324:49 0.000128571
14 *324:36 0.000470964
15 *324:34 0.000760362
16 *324:30 0.000707044
17 *324:24 0.000852833
18 *324:8 0.000608985
19 *2913:A *2916:A0 4.82919e-05
20 *2913:A *2920:A1 0.000325173
21 *2913:A *366:20 6.73424e-05
22 *2913:A *386:16 4.82919e-05
23 *2925:A *356:95 8.30319e-05
24 *2931:A *356:95 0.000157282
25 *2931:A *398:6 8.51879e-05
26 *2943:A *2729:A1 6.36578e-05
27 *2943:A *2802:A1 6.47516e-05
28 *2943:A *2802:B2 0.000139238
29 *2943:A *3038:A 2.92496e-05
30 *2943:A *3164:CLK 0
31 *2943:A *405:66 2.63122e-05
32 *2943:A *410:10 0
33 *2955:A *410:10 4.82919e-05
34 *324:8 *2919:B 0.000303117
35 *324:8 *2923:A 2.61633e-05
36 *324:8 *370:30 0
37 *324:24 *2923:A 0.000232116
38 *324:24 *343:51 6.57653e-06
39 *324:24 *370:30 0.00024388
40 *324:30 *2830:A0 1.14192e-05
41 *324:30 *2920:A1 6.28765e-05
42 *324:30 *325:6 2.0187e-05
43 *324:30 *343:51 5.12017e-06
44 *324:34 *2729:A2 0.000194291
45 *324:34 *2830:A0 0.000197243
46 *324:34 *2833:S 2.62258e-05
47 *324:34 *325:6 4.80058e-05
48 *324:36 *2729:A1 0.000289492
49 *324:36 *3038:A 0.000256361
50 *324:36 *405:66 0.000156961
51 *324:49 *2949:B 4.82863e-05
52 *324:63 *405:66 0.00018429
53 *324:74 *2728:A1 3.29196e-05
54 *324:74 *2728:B2 1.11025e-05
55 *324:74 *405:66 1.12082e-05
56 *2717:B1 *2913:A 0.000112714
57 *2717:B1 *324:30 0.000289205
58 *2723:A2 *2943:A 0.000160621
59 *2723:A2 *2955:A 0.000236355
60 *2723:A2 *324:49 0.000122331
61 *2730:C *324:34 0.000340192
62 *2803:B1 *324:24 7.05863e-06
63 *2808:C *324:74 0.000155429
64 *2830:A1 *324:34 4.90291e-05
65 *3126:D *324:34 0.000232367
66 *3154:D *324:30 0.000109489
67 *187:57 *324:34 0.000139266
68 *187:57 *324:36 9.12857e-06
69 *187:66 *324:36 3.75882e-06
70 *187:66 *324:63 0.000121234
71 *187:83 *324:63 3.75882e-06
72 *187:83 *324:74 0.000350921
73 *202:30 *2913:A 0.000518214
74 *208:47 *324:30 0.000498621
75 *218:109 *324:74 0.000590177
76 *320:64 *324:24 2.33236e-05
77 *320:64 *324:30 4.77807e-05
78 *321:62 *324:8 1.47347e-05
*RES
1 *2828:X *324:8 7.15 
2 *324:8 *324:24 11.52 
3 *324:24 *324:30 10.64 
4 *324:30 *324:34 12.11 
5 *324:34 *324:36 6.735 
6 *324:36 *2943:A 9.315 
7 *324:36 *324:49 3.14 
8 *324:49 *2955:A 3.775 
9 *324:49 *2949:A 1.6 
10 *324:34 *324:63 3.93 
11 *324:63 *2937:A 3.6 
12 *324:63 *324:74 10.265 
13 *324:74 *2925:A 3.805 
14 *324:74 *2931:A 3.085 
15 *324:30 *2829:B 1.96 
16 *324:24 *2913:A 12.825 
17 *324:8 *2919:A 1.6 
*END

*D_NET *325 0.000773362
*CONN
*I *2830:S I *D sky130_fd_sc_hd__mux2_1
*I *2833:S I *D sky130_fd_sc_hd__mux2_1
*I *2829:Y O *D sky130_fd_sc_hd__nor2_1
*CAP
1 *2830:S 0
2 *2833:S 0.000111809
3 *2829:Y 5.84449e-05
4 *325:6 0.000170254
5 *2830:A1 *2833:S 0.000180726
6 *187:57 *2833:S 0.000126424
7 *320:51 *2833:S 3.12855e-05
8 *324:30 *325:6 2.0187e-05
9 *324:34 *2833:S 2.62258e-05
10 *324:34 *325:6 4.80058e-05
*RES
1 *2829:Y *325:6 2.74 
2 *325:6 *2833:S 8.735 
3 *325:6 *2830:S 1.6 
*END

*D_NET *326 0.000780317
*CONN
*I *2831:A I *D sky130_fd_sc_hd__clkbuf_1
*I *2830:X O *D sky130_fd_sc_hd__mux2_1
*CAP
1 *2831:A 0.00013006
2 *2830:X 0.00013006
3 *2831:A *2834:A 2.41231e-05
4 *2831:A *3350:A 0.000239892
5 *2732:A1 *2831:A 0.000225507
6 *2830:A1 *2831:A 3.06743e-05
*RES
1 *2830:X *2831:A 11.775 
*END

*D_NET *327 0.0284758
*CONN
*I *2587:A0 I *D sky130_fd_sc_hd__mux2_1
*I *2602:A0 I *D sky130_fd_sc_hd__mux2_1
*I *2607:A0 I *D sky130_fd_sc_hd__mux2_1
*I *2833:A1 I *D sky130_fd_sc_hd__mux2_1
*I *2617:A0 I *D sky130_fd_sc_hd__mux2_1
*I *2612:A0 I *D sky130_fd_sc_hd__mux2_1
*I *2581:A0 I *D sky130_fd_sc_hd__mux2_1
*I *2597:A0 I *D sky130_fd_sc_hd__mux2_1
*I *2622:A0 I *D sky130_fd_sc_hd__mux2_1
*I *2627:A0 I *D sky130_fd_sc_hd__mux2_1
*I *2832:X O *D sky130_fd_sc_hd__buf_2
*CAP
1 *2587:A0 0.000270001
2 *2602:A0 0
3 *2607:A0 0
4 *2833:A1 0.00136133
5 *2617:A0 5.22704e-05
6 *2612:A0 0.00076247
7 *2581:A0 0.000177229
8 *2597:A0 0
9 *2622:A0 5.85433e-05
10 *2627:A0 0.000157159
11 *2832:X 0.000460085
12 *327:101 0.00106675
13 *327:99 0.000586275
14 *327:97 0.00200474
15 *327:91 0.00216054
16 *327:81 0.00253178
17 *327:64 0.0013133
18 *327:44 0.00101308
19 *327:33 0.000439079
20 *327:14 0.000960301
21 *2581:A0 *2573:A 0.000159722
22 *2581:A0 *2581:S 4.77769e-05
23 *2581:A0 *2616:A 5.13155e-05
24 *2581:A0 *2793:A1 4.48122e-05
25 *2581:A0 *358:37 8.77575e-05
26 *2581:A0 *527:24 0.000100061
27 *2581:A0 *547:10 6.02202e-05
28 *2581:A0 *935:10 2.69443e-06
29 *2587:A0 *2622:S 6.23738e-06
30 *2587:A0 *609:53 0.000249037
31 *2612:A0 *2551:A1 7.23602e-05
32 *2612:A0 *2612:A1 0.000427587
33 *2612:A0 *3426:A 0.0001925
34 *2612:A0 *352:24 0.000285272
35 *2612:A0 *529:8 5.20968e-05
36 *2612:A0 *875:8 1.33293e-05
37 *2617:A0 *2617:A1 8.40213e-05
38 *2617:A0 *2617:S 5.83121e-06
39 *2627:A0 *2627:S 9.8834e-05
40 *2627:A0 *511:8 8.40269e-05
41 *2833:A1 *2590:A0 8.23457e-05
42 *2833:A1 *2593:A 9.044e-05
43 *2833:A1 *2833:A0 0.000158066
44 *2833:A1 *3350:A 0.000125238
45 *2833:A1 *3419:A 0.000123159
46 *2833:A1 *369:30 9.21068e-05
47 *2833:A1 *413:26 0.000268745
48 *327:14 *2643:A 0.000151439
49 *327:14 *2643:B 1.16578e-05
50 *327:14 *2644:B1 0
51 *327:14 *511:8 0.000334472
52 *327:14 *801:25 9.54399e-05
53 *327:33 *2541:A 0.00015777
54 *327:33 *2622:A1 3.83194e-05
55 *327:33 *3269:D 0.000766609
56 *327:33 *609:12 0.000601207
57 *327:33 *609:53 0.000175721
58 *327:44 *2622:S 3.54721e-05
59 *327:44 *609:53 3.54721e-05
60 *327:64 *2597:S 4.66108e-05
61 *327:64 *2619:A 3.24984e-05
62 *327:64 *2620:S 3.47668e-05
63 *327:64 *2621:A 2.32241e-05
64 *327:64 *2622:S 9.72118e-06
65 *327:64 *2789:B2 6.06863e-05
66 *327:64 *3417:A 9.68524e-05
67 *327:64 *355:82 1.90907e-05
68 *327:64 *409:84 0.000191335
69 *327:64 *572:8 0.000121659
70 *327:64 *779:74 0.000115512
71 *327:81 *2598:A 0.000270617
72 *327:81 *2600:S 5.26385e-05
73 *327:81 *2602:A1 0.00015639
74 *327:81 *2789:B2 1.14169e-05
75 *327:81 *560:22 1.4174e-05
76 *327:81 *682:12 0.000107073
77 *327:91 *2919:B 0.000127269
78 *327:91 *409:84 2.33678e-05
79 *327:91 *601:85 0.000129552
80 *327:91 *601:109 2.69981e-05
81 *327:91 *682:12 5.91496e-05
82 *327:97 *601:85 3.89366e-05
83 *327:99 *2793:A1 5.29497e-05
84 *327:99 *358:37 0.000112732
85 *327:101 *2616:A 9.80854e-05
86 *327:101 *2793:A1 1.7994e-05
87 *2620:A0 *2587:A0 0.00022786
88 *2644:A2 *327:14 2.59926e-05
89 *2675:B *2587:A0 0.000342247
90 *2675:B *327:64 4.77769e-05
91 *2721:A2 *327:99 0.000607797
92 *2755:B1 *327:91 9.5381e-05
93 *2797:B1 *2612:A0 8.08153e-06
94 *2810:A2 *2622:A0 8.53011e-05
95 *2810:A2 *327:33 3.63576e-05
96 *3108:A *327:14 0.000122155
97 *3239:D *2833:A1 0.000205569
98 *3258:D *2612:A0 5.01066e-05
99 *3260:D *327:64 0.000155497
100 *3261:D *327:64 8.32001e-05
101 *181:10 *327:81 0.00011277
102 *181:10 *327:91 5.91496e-05
103 *181:106 *327:91 0
104 *197:42 *2581:A0 9.30787e-05
105 *197:42 *327:99 0.000503068
106 *197:42 *327:101 0.000233641
107 *208:18 *327:99 0.000102105
108 *208:73 *327:97 5.92191e-05
109 *208:73 *327:99 1.86013e-05
110 *208:104 *327:91 0.0002829
111 *208:104 *327:97 0.000243238
112 *211:38 *2612:A0 0.000569265
113 *211:65 *2612:A0 0.000183447
114 *215:54 *327:97 0.00014225
115 *215:54 *327:99 0.000104
116 *218:36 *327:99 5.84378e-05
117 *315:8 *327:14 6.47594e-05
118 *315:19 *327:14 7.55391e-05
119 *315:23 *327:14 2.54431e-05
120 *316:6 *327:14 9.27255e-06
121 *316:12 *327:14 8.10455e-05
122 *316:60 *327:64 0.000335429
123 *316:60 *327:81 5.12743e-05
124 *316:96 *2612:A0 4.82919e-05
125 *316:96 *2617:A0 3.0807e-05
*RES
1 *2832:X *327:14 16.22 
2 *327:14 *2627:A0 4.495 
3 *327:14 *327:33 14.425 
4 *327:33 *2622:A0 2.395 
5 *327:33 *327:44 2.87 
6 *327:44 *327:64 19.47 
7 *327:64 *2597:A0 1.6 
8 *327:64 *327:81 11.12 
9 *327:81 *327:91 8.06653 
10 *327:91 *327:97 5.85 
11 *327:97 *327:99 12.6 
12 *327:99 *327:101 2.91 
13 *327:101 *2581:A0 9.015 
14 *327:101 *2612:A0 24.94 
15 *327:99 *2617:A0 4.74 
16 *327:97 *2833:A1 25.615 
17 *327:91 *2607:A0 3.6 
18 *327:81 *2602:A0 3.6 
19 *327:44 *2587:A0 9.96 
*END

*D_NET *328 0.00122322
*CONN
*I *2834:A I *D sky130_fd_sc_hd__clkbuf_1
*I *2833:X O *D sky130_fd_sc_hd__mux2_1
*CAP
1 *2834:A 0.000508237
2 *2833:X 0.000508237
3 *2834:A *928:8 5.00317e-05
4 *2730:A *2834:A 0.000132591
5 *2831:A *2834:A 2.41231e-05
*RES
1 *2833:X *2834:A 14.97 
*END

*D_NET *329 0.0124267
*CONN
*I *2930:B I *D sky130_fd_sc_hd__or4b_4
*I *2918:A I *D sky130_fd_sc_hd__or4bb_4
*I *2954:B I *D sky130_fd_sc_hd__or4_4
*I *2907:B I *D sky130_fd_sc_hd__nor4_1
*I *2879:B I *D sky130_fd_sc_hd__or3b_2
*I *2895:A I *D sky130_fd_sc_hd__or4b_4
*I *2865:A_N I *D sky130_fd_sc_hd__nand3b_2
*I *2841:A1 I *D sky130_fd_sc_hd__o21ai_1
*I *2849:A2 I *D sky130_fd_sc_hd__a31o_1
*I *2842:A1 I *D sky130_fd_sc_hd__o21a_1
*I *2835:X O *D sky130_fd_sc_hd__buf_2
*CAP
1 *2930:B 2.61384e-05
2 *2918:A 0.000568517
3 *2954:B 0
4 *2907:B 8.50061e-05
5 *2879:B 0
6 *2895:A 0
7 *2865:A_N 0.000149659
8 *2841:A1 7.06936e-05
9 *2849:A2 1.85694e-05
10 *2842:A1 0.000272539
11 *2835:X 0.000586057
12 *329:111 0.000568517
13 *329:109 0.000139408
14 *329:94 0.000296816
15 *329:83 0.000260416
16 *329:49 0.000180561
17 *329:26 0.000717263
18 *329:20 0.000613097
19 *329:12 0.000110012
20 *329:10 0.000747932
21 *2841:A1 *334:20 0.00012657
22 *2841:A1 *334:22 0.0001249
23 *2841:A1 *335:10 0.000164874
24 *2842:A1 *2842:B1 4.56018e-05
25 *2842:A1 *2847:A1_N 3.86024e-05
26 *2842:A1 *2847:B2 2.81207e-05
27 *2842:A1 *2848:A2 4.59733e-05
28 *2842:A1 *2853:A1_N 6.3578e-05
29 *2842:A1 *3133:CLK 0
30 *2842:A1 *335:10 0.000214062
31 *2842:A1 *602:38 0
32 *2849:A2 *2847:B1 9.53428e-06
33 *2865:A_N *2865:B 4.66108e-05
34 *2865:A_N *2879:C_N 3.26889e-05
35 *2865:A_N *2887:B_N 0.000102208
36 *2865:A_N *351:12 0.0001947
37 *2865:A_N *368:12 0.000379301
38 *2907:B *2907:A 6.97118e-05
39 *2907:B *382:10 8.57024e-05
40 *2907:B *405:18 0
41 *2907:B *405:35 0
42 *2918:A *2918:D_N 3.69137e-05
43 *2918:A *720:18 2.30292e-05
44 *2930:B *2930:A 3.86607e-05
45 *2930:B *413:10 6.38291e-05
46 *329:10 *2713:B2 0
47 *329:10 *2835:A 4.82919e-05
48 *329:10 *2847:B1 9.46111e-06
49 *329:10 *2853:A2_N 9.00945e-05
50 *329:10 *336:25 8.95387e-05
51 *329:10 *336:34 9.41255e-05
52 *329:20 *2879:C_N 0.000104287
53 *329:20 *2907:D 1.12578e-05
54 *329:20 *368:12 0.00011379
55 *329:20 *368:23 0.000160907
56 *329:26 *2879:C_N 9.50342e-06
57 *329:26 *335:10 9.50342e-06
58 *329:26 *358:16 0.000330449
59 *329:26 *368:12 9.50342e-06
60 *329:49 *2835:A 1.91597e-05
61 *329:49 *2847:B1 0.00010039
62 *329:49 *335:10 0.000272984
63 *329:83 *2907:D 0.000346769
64 *329:83 *336:34 1.94805e-05
65 *329:83 *336:49 9.41007e-05
66 *329:83 *339:95 7.50427e-05
67 *329:94 *2907:D 0.00012664
68 *329:94 *339:95 0.000115571
69 *329:94 *339:106 6.426e-05
70 *329:109 *2930:A 2.76541e-05
71 *329:109 *339:106 5.35005e-05
72 *329:109 *413:10 8.53113e-06
73 *2685:A *2918:A 1.92187e-05
74 *2685:B *2918:A 9.90691e-05
75 *2685:C *2918:A 4.66108e-05
76 *2685:D_N *2918:A 0.000159327
77 *2824:B *329:26 0.000304075
78 *2848:A1 *2842:A1 0
79 *2848:A1 *329:10 6.98629e-05
80 *2849:B1 *329:26 0
81 *2853:B2 *2842:A1 9.50342e-06
82 *2853:B2 *329:26 0.000118274
83 *2853:B2 *329:49 7.92997e-05
84 *2895:B *329:20 3.15283e-05
85 *2918:B *2918:A 0.000496095
86 *2918:C_N *2918:A 8.40269e-05
87 *2954:C *2918:A 0.000138914
88 *207:28 *2918:A 3.70733e-05
89 *317:49 *329:26 0.000128121
90 *317:69 *2907:B 0
91 *318:36 *329:26 5.36866e-05
92 *318:99 *2918:A 0.000186474
93 *320:16 *329:10 0.000261683
94 *322:62 *329:20 0.000244162
95 *322:66 *329:10 4.18603e-06
96 *322:66 *329:83 1.23244e-05
97 *322:85 *329:94 9.31831e-06
98 *322:85 *329:109 8.27128e-05
*RES
1 *2835:X *329:10 14.535 
2 *329:10 *329:12 2 
3 *329:12 *329:20 5.915 
4 *329:20 *329:26 9.075 
5 *329:26 *2842:A1 9.405 
6 *329:26 *329:49 5.225 
7 *329:49 *2849:A2 1.96 
8 *329:49 *2841:A1 4.12 
9 *329:20 *2865:A_N 8.22 
10 *329:12 *2895:A 1.6 
11 *329:10 *329:83 4.695 
12 *329:83 *2879:B 3.6 
13 *329:83 *329:94 2.595 
14 *329:94 *2907:B 5.46 
15 *329:94 *329:109 2.145 
16 *329:109 *329:111 2 
17 *329:111 *2954:B 1.6 
18 *329:111 *2918:A 12.775 
19 *329:109 *2930:B 4.47 
*END

*D_NET *330 0.00684242
*CONN
*I *2841:A2 I *D sky130_fd_sc_hd__o21ai_1
*I *2848:A2 I *D sky130_fd_sc_hd__o21ai_1
*I *2840:A1 I *D sky130_fd_sc_hd__o21ba_2
*I *2836:Y O *D sky130_fd_sc_hd__nand2_1
*CAP
1 *2841:A2 0.000147179
2 *2848:A2 0.000667165
3 *2840:A1 0
4 *2836:Y 0.00037857
5 *330:27 0.00235758
6 *330:10 0.00192181
7 *2841:A2 *2850:B 2.67022e-05
8 *2841:A2 *2851:A 9.58678e-06
9 *2841:A2 *3133:RESET_B 3.97211e-05
10 *2841:A2 *334:40 0
11 *2841:A2 *775:10 0
12 *2841:A2 *775:23 0
13 *2841:A2 *776:20 0
14 *2848:A2 *2847:A2_N 7.48385e-05
15 *2848:A2 *338:21 0.000329581
16 *2848:A2 *602:38 0
17 *330:10 *2840:A2 8.53113e-06
18 *330:10 *2844:A 2.30292e-05
19 *330:10 *2856:A 6.20952e-05
20 *330:10 *337:14 0.0001249
21 *330:10 *779:12 6.87388e-05
22 *330:10 *785:10 4.82863e-05
23 *330:27 *2840:A2 3.11859e-05
24 *330:27 *338:21 0.000335931
25 *2815:D *330:10 0
26 *2815:D *330:27 0
27 *2842:A1 *2848:A2 4.59733e-05
28 *2844:B *330:10 3.23663e-05
29 *2848:A1 *2848:A2 0.000108647
30 *310:23 *330:10 0
*RES
1 *2836:Y *330:10 10.485 
2 *330:10 *2840:A1 3.6 
3 *330:10 *330:27 3.77923 
4 *330:27 *2848:A2 7.00757 
5 *330:27 *2841:A2 6.3725 
*END

*D_NET *331 0.00133839
*CONN
*I *2839:A1 I *D sky130_fd_sc_hd__o21a_1
*I *2837:Y O *D sky130_fd_sc_hd__inv_2
*CAP
1 *2839:A1 0.00021163
2 *2837:Y 0.00021163
3 *2839:A1 *2837:A 8.69182e-05
4 *2839:A1 *2839:A2 3.00381e-05
5 *2839:A1 *2840:A2 3.0328e-05
6 *2839:A1 *2856:B 4.82863e-05
7 *2839:A1 *779:12 0.000178428
8 *2839:A1 *779:18 7.21296e-06
9 *2839:A1 *780:14 0.000198051
10 *2839:A1 *780:37 0.000142059
11 *2815:C *2839:A1 0
12 *2815:D *2839:A1 0
13 *2840:B1_N *2839:A1 0.000193806
*RES
1 *2837:Y *2839:A1 13.5 
*END

*D_NET *332 0.00114441
*CONN
*I *2839:A2 I *D sky130_fd_sc_hd__o21a_1
*I *2858:B I *D sky130_fd_sc_hd__or2_1
*I *2854:A1 I *D sky130_fd_sc_hd__a21bo_1
*I *2838:Y O *D sky130_fd_sc_hd__nand2_1
*CAP
1 *2839:A2 0.000100493
2 *2858:B 0
3 *2854:A1 0.000137858
4 *2838:Y 3.21274e-05
5 *332:25 0.000165279
6 *332:8 0.000234772
7 *2839:A2 *780:37 3.43205e-05
8 *2839:A2 *780:39 3.66286e-05
9 *2854:A1 *2856:B 5.07004e-05
10 *2854:A1 *2859:A2_N 4.05358e-05
11 *2854:A1 *337:14 4.99619e-05
12 *2854:A1 *642:26 5.87736e-05
13 *2854:A1 *779:18 0
14 *2854:A1 *780:69 1.94892e-05
15 *332:8 *642:26 2.31797e-05
16 *332:8 *780:69 2.73658e-05
17 *332:25 *2859:B2 1.08758e-05
18 *332:25 *780:39 8.65961e-05
19 *2839:A1 *2839:A2 3.00381e-05
20 *2839:B1 *2839:A2 5.4155e-06
*RES
1 *2838:Y *332:8 4.47 
2 *332:8 *2854:A1 6.705 
3 *332:8 *332:25 3.155 
4 *332:25 *2858:B 1.6 
5 *332:25 *2839:A2 3.445 
*END

*D_NET *333 0.00034263
*CONN
*I *2840:A2 I *D sky130_fd_sc_hd__o21ba_2
*I *2839:X O *D sky130_fd_sc_hd__o21a_1
*CAP
1 *2840:A2 0.000103363
2 *2839:X 0.000103363
3 *2840:A2 *2815:A 2.75145e-05
4 *2840:A2 *2856:A 1.16578e-05
5 *2840:A2 *779:12 2.66861e-05
6 *2815:C *2840:A2 0
7 *2815:D *2840:A2 0
8 *2839:A1 *2840:A2 3.0328e-05
9 *330:10 *2840:A2 8.53113e-06
10 *330:27 *2840:A2 3.11859e-05
*RES
1 *2839:X *2840:A2 9.285 
*END

*D_NET *334 0.00573291
*CONN
*I *2854:B1_N I *D sky130_fd_sc_hd__a21bo_1
*I *2845:B I *D sky130_fd_sc_hd__nand2_1
*I *2855:A2 I *D sky130_fd_sc_hd__a21o_1
*I *2841:B1 I *D sky130_fd_sc_hd__o21ai_1
*I *2849:A3 I *D sky130_fd_sc_hd__a31o_1
*I *2842:A2 I *D sky130_fd_sc_hd__o21a_1
*I *2848:B1 I *D sky130_fd_sc_hd__o21ai_1
*I *2840:X O *D sky130_fd_sc_hd__o21ba_2
*CAP
1 *2854:B1_N 0
2 *2845:B 0
3 *2855:A2 0.000298108
4 *2841:B1 0
5 *2849:A3 0
6 *2842:A2 0
7 *2848:B1 5.30014e-05
8 *2840:X 8.65981e-05
9 *334:40 0.000408971
10 *334:22 0.000409384
11 *334:20 0.000401853
12 *334:18 0.000793982
13 *334:10 0.00068834
14 *334:6 0.000627503
15 *2848:B1 *2851:A 5.14739e-05
16 *334:6 *2856:A 0.000118081
17 *334:10 *2845:A 0.000348207
18 *334:10 *2856:A 0.00026389
19 *334:10 *2859:A1_N 1.52352e-05
20 *334:10 *2859:B1 4.99619e-05
21 *334:18 *2814:D 3.92424e-05
22 *334:18 *338:21 6.63219e-06
23 *334:18 *602:16 0
24 *334:18 *778:21 6.36578e-05
25 *334:40 *2850:B 8.49583e-05
26 *334:40 *2851:A 0.000366314
27 *334:40 *2853:B1 0
28 *334:40 *3133:CLK 0
29 *334:40 *3133:RESET_B 0
30 *334:40 *339:14 5.53249e-06
31 *334:40 *340:10 0
32 *334:40 *602:32 7.46749e-05
33 *334:40 *602:36 8.65961e-05
34 *2841:A1 *334:20 0.00012657
35 *2841:A1 *334:22 0.0001249
36 *2841:A2 *334:40 0
37 *3130:D *334:40 1.4174e-05
38 *3131:D *334:40 8.90632e-05
39 *312:10 *334:10 2.99981e-06
40 *312:10 *334:18 3.30017e-05
*RES
1 *2840:X *334:6 2.74 
2 *334:6 *334:10 7.62 
3 *334:10 *334:18 6.94 
4 *334:18 *334:20 5.28 
5 *334:20 *334:22 1.14 
6 *334:22 *334:40 12.52 
7 *334:40 *2848:B1 2.755 
8 *334:40 *2842:A2 1.6 
9 *334:22 *2849:A3 1.6 
10 *334:20 *2841:B1 1.6 
11 *334:18 *2855:A2 5.86 
12 *334:10 *2845:B 1.6 
13 *334:6 *2854:B1_N 1.6 
*END

*D_NET *335 0.00270868
*CONN
*I *2842:B1 I *D sky130_fd_sc_hd__o21a_1
*I *2847:B2 I *D sky130_fd_sc_hd__a2bb2o_1
*I *2841:Y O *D sky130_fd_sc_hd__o21ai_1
*CAP
1 *2842:B1 7.73151e-05
2 *2847:B2 0.000215962
3 *2841:Y 0.000187533
4 *335:10 0.000480811
5 *2842:B1 *3133:CLK 2.34345e-05
6 *2842:B1 *340:10 0.000101876
7 *2847:B2 *2847:A1_N 8.57024e-05
8 *2847:B2 *3133:CLK 9.27326e-05
9 *335:10 *2835:A 0.000311288
10 *335:10 *2853:B1 0.000106655
11 *335:10 *340:10 8.45789e-05
12 *2841:A1 *335:10 0.000164874
13 *2842:A1 *2842:B1 4.56018e-05
14 *2842:A1 *2847:B2 2.81207e-05
15 *2842:A1 *335:10 0.000214062
16 *3131:D *2847:B2 0.000196376
17 *3133:D *2847:B2 9.27255e-06
18 *329:26 *335:10 9.50342e-06
19 *329:49 *335:10 0.000272984
*RES
1 *2841:Y *335:10 10.2825 
2 *335:10 *2847:B2 8.1825 
3 *335:10 *2842:B1 5.3625 
*END

*D_NET *336 0.00539654
*CONN
*I *2924:B I *D sky130_fd_sc_hd__or3b_4
*I *2948:C I *D sky130_fd_sc_hd__or3_4
*I *2901:B I *D sky130_fd_sc_hd__or3_2
*I *2873:A I *D sky130_fd_sc_hd__or2b_2
*I *2847:A1_N I *D sky130_fd_sc_hd__a2bb2o_1
*I *2843:X O *D sky130_fd_sc_hd__or2b_1
*CAP
1 *2924:B 0
2 *2948:C 0.000196974
3 *2901:B 0.000120252
4 *2873:A 0
5 *2847:A1_N 0.000296769
6 *2843:X 0.000128707
7 *336:49 0.000457939
8 *336:34 0.000501245
9 *336:25 0.000318628
10 *336:8 0.000624078
11 *2847:A1_N *2853:A1_N 0.000122595
12 *2847:A1_N *2853:A2_N 0.0001113
13 *2901:B *2895:D_N 4.99619e-05
14 *2901:B *368:23 5.88334e-05
15 *2948:C *528:10 0.000122331
16 *336:25 *2853:A2_N 1.0397e-05
17 *336:49 *339:95 9.76865e-05
18 *336:49 *339:106 3.59531e-06
19 *2842:A1 *2847:A1_N 3.86024e-05
20 *2847:B2 *2847:A1_N 8.57024e-05
21 *2848:A1 *2847:A1_N 3.87929e-05
22 *2853:B2 *2847:A1_N 4.45065e-05
23 *2853:B2 *336:25 0.000114524
24 *2948:A *2948:C 4.00541e-06
25 *2948:B *2948:C 0
26 *3133:D *2847:A1_N 5.43657e-05
27 *317:10 *336:25 0.000169195
28 *317:38 *336:25 0.000105393
29 *317:49 *336:25 0.000130579
30 *317:49 *336:34 0.000288997
31 *317:49 *336:49 9.17274e-05
32 *317:62 *2948:C 4.66108e-05
33 *317:62 *336:49 0.000356004
34 *317:69 *2948:C 8.52137e-06
35 *317:97 *2948:C 4.14782e-05
36 *318:69 *2948:C 5.2212e-05
37 *319:6 *336:8 1.95444e-05
38 *319:10 *336:8 4.41506e-05
39 *320:16 *336:25 0.000143088
40 *329:10 *336:25 8.95387e-05
41 *329:10 *336:34 9.41255e-05
42 *329:83 *336:34 1.94805e-05
43 *329:83 *336:49 9.41007e-05
*RES
1 *2843:X *336:8 5.085 
2 *336:8 *2847:A1_N 9.315 
3 *336:8 *336:25 6.225 
4 *336:25 *2873:A 3.6 
5 *336:25 *336:34 3.42 
6 *336:34 *2901:B 5.085 
7 *336:34 *336:49 7.91 
8 *336:49 *2948:C 5.44 
9 *336:49 *2924:B 1.6 
*END

*D_NET *337 0.00295132
*CONN
*I *2854:A2 I *D sky130_fd_sc_hd__a21bo_1
*I *2845:A I *D sky130_fd_sc_hd__nand2_1
*I *2844:X O *D sky130_fd_sc_hd__and2_1
*CAP
1 *2854:A2 0
2 *2845:A 0.000127701
3 *2844:X 0.0005544
4 *337:14 0.000682101
5 *2845:A *2856:A 8.57024e-05
6 *2845:A *2859:A1_N 0.000112058
7 *2845:A *2859:A2_N 0.00026619
8 *2845:A *2859:B1 4.99619e-05
9 *337:14 *2856:A 0.00022558
10 *337:14 *2856:B 0.00011379
11 *337:14 *2859:A2_N 1.16578e-05
12 *337:14 *642:26 0
13 *337:14 *779:12 2.75229e-05
14 *337:14 *779:18 5.83121e-06
15 *337:14 *780:14 4.38386e-05
16 *2840:B1_N *337:14 0.00011379
17 *2854:A1 *337:14 4.99619e-05
18 *312:10 *2845:A 8.12896e-06
19 *330:10 *337:14 0.0001249
20 *334:10 *2845:A 0.000348207
*RES
1 *2844:X *337:14 14.75 
2 *337:14 *2845:A 7.015 
3 *337:14 *2854:A2 1.6 
*END

*D_NET *338 0.00401731
*CONN
*I *2853:A1_N I *D sky130_fd_sc_hd__a2bb2o_1
*I *2847:A2_N I *D sky130_fd_sc_hd__a2bb2o_1
*I *2859:A1_N I *D sky130_fd_sc_hd__a2bb2o_1
*I *2845:Y O *D sky130_fd_sc_hd__nand2_1
*CAP
1 *2853:A1_N 8.93404e-05
2 *2847:A2_N 0.000231434
3 *2859:A1_N 8.33457e-05
4 *2845:Y 0
5 *338:21 0.00127505
6 *338:4 0.00103762
7 *2847:A2_N *2714:B2 0
8 *2847:A2_N *2847:B1 0
9 *2853:A1_N *2847:B1 4.66108e-05
10 *2853:A1_N *2853:A2_N 2.49909e-05
11 *338:21 *602:16 6.16226e-06
12 *2842:A1 *2853:A1_N 6.3578e-05
13 *2845:A *2859:A1_N 0.000112058
14 *2847:A1_N *2853:A1_N 0.000122595
15 *2848:A1 *2847:A2_N 2.28346e-05
16 *2848:A2 *2847:A2_N 7.48385e-05
17 *2848:A2 *338:21 0.000329581
18 *2853:B2 *2853:A1_N 5.4155e-06
19 *312:10 *2859:A1_N 0.00013406
20 *330:27 *338:21 0.000335931
21 *334:10 *2859:A1_N 1.52352e-05
22 *334:18 *338:21 6.63219e-06
*RES
1 *2845:Y *338:4 1.6 
2 *338:4 *2859:A1_N 4.135 
3 *338:4 *338:21 4.63503 
4 *338:21 *2847:A2_N 4.9751 
5 *338:21 *2853:A1_N 6.4175 
*END

*D_NET *339 0.0108466
*CONN
*I *2879:A I *D sky130_fd_sc_hd__or3b_2
*I *2930:A I *D sky130_fd_sc_hd__or4b_4
*I *2918:D_N I *D sky130_fd_sc_hd__or4bb_4
*I *2954:A I *D sky130_fd_sc_hd__or4_4
*I *2907:A I *D sky130_fd_sc_hd__nor4_1
*I *2942:D_N I *D sky130_fd_sc_hd__or4b_4
*I *2895:D_N I *D sky130_fd_sc_hd__or4b_4
*I *2865:C I *D sky130_fd_sc_hd__nand3b_2
*I *2849:A1 I *D sky130_fd_sc_hd__a31o_1
*I *2847:B1 I *D sky130_fd_sc_hd__a2bb2o_1
*I *2846:X O *D sky130_fd_sc_hd__buf_2
*CAP
1 *2879:A 0
2 *2930:A 0.000126346
3 *2918:D_N 0.000622149
4 *2954:A 4.72909e-05
5 *2907:A 0.000146076
6 *2942:D_N 2.11917e-05
7 *2895:D_N 0.000110397
8 *2865:C 0
9 *2849:A1 0
10 *2847:B1 0.000679562
11 *2846:X 0.000100447
12 *339:108 0.00066944
13 *339:106 0.000223839
14 *339:95 0.00030865
15 *339:91 0.000375173
16 *339:72 0.000398301
17 *339:57 0.000447768
18 *339:42 0.000499329
19 *339:14 0.000878432
20 *339:6 0.000528292
21 *2847:B1 *2714:B2 0
22 *2847:B1 *2835:A 2.19388e-05
23 *2847:B1 *2853:A2_N 1.47256e-05
24 *2895:D_N *2578:A 3.15283e-05
25 *2895:D_N *368:23 4.99619e-05
26 *2930:A *3462:A 0.000123225
27 *2930:A *413:10 1.16283e-05
28 *339:6 *776:22 0.00012398
29 *339:14 *2835:A 3.61328e-05
30 *339:14 *2843:A 4.47102e-06
31 *339:14 *2843:B_N 3.112e-05
32 *339:42 *2835:A 4.04087e-05
33 *339:42 *2886:A 0.000235215
34 *339:42 *775:29 0.000110785
35 *339:42 *775:33 2.0794e-05
36 *339:42 *775:70 0.000374616
37 *339:57 *2578:A 1.60203e-05
38 *339:57 *2886:A 8.6311e-05
39 *339:57 *2886:B 3.45252e-05
40 *339:57 *2888:A 1.37328e-05
41 *339:57 *2942:A 9.50342e-06
42 *339:57 *378:35 0.000124895
43 *339:57 *775:70 0.000191202
44 *339:72 *378:35 0
45 *339:91 *362:16 8.65905e-05
46 *339:91 *378:35 0
47 *339:91 *401:10 3.82018e-05
48 *339:106 *393:12 0
49 *2685:A *2918:D_N 6.58423e-05
50 *2685:B *2918:D_N 0.00027209
51 *2685:D_N *2918:D_N 6.73895e-05
52 *2823:C *339:6 1.32102e-05
53 *2823:C *339:14 3.31862e-05
54 *2823:C *339:42 0.000111293
55 *2847:A2_N *2847:B1 0
56 *2848:A1 *2847:B1 0
57 *2849:A2 *2847:B1 9.53428e-06
58 *2849:B1 *339:14 0.000134987
59 *2853:A1_N *2847:B1 4.66108e-05
60 *2853:B2 *2847:B1 4.66742e-05
61 *2901:B *2895:D_N 4.99619e-05
62 *2907:B *2907:A 6.97118e-05
63 *2918:A *2918:D_N 3.69137e-05
64 *2918:C_N *2918:D_N 4.66826e-05
65 *2930:B *2930:A 3.86607e-05
66 *2930:C *2930:A 6.35885e-05
67 *2930:C *339:106 9.387e-06
68 *2930:D_N *2930:A 3.6195e-06
69 *2936:A *2942:D_N 4.21973e-05
70 *2942:B *2942:D_N 1.08758e-05
71 *2954:D *2918:D_N 4.82863e-05
72 *3470:A *2930:A 0.00015053
73 *185:10 *2918:D_N 3.63745e-05
74 *185:10 *2954:A 6.97118e-05
75 *207:28 *2918:D_N 0.000160641
76 *207:28 *2954:A 0.000124674
77 *211:32 *2942:D_N 8.49205e-05
78 *212:26 *339:91 9.55454e-05
79 *215:16 *339:91 0.000124007
80 *317:73 *339:106 4.9646e-05
81 *318:36 *339:72 4.61196e-05
82 *318:36 *339:91 1.74629e-05
83 *318:58 *339:91 5.93963e-05
84 *318:99 *2918:D_N 7.67415e-06
85 *322:48 *339:57 0
86 *322:56 *2895:D_N 1.4174e-05
87 *322:56 *339:57 9.80032e-06
88 *322:62 *2895:D_N 8.34281e-06
89 *329:10 *2847:B1 9.46111e-06
90 *329:49 *2847:B1 0.00010039
91 *329:83 *339:95 7.50427e-05
92 *329:94 *339:95 0.000115571
93 *329:94 *339:106 6.426e-05
94 *329:109 *2930:A 2.76541e-05
95 *329:109 *339:106 5.35005e-05
96 *334:40 *339:14 5.53249e-06
97 *336:49 *339:95 9.76865e-05
98 *336:49 *339:106 3.59531e-06
*RES
1 *2846:X *339:6 3.085 
2 *339:6 *339:14 7.12 
3 *339:14 *2847:B1 14.465 
4 *339:14 *2849:A1 1.6 
5 *339:6 *339:42 8.99 
6 *339:42 *2865:C 3.6 
7 *339:42 *339:57 6.935 
8 *339:57 *2895:D_N 3.55 
9 *339:57 *339:72 3.125 
10 *339:72 *2942:D_N 4.395 
11 *339:72 *339:91 7.82 
12 *339:91 *339:95 4.145 
13 *339:95 *2907:A 5.775 
14 *339:95 *339:106 2.145 
15 *339:106 *339:108 2 
16 *339:108 *2954:A 3.1 
17 *339:108 *2918:D_N 10.975 
18 *339:106 *2930:A 6.885 
19 *339:91 *2879:A 1.6 
*END

*D_NET *340 0.00253626
*CONN
*I *2850:A I *D sky130_fd_sc_hd__and2_1
*I *2853:B1 I *D sky130_fd_sc_hd__a2bb2o_1
*I *2848:Y O *D sky130_fd_sc_hd__o21ai_1
*CAP
1 *2850:A 0.00046045
2 *2853:B1 6.15778e-05
3 *2848:Y 0.00021278
4 *340:10 0.000734808
5 *2850:A *2850:B 0.000256335
6 *2850:A *3133:CLK 5.83121e-06
7 *2850:A *778:8 0.000203178
8 *340:10 *2851:A 0.000150929
9 *340:10 *3133:CLK 0.000133857
10 *2842:B1 *340:10 0.000101876
11 *2849:B1 *2853:B1 0
12 *3131:D *2850:A 2.34083e-05
13 *334:40 *2853:B1 0
14 *334:40 *340:10 0
15 *335:10 *2853:B1 0.000106655
16 *335:10 *340:10 8.45789e-05
*RES
1 *2848:Y *340:10 7.575 
2 *340:10 *2853:B1 4.98 
3 *340:10 *2850:A 10.845 
*END

*D_NET *341 0.000838606
*CONN
*I *2850:B I *D sky130_fd_sc_hd__and2_1
*I *2849:X O *D sky130_fd_sc_hd__a31o_1
*CAP
1 *2850:B 0.0002233
2 *2849:X 0.0002233
3 *2850:B *3133:RESET_B 2.40101e-05
4 *2841:A2 *2850:B 2.67022e-05
5 *2850:A *2850:B 0.000256335
6 *334:40 *2850:B 8.49583e-05
*RES
1 *2849:X *2850:B 12.36 
*END

*D_NET *342 0.00198334
*CONN
*I *2851:A I *D sky130_fd_sc_hd__clkbuf_1
*I *2850:X O *D sky130_fd_sc_hd__and2_1
*CAP
1 *2851:A 0.000677585
2 *2850:X 0.000677585
3 *2851:A *3133:RESET_B 1.63344e-05
4 *2851:A *602:32 3.35323e-05
5 *2851:A *775:10 0
6 *2841:A2 *2851:A 9.58678e-06
7 *2848:B1 *2851:A 5.14739e-05
8 *334:40 *2851:A 0.000366314
9 *340:10 *2851:A 0.000150929
*RES
1 *2850:X *2851:A 18.555 
*END

*D_NET *343 0.0246705
*CONN
*I *2853:A2_N I *D sky130_fd_sc_hd__a2bb2o_1
*I *3008:A I *D sky130_fd_sc_hd__nor2_1
*I *3093:A I *D sky130_fd_sc_hd__nor2_1
*I *2913:B I *D sky130_fd_sc_hd__nor2_1
*I *2589:A I *D sky130_fd_sc_hd__nor2_1
*I *2852:Y O *D sky130_fd_sc_hd__nand2b_2
*CAP
1 *2853:A2_N 9.45394e-05
2 *3008:A 0.000762668
3 *3093:A 2.71232e-05
4 *2913:B 0
5 *2589:A 0
6 *2852:Y 0
7 *343:66 0.00238543
8 *343:51 0.00282821
9 *343:32 0.00323355
10 *343:4 0.00209552
11 *2853:A2_N *2835:A 5.17273e-05
12 *3008:A *2704:A1 0.000187048
13 *3008:A *419:39 0.000112264
14 *3008:A *475:49 0.000957242
15 *3008:A *500:83 0.000308451
16 *3008:A *511:126 0.000172166
17 *3008:A *512:10 9.50342e-06
18 *3093:A *475:49 8.40213e-05
19 *3093:A *500:83 3.03684e-05
20 *343:32 *2564:A1 0
21 *343:32 *2566:S 0
22 *343:32 *2571:A1 0
23 *343:32 *2798:A1 0.000321868
24 *343:32 *3241:CLK 0.000131326
25 *343:32 *3258:CLK 5.06699e-05
26 *343:32 *3259:CLK 0
27 *343:32 *369:30 0
28 *343:32 *500:93 2.11536e-05
29 *343:32 *500:115 0.000203079
30 *343:32 *527:38 0.000110156
31 *343:32 *527:50 0
32 *343:32 *532:14 0.000131644
33 *343:32 *541:12 0.00011099
34 *343:32 *936:10 0.000324308
35 *343:51 *2591:A 0.000315491
36 *343:51 *2866:B 2.5587e-05
37 *343:51 *2920:A1 0.000711477
38 *343:51 *3296:A 2.02312e-05
39 *343:51 *349:38 0.000117825
40 *343:51 *366:20 0.000136884
41 *343:51 *370:30 0
42 *343:51 *409:34 0.000171992
43 *343:51 *591:26 0.000472268
44 *343:51 *601:38 4.61701e-06
45 *343:51 *764:30 5.48448e-05
46 *343:66 *2768:A1 0.000181152
47 *343:66 *2908:B_N 7.21296e-06
48 *343:66 *2916:A0 5.4155e-06
49 *343:66 *2982:A 6.74079e-05
50 *343:66 *2994:A 7.06865e-05
51 *343:66 *3120:A0 0.000311806
52 *343:66 *349:18 0.000119762
53 *343:66 *349:38 0.000933532
54 *343:66 *366:10 0.000911305
55 *343:66 *366:20 0.00173474
56 *343:66 *372:40 8.73389e-06
57 *343:66 *440:90 0
58 *343:66 *597:16 0
59 *343:66 *597:36 0
60 *343:66 *597:49 0
61 *2704:A3 *3008:A 0.000127776
62 *2704:B1 *3008:A 0.000134134
63 *2716:A2 *343:32 1.29127e-05
64 *2720:A *343:32 0.000513607
65 *2720:B *343:51 1.88904e-05
66 *2722:A2 *3008:A 0
67 *2798:A2 *343:32 6.30425e-05
68 *2799:B1 *343:32 0.000133547
69 *2803:A2 *343:51 0
70 *2803:B1 *343:51 0.000103483
71 *2847:A1_N *2853:A2_N 0.0001113
72 *2847:B1 *2853:A2_N 1.47256e-05
73 *2848:A1 *2853:A2_N 2.34345e-05
74 *2848:A1 *343:32 8.23457e-05
75 *2852:A_N *343:32 4.6075e-05
76 *2853:A1_N *2853:A2_N 2.49909e-05
77 *3155:D *343:51 9.33942e-05
78 *3175:D *343:66 0
79 *3178:D *343:66 0.000137571
80 *3180:D *343:66 4.49197e-05
81 *3244:D *343:32 5.01066e-05
82 *3248:D *343:51 7.4027e-05
83 *183:143 *3008:A 8.96077e-05
84 *197:42 *343:32 0
85 *202:83 *343:66 0
86 *208:47 *343:51 0.000380307
87 *208:104 *343:66 0.000841461
88 *320:16 *343:32 0.000308674
89 *320:64 *343:51 0
90 *324:24 *343:51 6.57653e-06
91 *324:30 *343:51 5.12017e-06
92 *329:10 *2853:A2_N 9.00945e-05
93 *336:25 *2853:A2_N 1.0397e-05
*RES
1 *2852:Y *343:4 1.6 
2 *343:4 *343:32 40.925 
3 *343:32 *2589:A 3.6 
4 *343:32 *343:51 26.6422 
5 *343:51 *2913:B 1.6 
6 *343:51 *343:66 47.995 
7 *343:66 *3093:A 2.395 
8 *343:66 *3008:A 27.96 
9 *343:4 *2853:A2_N 8.03 
*END

*D_NET *344 0.00149979
*CONN
*I *2856:A I *D sky130_fd_sc_hd__and2_1
*I *2859:B1 I *D sky130_fd_sc_hd__a2bb2o_1
*I *2854:X O *D sky130_fd_sc_hd__a21bo_1
*CAP
1 *2856:A 0.000224831
2 *2859:B1 5.81042e-06
3 *2854:X 0
4 *344:4 0.000230642
5 *2856:A *2815:A 9.80943e-06
6 *2856:A *779:12 0.000113797
7 *2856:A *779:18 4.79712e-05
8 *2840:A2 *2856:A 1.16578e-05
9 *2845:A *2856:A 8.57024e-05
10 *2845:A *2859:B1 4.99619e-05
11 *330:10 *2856:A 6.20952e-05
12 *334:6 *2856:A 0.000118081
13 *334:10 *2856:A 0.00026389
14 *334:10 *2859:B1 4.99619e-05
15 *337:14 *2856:A 0.00022558
*RES
1 *2854:X *344:4 1.6 
2 *344:4 *2859:B1 2.05 
3 *344:4 *2856:A 11.93 
*END

*D_NET *345 0.00144476
*CONN
*I *2856:B I *D sky130_fd_sc_hd__and2_1
*I *2855:X O *D sky130_fd_sc_hd__a21o_1
*CAP
1 *2856:B 0.000373453
2 *2855:X 0.000373453
3 *2856:B *2837:A 4.66108e-05
4 *2856:B *2857:A 4.21973e-05
5 *2856:B *2859:B2 7.10578e-05
6 *2856:B *642:26 0
7 *2856:B *779:18 0.000117174
8 *2856:B *780:6 8.40213e-05
9 *2856:B *780:14 1.15436e-05
10 *2856:B *780:37 1.08758e-05
11 *2856:B *780:39 5.93953e-05
12 *2839:A1 *2856:B 4.82863e-05
13 *2840:B1_N *2856:B 4.21973e-05
14 *2854:A1 *2856:B 5.07004e-05
15 *337:14 *2856:B 0.00011379
*RES
1 *2855:X *2856:B 14.985 
*END

*D_NET *346 0.00169075
*CONN
*I *2857:A I *D sky130_fd_sc_hd__clkbuf_1
*I *2856:X O *D sky130_fd_sc_hd__and2_1
*CAP
1 *2857:A 0.000465325
2 *2856:X 0.000465325
3 *2857:A *3128:SET_B 0.000352161
4 *2857:A *602:32 0.000124105
5 *2857:A *642:30 0.000143137
6 *2857:A *780:6 4.99619e-05
7 *2856:B *2857:A 4.21973e-05
8 *3135:D *2857:A 4.85359e-05
*RES
1 *2856:X *2857:A 13.1 
*END

*D_NET *347 0.000800305
*CONN
*I *2859:A2_N I *D sky130_fd_sc_hd__a2bb2o_1
*I *2858:X O *D sky130_fd_sc_hd__or2_1
*CAP
1 *2859:A2_N 0.000178597
2 *2858:X 0.000178597
3 *2859:A2_N *642:26 7.4027e-05
4 *2845:A *2859:A2_N 0.00026619
5 *2854:A1 *2859:A2_N 4.05358e-05
6 *312:10 *2859:A2_N 5.06989e-05
7 *337:14 *2859:A2_N 1.16578e-05
*RES
1 *2858:X *2859:A2_N 11.565 
*END

*D_NET *348 0.040962
*CONN
*I *2645:A2 I *D sky130_fd_sc_hd__a21oi_1
*I *3115:A1 I *D sky130_fd_sc_hd__mux2_1
*I *2995:A I *D sky130_fd_sc_hd__clkbuf_4
*I *2979:A I *D sky130_fd_sc_hd__buf_2
*I *3099:A1 I *D sky130_fd_sc_hd__mux2_1
*I *3104:A1 I *D sky130_fd_sc_hd__mux2_1
*I *2885:A I *D sky130_fd_sc_hd__clkbuf_4
*I *2862:A I *D sky130_fd_sc_hd__clkbuf_4
*I *2590:A1 I *D sky130_fd_sc_hd__mux2_1
*I *2569:A1 I *D sky130_fd_sc_hd__mux2_1
*I *2861:X O *D sky130_fd_sc_hd__clkbuf_4
*CAP
1 *2645:A2 0.000307378
2 *3115:A1 0.000183814
3 *2995:A 0.000954204
4 *2979:A 0.00135466
5 *3099:A1 0
6 *3104:A1 0
7 *2885:A 0.000732304
8 *2862:A 0
9 *2590:A1 0
10 *2569:A1 0.000165276
11 *2861:X 0
12 *348:145 0.00158822
13 *348:130 0.000233559
14 *348:128 0.00195394
15 *348:101 0.00243055
16 *348:91 0.0023613
17 *348:44 0.0015038
18 *348:28 0.00283696
19 *348:6 0.00372603
20 *348:4 0.001056
21 *2569:A1 *2564:A0 7.4027e-05
22 *2569:A1 *2589:B 6.84148e-05
23 *2569:A1 *2590:A0 4.66108e-05
24 *2569:A1 *2590:S 9.92613e-05
25 *2569:A1 *3311:A 1.34594e-05
26 *2569:A1 *528:43 4.43777e-05
27 *2645:A2 *2643:A 0
28 *2645:A2 *2643:B 0
29 *2645:A2 *2646:A1 0
30 *2645:A2 *3280:CLK 0
31 *2645:A2 *605:53 0.000379584
32 *2885:A *2980:A 0.000163204
33 *2885:A *2980:B 0.000199607
34 *2885:A *2991:A0 0.000197364
35 *2885:A *2992:A 0.000162311
36 *2885:A *3066:A 0.000162843
37 *2885:A *3082:A0 2.76356e-05
38 *2885:A *3428:A 8.52845e-05
39 *2885:A *366:6 0.000345347
40 *2885:A *366:104 0.000322947
41 *2885:A *366:113 0.000180239
42 *2885:A *372:16 0.00127145
43 *2979:A *2539:A1 2.67022e-05
44 *2979:A *2540:A 0
45 *2979:A *3099:S 2.0187e-05
46 *2979:A *3406:A 4.70343e-05
47 *2979:A *3432:A 0.000239813
48 *2979:A *355:127 4.77769e-05
49 *2979:A *355:188 0.000482423
50 *2979:A *500:10 0
51 *2979:A *511:126 4.25379e-05
52 *2979:A *598:33 0.000576859
53 *2979:A *598:44 1.60203e-05
54 *2995:A *2760:A 5.70924e-05
55 *2995:A *3009:A0 0.000234685
56 *2995:A *3009:A1 0.00029032
57 *2995:A *3103:A 0.000289457
58 *2995:A *3104:S 9.23252e-05
59 *2995:A *3113:A 0.000278111
60 *2995:A *3220:CLK 4.82863e-05
61 *2995:A *835:10 1.82476e-05
62 *3115:A1 *3002:A 7.66811e-05
63 *348:6 *2869:A 0.000113282
64 *348:6 *3269:D 0.000195482
65 *348:6 *3301:A 6.1357e-05
66 *348:6 *3321:A 0.000268734
67 *348:6 *356:49 5.02121e-05
68 *348:6 *605:53 0.000120655
69 *348:28 *3301:A 5.83121e-06
70 *348:28 *349:12 0.000160729
71 *348:28 *356:49 1.5655e-05
72 *348:28 *413:10 7.17841e-05
73 *348:28 *591:86 0.000210455
74 *348:28 *631:20 8.65961e-05
75 *348:44 *2564:A1 4.66108e-05
76 *348:44 *2590:A0 8.40269e-05
77 *348:44 *2590:S 3.57349e-05
78 *348:44 *2908:B_N 2.65814e-06
79 *348:44 *3311:A 4.99873e-05
80 *348:44 *3457:A 3.67779e-05
81 *348:44 *3468:A 8.65961e-05
82 *348:44 *620:12 2.51391e-05
83 *348:44 *764:30 0.000305835
84 *348:91 *2541:A 3.96088e-05
85 *348:91 *2619:B 0.000185395
86 *348:91 *2623:A 4.21598e-05
87 *348:91 *2625:A1 9.5799e-06
88 *348:91 *2625:S 0.000113891
89 *348:91 *2627:S 0.00019735
90 *348:91 *2810:B1 0.000643787
91 *348:91 *2960:B 0.000210273
92 *348:91 *3002:A 4.24562e-05
93 *348:91 *3370:A 5.97306e-05
94 *348:91 *3387:A 1.01661e-05
95 *348:91 *355:82 5.44698e-05
96 *348:91 *409:115 0.000736156
97 *348:91 *473:18 0.000566206
98 *348:91 *631:20 7.37769e-05
99 *348:91 *731:42 0.000444086
100 *348:91 *780:90 0.000403277
101 *348:91 *829:6 5.83121e-06
102 *348:91 *884:10 1.01661e-05
103 *348:101 *3435:A 0.000143266
104 *348:101 *428:57 8.08153e-06
105 *348:128 *2760:A 5.10979e-05
106 *348:128 *2966:S 7.62605e-05
107 *348:128 *3103:A 0.000118521
108 *348:128 *3104:S 1.64067e-05
109 *348:128 *420:10 0.000126235
110 *348:128 *428:57 4.55992e-05
111 *348:128 *753:29 0
112 *348:145 *3013:A 0.000142329
113 *348:145 *3098:A 8.35157e-05
114 *348:145 *3098:B 4.77757e-05
115 *348:145 *3099:S 0.00017721
116 *348:145 *355:127 0.000333465
117 *348:145 *355:145 0.000213145
118 *348:145 *505:6 0.000178321
119 *2687:A_N *348:28 0.000160115
120 *2705:B *348:128 0
121 *2705:C *348:128 8.89751e-05
122 *2705:D *348:128 9.42224e-05
123 *2708:A_N *348:44 0
124 *2708:B_N *348:28 0.000122325
125 *2720:B *2569:A1 0
126 *2744:B1 *348:91 0.000180699
127 *2744:C1 *348:91 0.000307236
128 *2750:A *348:28 2.31466e-05
129 *2762:B1 *348:128 0.000264929
130 *2762:C1 *348:128 3.03406e-05
131 *2770:A *348:128 4.7043e-05
132 *2780:B *348:91 0.0001361
133 *2781:B *348:91 8.7996e-05
134 *2783:B *348:91 7.1624e-05
135 *3173:D *348:101 1.43717e-05
136 *3177:D *348:91 5.20193e-05
137 *3220:D *2995:A 1.43717e-05
138 *3224:D *3115:A1 0.000100536
139 *3225:D *348:101 0.000401021
140 *3228:D *2979:A 0
141 *3459:A *348:28 4.01778e-05
142 *3470:A *348:44 0.000390557
143 *171:41 *348:28 1.60203e-05
144 *178:25 *348:28 6.29663e-05
145 *179:96 *348:28 0.000346433
146 *180:72 *348:28 0.000456024
147 *180:79 *348:28 6.86357e-05
148 *181:35 *348:101 6.52906e-05
149 *181:35 *348:128 0.000231173
150 *181:69 *348:145 0.000181466
151 *183:110 *3115:A1 0
152 *183:143 *348:145 3.3276e-05
153 *187:16 *2569:A1 0.000152351
154 *187:124 *348:91 0.00032065
155 *207:80 *348:44 3.86607e-05
156 *208:18 *348:28 0.000559395
157 *208:18 *348:44 4.15739e-05
*RES
1 *2861:X *348:4 1.6 
2 *348:4 *348:6 12.525 
3 *348:6 *348:28 28.465 
4 *348:28 *348:44 22.81 
5 *348:44 *2569:A1 10.325 
6 *348:44 *2590:A1 1.6 
7 *348:28 *2862:A 1.6 
8 *348:6 *348:91 46.315 
9 *348:91 *348:101 14.12 
10 *348:101 *2885:A 26.025 
11 *348:101 *348:128 20.265 
12 *348:128 *348:130 2 
13 *348:130 *3104:A1 1.6 
14 *348:130 *348:145 8.97 
15 *348:145 *3099:A1 1.6 
16 *348:145 *2979:A 26.66 
17 *348:128 *2995:A 21.945 
18 *348:91 *3115:A1 9.53 
19 *348:4 *2645:A2 11.045 
*END

*D_NET *349 0.025066
*CONN
*I *2969:A0 I *D sky130_fd_sc_hd__mux2_1
*I *2974:A0 I *D sky130_fd_sc_hd__mux2_1
*I *2875:A0 I *D sky130_fd_sc_hd__mux2_1
*I *2909:A0 I *D sky130_fd_sc_hd__mux2_1
*I *2956:A0 I *D sky130_fd_sc_hd__mux2_1
*I *2950:A0 I *D sky130_fd_sc_hd__mux2_1
*I *2944:A0 I *D sky130_fd_sc_hd__mux2_1
*I *2867:A0 I *D sky130_fd_sc_hd__mux2_1
*I *2881:A0 I *D sky130_fd_sc_hd__mux2_1
*I *2932:A0 I *D sky130_fd_sc_hd__mux2_1
*I *2862:X O *D sky130_fd_sc_hd__clkbuf_4
*CAP
1 *2969:A0 3.55093e-05
2 *2974:A0 0.000154925
3 *2875:A0 0
4 *2909:A0 0.000136671
5 *2956:A0 0
6 *2950:A0 0.000199034
7 *2944:A0 2.39831e-05
8 *2867:A0 0
9 *2881:A0 8.58711e-05
10 *2932:A0 0.00024812
11 *2862:X 0.00083158
12 *349:160 0.000491085
13 *349:119 0.000687377
14 *349:98 0.000707176
15 *349:92 0.000953054
16 *349:77 0.00126767
17 *349:67 0.00157916
18 *349:38 0.00194062
19 *349:18 0.00162157
20 *349:12 0.00203223
21 *2881:A0 *2881:A1 4.99619e-05
22 *2881:A0 *2881:S 2.75145e-05
23 *2909:A0 *2911:S 4.19884e-05
24 *2909:A0 *3157:CLK 7.53115e-05
25 *2932:A0 *2728:A2 0.000327822
26 *2932:A0 *2932:A1 9.27326e-05
27 *2932:A0 *405:66 1.83847e-05
28 *2969:A0 *3171:CLK 8.23457e-05
29 *2974:A0 *2903:A1 0.000157602
30 *2974:A0 *366:125 0.000100156
31 *2974:A0 *378:56 0.000347891
32 *349:12 *393:12 0.000833421
33 *349:12 *393:31 0
34 *349:12 *591:16 1.79483e-05
35 *349:18 *2752:A2 0.000193011
36 *349:18 *2875:A1 0.000185494
37 *349:18 *366:20 2.30292e-05
38 *349:18 *374:45 6.17614e-05
39 *349:18 *374:51 2.67184e-05
40 *349:38 *2728:A2 6.28849e-05
41 *349:38 *2804:B2 6.03947e-06
42 *349:38 *2875:A1 4.66108e-05
43 *349:38 *2877:A1 4.35097e-05
44 *349:38 *2877:S 8.23457e-05
45 *349:38 *3424:A 0.000122797
46 *349:38 *356:79 9.45409e-05
47 *349:38 *366:39 0.00071071
48 *349:38 *366:43 0.000122337
49 *349:38 *372:40 0.000136276
50 *349:38 *405:66 0
51 *349:38 *682:22 6.05667e-05
52 *349:67 *2728:A2 4.66108e-05
53 *349:67 *366:43 0.0006508
54 *349:67 *394:16 0.000381088
55 *349:67 *905:8 0.000178677
56 *349:77 *2881:S 0.000163403
57 *349:77 *2883:A1 8.57024e-05
58 *349:77 *2911:A0 6.4422e-05
59 *349:77 *3157:CLK 5.53249e-06
60 *349:77 *3358:A 0
61 *349:77 *356:97 0.000110215
62 *349:77 *363:26 2.11921e-05
63 *349:77 *911:12 0
64 *349:92 *2884:A 0.000483422
65 *349:92 *2956:A1 4.05358e-05
66 *349:92 *3357:A 4.92206e-05
67 *349:92 *356:103 3.75882e-06
68 *349:92 *894:12 0
69 *349:98 *2956:S 4.91189e-05
70 *349:98 *356:103 0
71 *349:98 *894:12 0
72 *349:98 *926:8 0.000134938
73 *349:119 *2723:A1 7.17811e-05
74 *349:119 *2723:B2 5.06989e-05
75 *349:119 *2867:A1 0.000161003
76 *349:119 *414:10 2.96845e-05
77 *349:119 *900:10 0.000116629
78 *349:119 *926:8 0.000212034
79 *349:160 *2752:A2 0.000193905
80 *349:160 *2970:A 7.69521e-05
81 *349:160 *3171:CLK 6.35575e-05
82 *2723:A2 *349:119 3.64998e-06
83 *2723:B1 *349:119 0.000103627
84 *2726:A2 *349:38 0.00040332
85 *2732:A2 *2932:A0 0
86 *2732:A2 *349:38 0
87 *2732:A3 *2932:A0 8.93035e-05
88 *2749:A3 *2974:A0 1.56428e-05
89 *2750:A *349:12 0.000639386
90 *2752:B1 *349:18 3.0807e-05
91 *2790:A3 *349:12 2.75538e-05
92 *2791:C1 *349:12 0.000761428
93 *2802:C1 *2944:A0 4.82863e-05
94 *2802:C1 *2950:A0 0.0004262
95 *2896:A *349:18 4.24744e-05
96 *3156:D *2909:A0 0
97 *3157:D *349:67 2.90223e-05
98 *3157:D *349:77 3.89528e-05
99 *3159:D *349:67 0.000145344
100 *3255:D *349:12 7.03276e-05
101 *174:80 *2969:A0 3.64998e-06
102 *174:150 *349:160 1.47347e-05
103 *211:65 *349:119 0.000248261
104 *320:64 *349:38 0
105 *343:51 *349:38 0.000117825
106 *343:66 *349:18 0.000119762
107 *343:66 *349:38 0.000933532
108 *348:28 *349:12 0.000160729
*RES
1 *2862:X *349:12 28.355 
2 *349:12 *349:18 12.12 
3 *349:18 *349:38 27.225 
4 *349:38 *2932:A0 9.36 
5 *349:38 *349:67 21.97 
6 *349:67 *349:77 11.555 
7 *349:77 *2881:A0 3.085 
8 *349:77 *349:92 15.5 
9 *349:92 *349:98 6.575 
10 *349:98 *2867:A0 1.6 
11 *349:98 *349:119 14.83 
12 *349:119 *2944:A0 2.05 
13 *349:119 *2950:A0 5.5 
14 *349:92 *2956:A0 3.6 
15 *349:67 *2909:A0 6.51 
16 *349:18 *2875:A0 1.6 
17 *349:12 *349:160 4.53 
18 *349:160 *2974:A0 10.235 
19 *349:160 *2969:A0 2.395 
*END

*D_NET *350 0.0010257
*CONN
*I *2864:C I *D sky130_fd_sc_hd__and3_1
*I *2863:Y O *D sky130_fd_sc_hd__inv_2
*CAP
1 *2864:C 0.000228316
2 *2863:Y 0.000228316
3 *2864:C *351:10 3.47668e-05
4 *2864:C *352:24 7.98967e-05
5 *2864:C *527:16 7.31971e-05
6 *2864:C *775:70 0.00031075
7 *2864:C *778:33 0
8 *318:23 *2864:C 7.04612e-05
*RES
1 *2863:Y *2864:C 12.945 
*END

*D_NET *351 0.00237539
*CONN
*I *2865:B I *D sky130_fd_sc_hd__nand3b_2
*I *2879:C_N I *D sky130_fd_sc_hd__or3b_2
*I *2873:B_N I *D sky130_fd_sc_hd__or2b_2
*I *2864:X O *D sky130_fd_sc_hd__and3_1
*CAP
1 *2865:B 1.20605e-05
2 *2879:C_N 0.000223989
3 *2873:B_N 5.84777e-05
4 *2864:X 6.9671e-05
5 *351:12 0.000347572
6 *351:10 0.000146838
7 *2865:B *2887:B_N 3.57349e-05
8 *2873:B_N *2578:A 0.000121437
9 *2879:C_N *2578:A 0
10 *351:10 *2578:A 1.52184e-05
11 *351:10 *2887:B_N 7.23602e-05
12 *351:10 *352:24 5.16348e-05
13 *351:10 *778:33 8.53113e-06
14 *351:12 *2578:A 0.000146408
15 *351:12 *2887:B_N 4.82863e-05
16 *2864:C *351:10 3.47668e-05
17 *2865:A_N *2865:B 4.66108e-05
18 *2865:A_N *2879:C_N 3.26889e-05
19 *2865:A_N *351:12 0.0001947
20 *215:16 *2879:C_N 9.58678e-06
21 *317:49 *2879:C_N 0.00026151
22 *317:62 *2879:C_N 0.000196447
23 *318:36 *2879:C_N 6.58059e-05
24 *318:36 *351:10 1.52776e-05
25 *318:58 *2879:C_N 4.59849e-05
26 *329:20 *2879:C_N 0.000104287
27 *329:26 *2879:C_N 9.50342e-06
*RES
1 *2864:X *351:10 7.235 
2 *351:10 *351:12 2.175 
3 *351:12 *2873:B_N 2.74 
4 *351:12 *2879:C_N 11.675 
5 *351:10 *2865:B 2.05 
*END

*D_NET *352 0.0255968
*CONN
*I *2968:A I *D sky130_fd_sc_hd__or2_1
*I *3056:A I *D sky130_fd_sc_hd__or2_1
*I *2866:B I *D sky130_fd_sc_hd__or2_1
*I *2553:A I *D sky130_fd_sc_hd__or2_1
*I *2865:Y O *D sky130_fd_sc_hd__nand3b_2
*CAP
1 *2968:A 0.000428138
2 *3056:A 0.000217644
3 *2866:B 0.00107023
4 *2553:A 0.00060655
5 *2865:Y 0
6 *352:100 0.00150212
7 *352:94 0.00233487
8 *352:24 0.00341788
9 *352:4 0.00321963
10 *2553:A *2550:A 0.000140912
11 *2553:A *2558:A 1.85731e-05
12 *2553:A *2564:A0 3.76596e-05
13 *2553:A *2797:B2 0.000159697
14 *2553:A *2799:A1 6.44287e-05
15 *2553:A *3426:A 0.000144166
16 *2553:A *3440:A 0.000178765
17 *2553:A *500:115 2.54692e-05
18 *2553:A *511:55 3.66494e-05
19 *2553:A *527:40 4.77719e-05
20 *2553:A *527:50 0.000122801
21 *2553:A *535:10 1.16855e-05
22 *2553:A *599:78 3.50152e-06
23 *2866:B *2564:A0 0.000147709
24 *2866:B *2567:A 8.02938e-06
25 *2866:B *2589:B 0.000333447
26 *2866:B *2590:A0 9.044e-05
27 *2866:B *2590:S 3.36967e-05
28 *2866:B *2591:A 0.000283129
29 *2866:B *353:22 0.000485516
30 *2866:B *369:30 0.000316423
31 *2866:B *500:115 9.64314e-05
32 *2866:B *528:43 0.000379661
33 *2866:B *601:12 6.1357e-05
34 *2866:B *764:30 0.00015806
35 *2968:A *2968:B 1.05476e-05
36 *2968:A *2986:A1 7.40012e-05
37 *2968:A *2987:A 9.177e-05
38 *2968:A *3176:CLK 1.56428e-05
39 *2968:A *596:16 0
40 *2968:A *596:33 9.59984e-05
41 *3056:A *2989:A 4.66108e-05
42 *3056:A *409:115 0.000349111
43 *3056:A *473:33 1.08758e-05
44 *3056:A *596:33 0.000416033
45 *3056:A *731:42 0.000349111
46 *352:24 *2578:A 3.60648e-05
47 *352:24 *2714:B2 6.03947e-06
48 *352:24 *2887:B_N 0.00015639
49 *352:24 *3426:A 1.41165e-05
50 *352:24 *374:8 0.000312481
51 *352:24 *854:16 0.000225918
52 *352:94 *2546:C_N 1.47347e-05
53 *352:94 *2711:B 7.56277e-05
54 *352:94 *2887:B_N 0.000313857
55 *352:94 *3266:CLK 3.07153e-05
56 *352:94 *3266:RESET_B 4.8024e-05
57 *352:94 *3267:D 0
58 *352:94 *3268:RESET_B 4.91927e-05
59 *352:94 *527:16 4.18603e-06
60 *352:94 *527:110 0.000213703
61 *352:94 *642:20 5.33005e-05
62 *352:94 *642:26 3.09164e-05
63 *352:94 *720:18 0.000122331
64 *352:94 *803:56 0
65 *352:94 *804:10 9.28066e-06
66 *352:94 *806:24 7.674e-05
67 *352:100 *2628:A 0.000301944
68 *352:100 *2738:B2 0.000638505
69 *352:100 *2960:C 3.4087e-05
70 *352:100 *3308:A 0.000145901
71 *352:100 *591:86 2.05661e-05
72 *352:100 *631:20 0
73 *352:100 *684:29 6.26202e-05
74 *2612:A0 *352:24 0.000285272
75 *2714:C1 *352:24 2.75145e-05
76 *2721:A1 *352:24 8.57024e-05
77 *2749:B1 *2968:A 9.23116e-05
78 *2749:B1 *352:100 0.000268278
79 *2753:A *2968:A 6.36861e-06
80 *2753:A *3056:A 0.000417714
81 *2811:B1 *352:100 5.96861e-05
82 *2864:C *352:24 7.98967e-05
83 *2866:A *2866:B 4.77719e-05
84 *2895:B *352:24 2.31547e-05
85 *171:10 *352:94 0.000120655
86 *207:42 *352:24 2.30292e-05
87 *211:32 *352:24 6.38385e-05
88 *211:38 *352:24 2.86265e-06
89 *211:65 *352:24 0.000131389
90 *211:122 *352:100 0.000501463
91 *211:170 *3056:A 8.73389e-06
92 *218:20 *352:94 0.000147788
93 *218:152 *2968:A 8.44749e-05
94 *218:152 *352:94 8.35683e-05
95 *218:152 *352:100 0.00127229
96 *316:43 *352:100 0.000365356
97 *316:60 *352:100 9.14729e-05
98 *320:64 *2866:B 3.28162e-05
99 *322:56 *352:24 8.43862e-05
100 *322:62 *352:24 0.000471762
101 *343:51 *2866:B 2.5587e-05
102 *351:10 *352:24 5.16348e-05
*RES
1 *2865:Y *352:4 1.6 
2 *352:4 *352:24 32.565 
3 *352:24 *2553:A 14.91 
4 *352:24 *2866:B 34.51 
5 *352:4 *352:94 30.525 
6 *352:94 *352:100 28.455 
7 *352:100 *3056:A 16.135 
8 *352:100 *2968:A 13.75 
*END

*D_NET *353 0.00760729
*CONN
*I *2867:S I *D sky130_fd_sc_hd__mux2_1
*I *2871:S I *D sky130_fd_sc_hd__mux2_1
*I *2866:X O *D sky130_fd_sc_hd__or2_1
*CAP
1 *2867:S 0
2 *2871:S 0.000405677
3 *2866:X 0.0020864
4 *353:22 0.00249207
5 *2871:S *2801:B2 2.50992e-05
6 *2871:S *2871:A1 2.16833e-05
7 *2871:S *2945:A 3.50152e-06
8 *2871:S *2958:S 0
9 *2871:S *925:12 0.000311288
10 *353:22 *2567:A 7.9642e-06
11 *353:22 *2590:A0 5.81079e-05
12 *353:22 *2958:S 0
13 *353:22 *3248:CLK 8.65961e-05
14 *353:22 *3296:A 0.000645754
15 *353:22 *356:103 0
16 *353:22 *369:30 2.63295e-05
17 *353:22 *600:8 0.000378513
18 *353:22 *764:30 0.000120536
19 *353:22 *932:8 0.000230435
20 *2866:B *353:22 0.000485516
21 *3162:D *2871:S 4.77757e-05
22 *3248:D *353:22 6.08172e-05
23 *320:64 *353:22 0.000113222
*RES
1 *2866:X *353:22 43.045 
2 *353:22 *2871:S 10.275 
3 *353:22 *2867:S 3.6 
*END

*D_NET *354 0.00110009
*CONN
*I *2868:A I *D sky130_fd_sc_hd__clkbuf_1
*I *2867:X O *D sky130_fd_sc_hd__mux2_1
*CAP
1 *2868:A 0.000429123
2 *2867:X 0.000429123
3 *2868:A *2871:A0 0.000203178
4 *2868:A *356:103 3.4222e-05
5 *2868:A *356:107 4.43871e-06
*RES
1 *2867:X *2868:A 13.14 
*END

*D_NET *355 0.0366544
*CONN
*I *2870:A I *D sky130_fd_sc_hd__clkbuf_4
*I *3117:A1 I *D sky130_fd_sc_hd__mux2_1
*I *2976:A I *D sky130_fd_sc_hd__clkbuf_4
*I *3090:A I *D sky130_fd_sc_hd__clkbuf_4
*I *3101:A1 I *D sky130_fd_sc_hd__mux2_1
*I *3106:A1 I *D sky130_fd_sc_hd__mux2_1
*I *2999:A I *D sky130_fd_sc_hd__clkbuf_4
*I *2892:A I *D sky130_fd_sc_hd__clkbuf_4
*I *2592:A1 I *D sky130_fd_sc_hd__mux2_1
*I *2571:A1 I *D sky130_fd_sc_hd__mux2_1
*I *2869:X O *D sky130_fd_sc_hd__clkbuf_4
*CAP
1 *2870:A 0
2 *3117:A1 9.34434e-05
3 *2976:A 0.000691197
4 *3090:A 0
5 *3101:A1 0
6 *3106:A1 0
7 *2999:A 0.00115898
8 *2892:A 0.000196073
9 *2592:A1 0.000167322
10 *2571:A1 0.000605407
11 *2869:X 0.000181674
12 *355:188 0.0010322
13 *355:145 0.00160723
14 *355:127 0.000549842
15 *355:125 0.00105347
16 *355:98 0.00141534
17 *355:82 0.00218659
18 *355:40 0.00337691
19 *355:22 0.00466363
20 *355:12 0.000756381
21 *2571:A1 *2572:A 0.000305518
22 *2571:A1 *405:35 0.000161985
23 *2571:A1 *500:93 0
24 *2571:A1 *500:115 0
25 *2571:A1 *601:70 1.1477e-05
26 *2571:A1 *742:10 0.000432274
27 *2592:A1 *2592:A0 0.000197826
28 *2592:A1 *2592:S 2.68526e-05
29 *2592:A1 *601:70 0.000171753
30 *2592:A1 *742:10 0.000188957
31 *2892:A *3116:A 5.11358e-05
32 *2976:A *500:10 2.88357e-05
33 *2999:A *2690:A1 1.21329e-05
34 *2999:A *3106:A0 2.69153e-05
35 *2999:A *3107:A 0.000309804
36 *2999:A *3222:CLK 4.90291e-05
37 *2999:A *419:39 0.000110494
38 *2999:A *419:45 0.000751423
39 *2999:A *419:75 5.00903e-05
40 *2999:A *449:12 0.000128008
41 *3117:A1 *3117:A0 4.82919e-05
42 *3117:A1 *3373:A 3.24882e-05
43 *355:22 *3270:D 0.00015639
44 *355:22 *3362:A 4.10476e-05
45 *355:22 *604:72 5.736e-05
46 *355:22 *720:49 0.000526098
47 *355:22 *779:59 5.42473e-05
48 *355:22 *779:74 0.000123245
49 *355:40 *2619:B 0.000119246
50 *355:40 *2624:B 1.7635e-05
51 *355:40 *2628:A 1.88656e-05
52 *355:40 *389:22 0
53 *355:40 *409:34 0.000214835
54 *355:40 *413:26 0.000133592
55 *355:40 *591:80 0.00192069
56 *355:40 *604:60 0.000263971
57 *355:40 *604:72 4.79712e-05
58 *355:82 *2619:A 4.66108e-05
59 *355:82 *2623:A 0.00026955
60 *355:82 *2810:B1 8.58326e-05
61 *355:82 *2960:A_N 0.000105002
62 *355:82 *2989:A 7.23533e-05
63 *355:82 *3087:B 7.23602e-05
64 *355:82 *409:115 0.000861799
65 *355:82 *572:8 4.77769e-05
66 *355:82 *596:33 0.000181376
67 *355:82 *604:72 0.000569434
68 *355:82 *720:49 0.000465888
69 *355:82 *731:42 0
70 *355:82 *779:74 7.77179e-05
71 *355:98 *3114:A 3.99395e-05
72 *355:98 *3118:A 0.000246368
73 *355:98 *3373:A 0.000154981
74 *355:98 *591:162 0.000132741
75 *355:125 *2696:A1 0.000587578
76 *355:125 *2761:A 9.07054e-05
77 *355:125 *3114:A 9.50342e-06
78 *355:125 *591:162 0.000247522
79 *355:127 *3099:A0 8.52972e-05
80 *355:127 *3101:A0 0.000197826
81 *355:145 *2698:A 6.72115e-06
82 *355:145 *3098:B 1.14169e-05
83 *355:145 *3101:A0 4.77769e-05
84 *355:145 *3102:A 0.000123961
85 *355:145 *3103:B 0.000101468
86 *355:145 *3106:A0 2.14484e-05
87 *355:145 *3219:CLK 3.0584e-05
88 *355:145 *508:14 0.00024101
89 *355:188 *2538:A 9.32375e-05
90 *355:188 *3099:A0 0.000196077
91 *355:188 *500:10 0.000349697
92 *2632:A0 *355:12 6.55406e-05
93 *2696:B1 *355:125 0.000227157
94 *2755:B1 *355:40 0
95 *2755:B1 *355:82 7.96104e-06
96 *2780:A *355:82 0.000357739
97 *2780:D *355:82 0.000433726
98 *2783:C *355:82 0.000453651
99 *2979:A *355:127 4.77769e-05
100 *2979:A *355:188 0.000482423
101 *3177:D *355:82 0.000332179
102 *3222:D *2999:A 4.82319e-06
103 *3224:D *2892:A 1.08758e-05
104 *3224:D *355:98 5.2325e-05
105 *3241:D *2571:A1 0.000132659
106 *176:101 *355:98 6.0466e-05
107 *176:101 *355:125 0.000442776
108 *176:111 *355:125 1.03755e-05
109 *177:16 *355:125 0.00028118
110 *183:110 *355:125 0.000176753
111 *183:123 *355:125 0
112 *208:24 *355:40 5.61482e-05
113 *327:64 *355:82 1.90907e-05
114 *343:32 *2571:A1 0
115 *348:91 *355:82 5.44698e-05
116 *348:145 *355:127 0.000333465
117 *348:145 *355:145 0.000213145
*RES
1 *2869:X *355:12 8.465 
2 *355:12 *355:22 13.625 
3 *355:22 *355:40 14.6464 
4 *355:40 *2571:A1 15.5625 
5 *355:40 *2592:A1 8.3925 
6 *355:22 *355:82 44.73 
7 *355:82 *355:98 12.095 
8 *355:98 *2892:A 6.48 
9 *355:98 *355:125 20.345 
10 *355:125 *355:127 3.555 
11 *355:127 *355:145 12.37 
12 *355:145 *2999:A 26.945 
13 *355:145 *3106:A1 1.6 
14 *355:127 *3101:A1 1.6 
15 *355:125 *355:188 9.285 
16 *355:188 *3090:A 1.6 
17 *355:188 *2976:A 16.535 
18 *355:82 *3117:A1 2.74 
19 *355:12 *2870:A 1.6 
*END

*D_NET *356 0.0290909
*CONN
*I *2971:A0 I *D sky130_fd_sc_hd__mux2_1
*I *2877:A0 I *D sky130_fd_sc_hd__mux2_1
*I *2934:A0 I *D sky130_fd_sc_hd__mux2_1
*I *2911:A0 I *D sky130_fd_sc_hd__mux2_1
*I *2883:A0 I *D sky130_fd_sc_hd__mux2_1
*I *2871:A0 I *D sky130_fd_sc_hd__mux2_1
*I *2952:A0 I *D sky130_fd_sc_hd__mux2_1
*I *2946:A0 I *D sky130_fd_sc_hd__mux2_1
*I *2958:A0 I *D sky130_fd_sc_hd__mux2_1
*I *2631:A I *D sky130_fd_sc_hd__xnor2_1
*I *2870:X O *D sky130_fd_sc_hd__clkbuf_4
*CAP
1 *2971:A0 0
2 *2877:A0 0
3 *2934:A0 0
4 *2911:A0 0.000279758
5 *2883:A0 0
6 *2871:A0 9.23191e-05
7 *2952:A0 0.000214875
8 *2946:A0 0
9 *2958:A0 3.33269e-05
10 *2631:A 0.000355406
11 *2870:X 0
12 *356:118 0.000672156
13 *356:107 0.000687169
14 *356:103 0.00116351
15 *356:97 0.00102996
16 *356:95 0.0013881
17 *356:79 0.00161549
18 *356:67 0.00252587
19 *356:49 0.00437373
20 *356:6 0.00286574
21 *2631:A *3270:D 2.7881e-05
22 *2631:A *3274:CLK 4.41506e-05
23 *2631:A *511:12 4.76581e-05
24 *2631:A *551:16 0
25 *2631:A *609:12 0.000270653
26 *2871:A0 *2801:B2 0
27 *2871:A0 *2871:A1 0.000164874
28 *2871:A0 *925:12 4.35348e-05
29 *2911:A0 *2911:S 9.66106e-05
30 *2911:A0 *911:12 0
31 *2952:A0 *406:8 0.000118207
32 *2958:A0 *893:8 1.33293e-05
33 *356:49 *2598:A 0.000176629
34 *356:49 *2600:A1 0.00024783
35 *356:49 *2738:A1 0.000107129
36 *356:49 *2971:A1 1.4389e-05
37 *356:49 *2987:A 0
38 *356:49 *3270:D 3.86529e-05
39 *356:49 *3301:A 6.1357e-05
40 *356:49 *3307:A 0
41 *356:49 *3321:A 4.94287e-05
42 *356:49 *3423:A 0.000216184
43 *356:49 *389:12 0.000320056
44 *356:49 *591:86 0.000160803
45 *356:49 *604:35 0.000118081
46 *356:49 *605:8 7.35813e-05
47 *356:49 *609:12 6.28498e-05
48 *356:49 *919:14 0
49 *356:67 *2931:B 0.00120846
50 *356:67 *2972:A 1.16646e-05
51 *356:67 *500:91 6.0837e-05
52 *356:67 *607:70 3.91191e-05
53 *356:67 *607:84 4.66108e-05
54 *356:67 *682:12 0.000407823
55 *356:67 *682:22 0.000672305
56 *356:79 *2878:A 2.20732e-05
57 *356:79 *2934:A1 0.000163204
58 *356:79 *2934:S 1.33285e-05
59 *356:79 *607:84 8.23457e-05
60 *356:79 *682:22 0.000785442
61 *356:95 *2805:A1 0.000122325
62 *356:95 *2805:B2 0.00097469
63 *356:95 *2934:S 8.49205e-05
64 *356:95 *2935:A 0.000349895
65 *356:95 *398:6 0.000174081
66 *356:95 *911:12 8.65961e-05
67 *356:97 *2883:A1 7.23602e-05
68 *356:97 *3357:A 3.35338e-05
69 *356:103 *2884:A 0
70 *356:103 *2894:A 0
71 *356:103 *2956:A1 3.86607e-05
72 *356:103 *2956:S 0.00011852
73 *356:103 *2958:S 0.000183043
74 *356:103 *3161:CLK 0
75 *356:103 *3357:A 5.4256e-05
76 *356:107 *2958:S 0.000360611
77 *356:107 *925:12 0
78 *356:118 *2801:A1 4.98756e-05
79 *356:118 *2958:A1 0.000162311
80 *356:118 *893:8 8.71042e-05
81 *2631:B *2631:A 5.41152e-05
82 *2632:A0 *2631:A 0
83 *2683:D *356:49 0.0003723
84 *2732:A1 *356:79 1.47601e-05
85 *2732:A2 *356:79 0.000194342
86 *2732:A3 *356:79 1.12578e-05
87 *2732:B1 *356:79 4.82863e-05
88 *2754:A *356:79 0.000110198
89 *2790:B1 *356:49 4.18893e-05
90 *2804:C1 *356:79 0.000134361
91 *2811:A1 *356:67 8.0605e-05
92 *2868:A *2871:A0 0.000203178
93 *2868:A *356:103 3.4222e-05
94 *2868:A *356:107 4.43871e-06
95 *2925:A *356:95 8.30319e-05
96 *2931:A *356:95 0.000157282
97 *3141:D *356:79 4.51981e-05
98 *3144:D *356:103 3.97568e-05
99 *3145:D *356:103 7.1624e-05
100 *3251:D *356:49 0
101 *3274:D *2631:A 3.98475e-05
102 *3287:A *356:67 4.00045e-05
103 *3459:A *356:49 0.000163787
104 *3469:A *356:49 0
105 *171:33 *356:49 7.21296e-06
106 *171:79 *356:49 7.80615e-05
107 *178:16 *356:49 0.000120655
108 *181:20 *356:49 8.5225e-05
109 *181:35 *356:49 0.000169242
110 *197:16 *356:49 4.43871e-06
111 *202:53 *356:79 0
112 *207:80 *356:67 8.22649e-05
113 *231:52 *356:79 2.32315e-05
114 *348:6 *356:49 5.02121e-05
115 *348:28 *356:49 1.5655e-05
116 *349:38 *356:79 9.45409e-05
117 *349:77 *2911:A0 6.4422e-05
118 *349:77 *356:97 0.000110215
119 *349:92 *356:103 3.75882e-06
120 *349:98 *356:103 0
121 *353:22 *356:103 0
*RES
1 *2870:X *356:6 3.6 
2 *356:6 *2631:A 10.8375 
3 *356:6 *356:49 49.945 
4 *356:49 *356:67 21.7341 
5 *356:67 *356:79 19.405 
6 *356:79 *356:95 21.17 
7 *356:95 *356:97 3.675 
8 *356:97 *356:103 16.47 
9 *356:103 *356:107 6.185 
10 *356:107 *2958:A0 2.05 
11 *356:107 *356:118 7.365 
12 *356:118 *2946:A0 1.6 
13 *356:118 *2952:A0 5.155 
14 *356:103 *2871:A0 6.48 
15 *356:97 *2883:A0 3.6 
16 *356:95 *2911:A0 8.37 
17 *356:79 *2934:A0 1.6 
18 *356:67 *2877:A0 1.6 
19 *356:49 *2971:A0 1.6 
*END

*D_NET *357 0.000995686
*CONN
*I *2872:A I *D sky130_fd_sc_hd__clkbuf_1
*I *2871:X O *D sky130_fd_sc_hd__mux2_1
*CAP
1 *2872:A 0.000400968
2 *2871:X 0.000400968
3 *2872:A *3162:CLK 0.000143198
4 *2872:A *600:83 0
5 *2872:A *600:96 5.05521e-05
6 *2872:A *925:12 0
*RES
1 *2871:X *2872:A 12.84 
*END

*D_NET *358 0.0187681
*CONN
*I *2973:A I *D sky130_fd_sc_hd__or2_1
*I *3061:A I *D sky130_fd_sc_hd__or2_1
*I *2874:B I *D sky130_fd_sc_hd__or2_1
*I *2558:A I *D sky130_fd_sc_hd__or2_1
*I *2873:X O *D sky130_fd_sc_hd__or2b_2
*CAP
1 *2973:A 0.000930658
2 *3061:A 0.000179766
3 *2874:B 0
4 *2558:A 0.000537653
5 *2873:X 0.000883438
6 *358:48 0.00141731
7 *358:37 0.00161262
8 *358:16 0.00272682
9 *2558:A *527:40 1.53881e-05
10 *2558:A *527:50 3.51072e-05
11 *2558:A *532:14 0.000156758
12 *2558:A *599:78 3.22557e-05
13 *2973:A *2985:A 0
14 *2973:A *366:10 4.04823e-05
15 *2973:A *417:73 3.82018e-05
16 *2973:A *591:132 0.000366315
17 *358:16 *2579:A1 9.03066e-05
18 *358:16 *511:14 0.000263831
19 *358:16 *778:33 3.45159e-05
20 *358:16 *935:10 2.74281e-05
21 *358:37 *2566:A1 7.23602e-05
22 *358:37 *2582:A 4.95463e-05
23 *358:37 *2795:A1 7.69408e-05
24 *358:37 *362:35 0
25 *358:37 *413:26 0
26 *358:37 *544:12 6.7922e-05
27 *2553:A *2558:A 1.85731e-05
28 *2581:A0 *358:37 8.77575e-05
29 *2733:A2 *3061:A 0.000455109
30 *2740:A2 *2973:A 1.29248e-05
31 *3140:D *358:48 9.21068e-05
32 *3245:D *2558:A 6.2027e-05
33 *3245:D *358:37 0
34 *197:42 *358:37 0.000443526
35 *197:84 *2973:A 0.000656171
36 *202:22 *358:37 0.00121452
37 *202:22 *358:48 0.000886546
38 *202:83 *358:48 8.07213e-05
39 *207:117 *2973:A 0.00014411
40 *207:117 *3061:A 0.000609326
41 *208:18 *358:37 0.00019251
42 *208:73 *358:37 0.000138317
43 *208:104 *358:37 0.001212
44 *208:104 *358:48 0.000923894
45 *215:24 *358:37 0.000522415
46 *215:54 *358:37 0.000660912
47 *215:119 *3061:A 7.26398e-05
48 *318:36 *358:16 0.000183166
49 *327:99 *358:37 0.000112732
50 *329:26 *358:16 0.000330449
*RES
1 *2873:X *358:16 21.14 
2 *358:16 *2558:A 9.34 
3 *358:16 *358:37 40.4 
4 *358:37 *2874:B 3.6 
5 *358:37 *358:48 14.345 
6 *358:48 *3061:A 7.915 
7 *358:48 *2973:A 11.0791 
*END

*D_NET *359 0.00163051
*CONN
*I *2875:S I *D sky130_fd_sc_hd__mux2_1
*I *2877:S I *D sky130_fd_sc_hd__mux2_1
*I *2874:X O *D sky130_fd_sc_hd__or2_1
*CAP
1 *2875:S 0
2 *2877:S 0.000278857
3 *2874:X 0.000104483
4 *359:10 0.00038334
5 *2877:S *2877:A1 2.28845e-05
6 *2877:S *3140:CLK 6.2551e-05
7 *2877:S *3424:A 0.000116853
8 *2877:S *682:22 9.85616e-06
9 *2877:S *742:10 0.000116853
10 *359:10 *742:10 0.000284882
11 *2908:A *359:10 0.000162243
12 *3140:D *2877:S 5.36069e-06
13 *349:38 *2877:S 8.23457e-05
*RES
1 *2874:X *359:10 9.02 
2 *359:10 *2877:S 10.775 
3 *359:10 *2875:S 1.6 
*END

*D_NET *360 0.000594053
*CONN
*I *2876:A I *D sky130_fd_sc_hd__clkbuf_1
*I *2875:X O *D sky130_fd_sc_hd__mux2_1
*CAP
1 *2876:A 0.000134448
2 *2875:X 0.000134448
3 *2876:A *2908:B_N 0.00013061
4 *208:104 *2876:A 0.000194547
*RES
1 *2875:X *2876:A 10.725 
*END

*D_NET *361 0.000436943
*CONN
*I *2878:A I *D sky130_fd_sc_hd__clkbuf_1
*I *2877:X O *D sky130_fd_sc_hd__mux2_1
*CAP
1 *2878:A 0.000106148
2 *2877:X 0.000106148
3 *2878:A *369:47 7.57302e-05
4 *2878:A *372:40 7.7397e-05
5 *3141:D *2878:A 4.94457e-05
6 *356:79 *2878:A 2.20732e-05
*RES
1 *2877:X *2878:A 9.21 
*END

*D_NET *362 0.0190944
*CONN
*I *3066:A I *D sky130_fd_sc_hd__or2_1
*I *2980:A I *D sky130_fd_sc_hd__or2_1
*I *2880:B I *D sky130_fd_sc_hd__or2_1
*I *2563:A I *D sky130_fd_sc_hd__or2_1
*I *2879:X O *D sky130_fd_sc_hd__or3b_2
*CAP
1 *3066:A 0.00121452
2 *2980:A 2.30828e-05
3 *2880:B 0.000107481
4 *2563:A 0.000486902
5 *2879:X 0.000945548
6 *362:60 0.00288725
7 *362:35 0.00234008
8 *362:16 0.0020154
9 *2563:A *2563:B 2.69272e-05
10 *2563:A *2564:A1 0
11 *2563:A *3241:CLK 1.77595e-05
12 *2563:A *742:8 4.82863e-05
13 *2880:B *2919:B 0.000119873
14 *2980:A *366:113 0.000163204
15 *3066:A *2992:A 6.48274e-05
16 *3066:A *2994:A 4.11678e-06
17 *3066:A *3434:A 5.16348e-05
18 *3066:A *372:16 0.000415236
19 *3066:A *397:59 0
20 *3066:A *428:65 8.59365e-05
21 *3066:A *485:10 3.25589e-05
22 *3066:A *742:10 9.5433e-05
23 *362:16 *2713:A1 1.72991e-05
24 *362:16 *2713:B2 4.88568e-05
25 *362:16 *382:10 0.000176189
26 *362:16 *742:8 0.000197264
27 *362:35 *2566:A1 0
28 *362:35 *2572:A 9.34773e-06
29 *362:35 *2795:A1 2.18221e-05
30 *362:35 *3381:A 6.30072e-05
31 *362:35 *413:26 0.000125711
32 *362:35 *742:10 0.0012868
33 *362:60 *2736:A 0.00024426
34 *362:60 *2752:A1 0.000897632
35 *362:60 *2906:A 3.86529e-05
36 *362:60 *2919:B 0.000510415
37 *362:60 *3149:CLK 2.96334e-05
38 *362:60 *3368:A 0.000228843
39 *362:60 *397:59 9.25025e-05
40 *362:60 *428:65 9.47454e-05
41 *362:60 *601:109 0.000456803
42 *2713:A2 *362:16 0.000124743
43 *2737:B1 *362:60 0.000450625
44 *2752:C1 *362:60 0.000168751
45 *2754:B *362:60 0.000101118
46 *2787:B *362:60 4.0776e-05
47 *2792:D1 *362:60 0.000171888
48 *2800:A1 *362:16 4.82863e-05
49 *2811:A1 *362:60 0.000281568
50 *2885:A *2980:A 0.000163204
51 *2885:A *3066:A 0.000162843
52 *3148:D *362:60 5.20335e-05
53 *3178:D *3066:A 4.82863e-05
54 *3241:D *2563:A 7.7768e-05
55 *185:12 *362:16 5.21706e-05
56 *185:14 *362:16 8.66532e-05
57 *185:28 *2563:A 5.87437e-05
58 *185:28 *362:16 8.80099e-05
59 *202:22 *362:35 0.000201539
60 *202:83 *3066:A 5.02217e-05
61 *207:28 *362:16 0.000128099
62 *207:42 *362:16 0.00023468
63 *207:80 *362:16 1.58293e-05
64 *207:159 *362:60 0.000243232
65 *212:26 *362:16 0.000146512
66 *215:54 *362:35 0
67 *322:66 *362:16 7.46228e-05
68 *322:85 *362:16 4.97967e-05
69 *339:91 *362:16 8.65905e-05
70 *358:37 *362:35 0
*RES
1 *2879:X *362:16 23.015 
2 *362:16 *2563:A 8.215 
3 *362:16 *362:35 19.66 
4 *362:35 *2880:B 3.43 
5 *362:35 *362:60 42.785 
6 *362:60 *2980:A 5.085 
7 *362:60 *3066:A 25.645 
*END

*D_NET *363 0.00733101
*CONN
*I *2883:S I *D sky130_fd_sc_hd__mux2_1
*I *2881:S I *D sky130_fd_sc_hd__mux2_1
*I *2880:X O *D sky130_fd_sc_hd__or2_1
*CAP
1 *2883:S 0
2 *2881:S 0.000164817
3 *2880:X 0.00181469
4 *363:26 0.00197951
5 *363:26 *2806:A1 0.000827201
6 *363:26 *2893:A0 0.000197724
7 *363:26 *2893:A1 0.000423924
8 *363:26 *2893:S 6.05858e-05
9 *363:26 *2894:A 3.5037e-05
10 *363:26 *2920:A0 4.57347e-05
11 *363:26 *2920:A1 0.000202832
12 *363:26 *2933:A 0.000165373
13 *363:26 *3450:A 0.000122435
14 *363:26 *366:51 7.23533e-05
15 *363:26 *370:30 0.000617092
16 *2732:A3 *363:26 0
17 *2808:A *363:26 8.92044e-05
18 *2881:A0 *2881:S 2.75145e-05
19 *208:47 *363:26 0.000266917
20 *321:70 *363:26 3.34652e-05
21 *349:77 *2881:S 0.000163403
22 *349:77 *363:26 2.11921e-05
*RES
1 *2880:X *363:26 42.645 
2 *363:26 *2881:S 4.81 
3 *363:26 *2883:S 1.6 
*END

*D_NET *364 0.000222357
*CONN
*I *2882:A I *D sky130_fd_sc_hd__clkbuf_1
*I *2881:X O *D sky130_fd_sc_hd__mux2_1
*CAP
1 *2882:A 0.000111178
2 *2881:X 0.000111178
*RES
1 *2881:X *2882:A 4.955 
*END

*D_NET *365 0.0016251
*CONN
*I *2884:A I *D sky130_fd_sc_hd__clkbuf_1
*I *2883:X O *D sky130_fd_sc_hd__mux2_1
*CAP
1 *2884:A 0.000534661
2 *2883:X 0.000534661
3 *2884:A *3357:A 7.23602e-05
4 *349:92 *2884:A 0.000483422
5 *356:103 *2884:A 0
*RES
1 *2883:X *2884:A 17.16 
*END

*D_NET *366 0.0297128
*CONN
*I *2964:A1 I *D sky130_fd_sc_hd__mux2_1
*I *2986:A1 I *D sky130_fd_sc_hd__mux2_1
*I *2903:A1 I *D sky130_fd_sc_hd__mux2_1
*I *2991:A1 I *D sky130_fd_sc_hd__mux2_1
*I *2897:A1 I *D sky130_fd_sc_hd__mux2_1
*I *2914:A1 I *D sky130_fd_sc_hd__mux2_1
*I *2926:A1 I *D sky130_fd_sc_hd__mux2_1
*I *2938:A1 I *D sky130_fd_sc_hd__mux2_1
*I *2890:A1 I *D sky130_fd_sc_hd__mux2_1
*I *2920:A1 I *D sky130_fd_sc_hd__mux2_1
*I *2885:X O *D sky130_fd_sc_hd__clkbuf_4
*CAP
1 *2964:A1 0.000424915
2 *2986:A1 0.000593238
3 *2903:A1 0.000298508
4 *2991:A1 0
5 *2897:A1 9.22573e-05
6 *2914:A1 5.63124e-05
7 *2926:A1 6.27036e-05
8 *2938:A1 2.10219e-05
9 *2890:A1 0.000220842
10 *2920:A1 0.000362675
11 *2885:X 0.000239977
12 *366:125 0.00156718
13 *366:113 0.00181363
14 *366:104 0.000972983
15 *366:51 0.000876994
16 *366:43 0.00152483
17 *366:39 0.00137087
18 *366:20 0.00204623
19 *366:10 0.00166679
20 *366:6 0.000878219
21 *2890:A1 *2890:S 0.000157924
22 *2890:A1 *2938:A0 1.14192e-05
23 *2890:A1 *2939:A 3.0933e-05
24 *2897:A1 *2897:S 1.08758e-05
25 *2897:A1 *2900:A 3.83194e-05
26 *2903:A1 *2905:S 0.000152491
27 *2903:A1 *378:56 0.000632089
28 *2914:A1 *2916:A1 0
29 *2920:A1 *2920:A0 2.75229e-05
30 *2920:A1 *2921:A 2.75145e-05
31 *2926:A1 *2926:S 0.000112123
32 *2926:A1 *2928:A1 6.28498e-05
33 *2926:A1 *606:51 2.75145e-05
34 *2926:A1 *906:6 4.82863e-05
35 *2938:A1 *2938:A0 2.21074e-05
36 *2964:A1 *2964:A0 4.82863e-05
37 *2964:A1 *2965:A 4.16262e-05
38 *2964:A1 *2980:B 1.07797e-05
39 *2964:A1 *3082:A0 2.97004e-06
40 *2986:A1 *2747:A1 1.61831e-05
41 *2986:A1 *2987:A 8.05276e-05
42 *2986:A1 *3380:A 0.000274758
43 *2986:A1 *596:16 3.39498e-05
44 *366:10 *2997:A1 7.34418e-05
45 *366:10 *440:90 0.000111042
46 *366:20 *2897:A0 6.96554e-05
47 *366:20 *2900:A 1.88466e-05
48 *366:20 *2908:B_N 4.75576e-05
49 *366:20 *2916:A0 9.50342e-06
50 *366:20 *372:40 2.19562e-06
51 *366:20 *386:16 3.64998e-06
52 *366:20 *915:16 7.4027e-05
53 *366:43 *2728:A2 1.19928e-05
54 *366:51 *2890:S 8.08153e-06
55 *366:51 *2926:S 5.16348e-05
56 *366:51 *2928:A1 5.33085e-05
57 *366:51 *2929:A 0
58 *366:51 *2938:S 5.87474e-05
59 *366:51 *2939:A 7.33357e-05
60 *366:51 *2940:A1 0
61 *366:51 *2940:S 7.33965e-05
62 *366:51 *3158:CLK 0.000193757
63 *366:51 *3319:A 8.62294e-05
64 *366:51 *3358:A 0
65 *366:51 *372:78 0
66 *366:104 *2991:A0 4.82919e-05
67 *366:113 *2980:B 0.000342982
68 *366:113 *2991:A0 0.000160729
69 *366:125 *2974:A1 5.0651e-05
70 *366:125 *2980:B 0.000101317
71 *366:125 *3082:A0 0.000224278
72 *366:125 *3084:A1 0.000154395
73 *366:125 *378:56 0.000130035
74 *366:125 *417:73 5.1985e-06
75 *366:125 *417:92 6.47731e-05
76 *366:125 *591:132 0
77 *366:125 *591:149 3.92878e-05
78 *366:125 *595:10 0.000102132
79 *366:125 *595:27 5.02126e-06
80 *2726:A2 *2914:A1 0.000112123
81 *2732:A2 *2914:A1 3.67779e-05
82 *2740:A2 *366:10 0
83 *2740:A2 *366:20 0
84 *2749:B1 *2986:A1 0.000130128
85 *2753:A *2986:A1 0.00027204
86 *2753:B *2986:A1 2.39856e-05
87 *2753:D *2986:A1 0.00056846
88 *2754:D *2986:A1 2.937e-05
89 *2762:A2 *2964:A1 0.000354243
90 *2769:A2 *2964:A1 2.75229e-05
91 *2782:A2 *2986:A1 0
92 *2783:D *2986:A1 2.20014e-05
93 *2885:A *366:6 0.000345347
94 *2885:A *366:104 0.000322947
95 *2885:A *366:113 0.000180239
96 *2913:A *2920:A1 0.000325173
97 *2913:A *366:20 6.73424e-05
98 *2968:A *2986:A1 7.40012e-05
99 *2973:A *366:10 4.04823e-05
100 *2974:A0 *2903:A1 0.000157602
101 *2974:A0 *366:125 0.000100156
102 *2980:A *366:113 0.000163204
103 *3161:D *366:51 9.27693e-05
104 *174:82 *2903:A1 0.000236692
105 *174:150 *2903:A1 9.85147e-05
106 *197:70 *2903:A1 5.2124e-05
107 *197:70 *366:125 0.000669916
108 *197:152 *2964:A1 7.18452e-06
109 *197:152 *366:125 0.000303797
110 *202:30 *366:20 1.32017e-05
111 *215:148 *366:10 0.000135416
112 *320:64 *366:20 0
113 *322:104 *366:20 0
114 *324:30 *2920:A1 6.28765e-05
115 *343:51 *2920:A1 0.000711477
116 *343:51 *366:20 0.000136884
117 *343:66 *366:10 0.000911305
118 *343:66 *366:20 0.00173474
119 *349:18 *366:20 2.30292e-05
120 *349:38 *366:39 0.00071071
121 *349:38 *366:43 0.000122337
122 *349:67 *366:43 0.0006508
123 *363:26 *2920:A1 0.000202832
124 *363:26 *366:51 7.23533e-05
*RES
1 *2885:X *366:6 4.81 
2 *366:6 *366:10 13.07 
3 *366:10 *366:20 24.205 
4 *366:20 *2920:A1 14.76 
5 *366:20 *366:39 8.66 
6 *366:39 *366:43 12.455 
7 *366:43 *366:51 15.41 
8 *366:51 *2890:A1 5.515 
9 *366:51 *2938:A1 2.05 
10 *366:43 *2926:A1 5.43 
11 *366:39 *2914:A1 6.98 
12 *366:10 *2897:A1 5.115 
13 *366:6 *366:104 3.555 
14 *366:104 *2991:A1 1.6 
15 *366:104 *366:113 11.42 
16 *366:113 *366:125 21.61 
17 *366:125 *2903:A1 13.695 
18 *366:125 *2986:A1 21.07 
19 *366:113 *2964:A1 12.06 
*END

*D_NET *367 0.000791707
*CONN
*I *2936:C I *D sky130_fd_sc_hd__or3_4
*I *2888:A I *D sky130_fd_sc_hd__or3_4
*I *2886:Y O *D sky130_fd_sc_hd__nand2_1
*CAP
1 *2936:C 8.41546e-05
2 *2888:A 9.63869e-05
3 *2886:Y 7.1663e-05
4 *367:6 0.000252205
5 *2888:A *2886:B 4.00541e-06
6 *2888:A *2888:C 4.99619e-05
7 *2936:C *2942:A 0
8 *2936:B *2936:C 1.43867e-05
9 *211:32 *2888:A 7.22354e-05
10 *211:32 *2936:C 7.06865e-05
11 *322:48 *2936:C 3.31351e-05
12 *322:54 *2888:A 2.15986e-05
13 *322:54 *367:6 7.55531e-06
14 *339:57 *2888:A 1.37328e-05
*RES
1 *2886:Y *367:6 2.395 
2 *367:6 *2888:A 4.06 
3 *367:6 *2936:C 7.235 
*END

*D_NET *368 0.00366857
*CONN
*I *2888:C I *D sky130_fd_sc_hd__or3_4
*I *2895:C I *D sky130_fd_sc_hd__or4b_4
*I *2907:D I *D sky130_fd_sc_hd__nor4_1
*I *2901:C I *D sky130_fd_sc_hd__or3_2
*I *2887:X O *D sky130_fd_sc_hd__or2b_1
*CAP
1 *2888:C 8.4386e-05
2 *2895:C 0
3 *2907:D 0.000273765
4 *2901:C 0
5 *2887:X 0
6 *368:23 0.000384815
7 *368:12 0.000484159
8 *368:4 0.000457495
9 *2888:C *2886:A 9.30787e-05
10 *2888:C *2886:B 4.00541e-06
11 *2888:C *3266:CLK 0
12 *368:12 *2887:B_N 2.8185e-05
13 *368:23 *2578:A 0
14 *2865:A_N *368:12 0.000379301
15 *2888:A *2888:C 4.99619e-05
16 *2895:B *2907:D 8.57024e-05
17 *2895:B *368:23 0
18 *2895:D_N *368:23 4.99619e-05
19 *2901:B *368:23 5.88334e-05
20 *212:26 *2907:D 5.26505e-05
21 *318:36 *368:12 0.000113797
22 *322:54 *2888:C 4.60903e-05
23 *322:62 *368:23 2.8694e-05
24 *322:66 *2907:D 0.000187775
25 *322:85 *2907:D 3.70433e-05
26 *329:20 *2907:D 1.12578e-05
27 *329:20 *368:12 0.00011379
28 *329:20 *368:23 0.000160907
29 *329:26 *368:12 9.50342e-06
30 *329:83 *2907:D 0.000346769
31 *329:94 *2907:D 0.00012664
*RES
1 *2887:X *368:4 1.6 
2 *368:4 *368:12 9.625 
3 *368:12 *2901:C 1.6 
4 *368:12 *368:23 2.805 
5 *368:23 *2907:D 12.455 
6 *368:23 *2895:C 1.6 
7 *368:4 *2888:C 7.535 
*END

*D_NET *369 0.0199861
*CONN
*I *2568:A I *D sky130_fd_sc_hd__nor2_1
*I *2985:A I *D sky130_fd_sc_hd__nor2_1
*I *3071:A I *D sky130_fd_sc_hd__nor2_1
*I *2889:B I *D sky130_fd_sc_hd__nor2_1
*I *2888:X O *D sky130_fd_sc_hd__or3_4
*CAP
1 *2568:A 0
2 *2985:A 0.00211751
3 *3071:A 6.00418e-05
4 *2889:B 9.88613e-06
5 *2888:X 0.00202353
6 *369:47 0.00314626
7 *369:30 0.00189519
8 *369:18 0.00294013
9 *2889:B *3154:CLK 4.77807e-05
10 *2889:B *370:30 4.77807e-05
11 *2985:A *2974:S 7.96104e-06
12 *2985:A *3071:B 2.16917e-05
13 *2985:A *591:132 7.07073e-05
14 *2985:A *607:64 1.1477e-05
15 *3071:A *3071:B 9.81565e-05
16 *369:18 *2563:B 5.53249e-06
17 *369:18 *3114:A 0.000326067
18 *369:18 *3241:CLK 4.49377e-05
19 *369:18 *401:22 0.00210273
20 *369:18 *527:50 0.000104406
21 *369:18 *675:12 7.65181e-05
22 *369:30 *2566:S 0.000280988
23 *369:30 *2568:B 5.92666e-05
24 *369:30 *2590:A0 0.000403034
25 *369:30 *2593:A 0.000149208
26 *369:30 *3241:CLK 0
27 *369:30 *500:115 0.000361732
28 *369:30 *601:38 0.000153004
29 *369:30 *601:53 3.61388e-06
30 *369:47 *2920:S 0.000120661
31 *369:47 *2922:S 3.54811e-05
32 *369:47 *3071:B 3.09164e-05
33 *369:47 *3155:CLK 0.000174919
34 *369:47 *3379:A 0
35 *369:47 *372:40 0.000228084
36 *369:47 *500:91 0
37 *369:47 *500:93 0
38 *369:47 *607:84 0
39 *2747:A3 *2985:A 0.000283203
40 *2754:A *2985:A 0.000853263
41 *2754:C *2985:A 0.000178071
42 *2754:D *2985:A 4.77719e-05
43 *2755:B2 *2985:A 8.23457e-05
44 *2833:A1 *369:30 9.21068e-05
45 *2866:B *369:30 0.000316423
46 *2878:A *369:47 7.57302e-05
47 *2973:A *2985:A 0
48 *3141:D *369:47 0
49 *197:84 *2985:A 0
50 *202:30 *2985:A 0.000240416
51 *202:30 *3071:A 9.2741e-05
52 *215:24 *369:18 0
53 *218:20 *369:18 0
54 *218:36 *369:30 2.39856e-05
55 *320:64 *369:30 0.000127108
56 *320:64 *369:47 0.000387413
57 *321:70 *369:47 0
58 *322:48 *369:18 0
59 *343:32 *369:30 0
60 *353:22 *369:30 2.63295e-05
*RES
1 *2888:X *369:18 14.6934 
2 *369:18 *369:30 23.375 
3 *369:30 *2889:B 4.05 
4 *369:30 *369:47 21.02 
5 *369:47 *3071:A 3.445 
6 *369:47 *2985:A 21.3523 
7 *369:18 *2568:A 1.6 
*END

*D_NET *370 0.00678114
*CONN
*I *2890:S I *D sky130_fd_sc_hd__mux2_1
*I *2893:S I *D sky130_fd_sc_hd__mux2_1
*I *2889:Y O *D sky130_fd_sc_hd__nor2_1
*CAP
1 *2890:S 0.00036191
2 *2893:S 3.81855e-05
3 *2889:Y 0.00150149
4 *370:30 0.00190159
5 *2890:S *2939:A 7.92354e-05
6 *2890:S *3319:A 0.000265985
7 *2890:S *3358:A 0
8 *2890:S *3425:A 0.000156916
9 *2890:S *921:16 0
10 *2893:S *2806:A1 0.000117116
11 *2893:S *2893:A0 8.64421e-05
12 *370:30 *2806:A1 1.80219e-05
13 *370:30 *2893:A1 6.05513e-05
14 *370:30 *2923:A 5.99048e-05
15 *370:30 *2933:A 0.000340303
16 *370:30 *3154:CLK 0.000126703
17 *370:30 *3319:A 0.000100257
18 *370:30 *3450:A 4.31796e-05
19 *2811:A3 *370:30 0.000223104
20 *2889:B *370:30 4.77807e-05
21 *2890:A1 *2890:S 0.000157924
22 *320:64 *370:30 0.000164907
23 *324:8 *370:30 0
24 *324:24 *370:30 0.00024388
25 *343:51 *370:30 0
26 *363:26 *2893:S 6.05858e-05
27 *363:26 *370:30 0.000617092
28 *366:51 *2890:S 8.08153e-06
*RES
1 *2889:Y *370:30 34.4412 
2 *370:30 *2893:S 3.43375 
3 *370:30 *2890:S 13.055 
*END

*D_NET *371 0.000270192
*CONN
*I *2891:A I *D sky130_fd_sc_hd__clkbuf_1
*I *2890:X O *D sky130_fd_sc_hd__mux2_1
*CAP
1 *2891:A 0.000135096
2 *2890:X 0.000135096
*RES
1 *2890:X *2891:A 5.3 
*END

*D_NET *372 0.0259361
*CONN
*I *2988:A1 I *D sky130_fd_sc_hd__mux2_1
*I *2966:A1 I *D sky130_fd_sc_hd__mux2_1
*I *2993:A1 I *D sky130_fd_sc_hd__mux2_1
*I *2899:A1 I *D sky130_fd_sc_hd__mux2_1
*I *2905:A1 I *D sky130_fd_sc_hd__mux2_1
*I *2922:A1 I *D sky130_fd_sc_hd__mux2_1
*I *2893:A1 I *D sky130_fd_sc_hd__mux2_1
*I *2940:A1 I *D sky130_fd_sc_hd__mux2_1
*I *2928:A1 I *D sky130_fd_sc_hd__mux2_1
*I *2916:A1 I *D sky130_fd_sc_hd__mux2_1
*I *2892:X O *D sky130_fd_sc_hd__clkbuf_4
*CAP
1 *2988:A1 0.00052276
2 *2966:A1 0.000244491
3 *2993:A1 0.000152606
4 *2899:A1 6.52939e-05
5 *2905:A1 0.000382722
6 *2922:A1 0
7 *2893:A1 0.000386092
8 *2940:A1 0.00026631
9 *2928:A1 0.000233057
10 *2916:A1 0.00013615
11 *2892:X 5.65292e-05
12 *372:78 0.000996147
13 *372:61 0.00112746
14 *372:40 0.00176609
15 *372:26 0.00156742
16 *372:22 0.0013262
17 *372:18 0.00118495
18 *372:16 0.00172297
19 *372:12 0.0012148
20 *372:10 0.000643556
21 *2905:A1 *2904:A 0.000269005
22 *2916:A1 *386:16 2.61533e-05
23 *2928:A1 *2725:A1 7.49327e-05
24 *2928:A1 *906:6 0.000155497
25 *2940:A1 *2807:A1 0
26 *2940:A1 *2940:A0 4.66108e-05
27 *2940:A1 *2940:S 7.03512e-05
28 *2966:A1 *3445:A 0
29 *2988:A1 *2986:S 2.75145e-05
30 *2988:A1 *3118:A 0.00022214
31 *2988:A1 *3292:A 1.88602e-05
32 *2988:A1 *591:162 0.000403717
33 *2988:A1 *596:12 0.000163211
34 *2993:A1 *2993:S 0.000265924
35 *2993:A1 *443:122 0.000142662
36 *372:12 *3118:A 0.000111041
37 *372:16 *3118:A 0.000124473
38 *372:18 *2897:S 0.000125698
39 *372:18 *2990:A 0.00013998
40 *372:18 *2993:S 7.12228e-06
41 *372:18 *2997:S 0.000109962
42 *372:18 *3000:A0 7.4027e-05
43 *372:18 *374:51 0.000193188
44 *372:18 *437:10 7.09999e-05
45 *372:18 *443:122 0.000419602
46 *372:22 *2897:S 7.13722e-05
47 *372:22 *3404:A 0.000222032
48 *372:22 *374:45 0.000249398
49 *372:22 *374:51 2.50049e-05
50 *372:22 *375:10 0.000293733
51 *372:26 *2922:A0 0.000150568
52 *372:26 *2922:S 4.89295e-05
53 *372:26 *3399:A 0.000194598
54 *372:40 *2803:A1 7.17236e-06
55 *372:40 *2922:A0 4.89295e-05
56 *372:40 *2922:S 0.000272664
57 *372:40 *3155:CLK 6.97202e-05
58 *372:40 *386:16 0.000253404
59 *372:61 *2725:A1 9.35611e-05
60 *372:61 *2726:A1 1.34594e-05
61 *372:61 *2914:A0 8.73389e-06
62 *372:61 *2914:S 0.000163199
63 *372:61 *606:49 9.61151e-05
64 *372:78 *2725:B1 0.000254045
65 *372:78 *3158:CLK 0.000177225
66 *372:78 *681:18 2.10433e-05
67 *2725:A2 *372:61 2.75145e-05
68 *2725:A2 *372:78 0
69 *2726:A2 *372:61 0.000201503
70 *2726:B1 *372:61 6.75662e-05
71 *2732:A2 *372:61 0.00049767
72 *2740:A2 *2899:A1 8.23457e-05
73 *2740:B1 *372:22 0
74 *2754:C *2988:A1 4.66108e-05
75 *2783:D *2988:A1 0.000322624
76 *2788:B1 *372:18 0
77 *2791:A2 *372:18 0
78 *2806:C1 *2940:A1 0
79 *2878:A *372:40 7.7397e-05
80 *2885:A *372:16 0.00127145
81 *2896:A *372:22 0
82 *2914:A1 *2916:A1 0
83 *2926:A1 *2928:A1 6.28498e-05
84 *3066:A *372:16 0.000415236
85 *3158:D *2940:A1 4.43871e-06
86 *3158:D *372:78 5.02217e-05
87 *176:84 *2988:A1 0.000366627
88 *176:101 *2988:A1 0.000177665
89 *177:135 *2966:A1 0.000495274
90 *177:135 *372:10 5.21046e-05
91 *181:35 *2966:A1 0
92 *181:106 *372:78 0
93 *183:110 *2988:A1 7.45321e-05
94 *193:54 *372:18 0
95 *197:94 *2916:A1 0.000114492
96 *207:80 *372:22 0
97 *207:84 *372:18 0
98 *207:84 *372:22 0
99 *207:103 *372:18 0
100 *221:12 *372:22 0.00010565
101 *231:30 *372:22 0
102 *320:64 *372:40 0.000516101
103 *343:66 *372:40 8.73389e-06
104 *349:38 *372:40 0.000136276
105 *363:26 *2893:A1 0.000423924
106 *366:20 *372:40 2.19562e-06
107 *366:51 *2928:A1 5.33085e-05
108 *366:51 *2940:A1 0
109 *366:51 *372:78 0
110 *369:47 *372:40 0.000228084
111 *370:30 *2893:A1 6.05513e-05
*RES
1 *2892:X *372:10 6.725 
2 *372:10 *372:12 1.14 
3 *372:12 *372:16 19.7 
4 *372:16 *372:18 14.13 
5 *372:18 *372:22 12.815 
6 *372:22 *372:26 8.4 
7 *372:26 *372:40 22.54 
8 *372:40 *2916:A1 7.43 
9 *372:40 *372:61 11.625 
10 *372:61 *2928:A1 9.155 
11 *372:61 *372:78 8.99 
12 *372:78 *2940:A1 7.47 
13 *372:78 *2893:A1 8.88 
14 *372:26 *2922:A1 1.6 
15 *372:22 *2905:A1 7.57 
16 *372:18 *2899:A1 4.395 
17 *372:16 *2993:A1 7.215 
18 *372:12 *2966:A1 11.315 
19 *372:10 *2988:A1 20.825 
*END

*D_NET *373 0.000608557
*CONN
*I *2894:A I *D sky130_fd_sc_hd__clkbuf_1
*I *2893:X O *D sky130_fd_sc_hd__mux2_1
*CAP
1 *2894:A 0.000236081
2 *2893:X 0.000236081
3 *2894:A *2728:B2 5.30673e-05
4 *2894:A *3161:CLK 4.82919e-05
5 *2894:A *921:16 0
6 *356:103 *2894:A 0
7 *363:26 *2894:A 3.5037e-05
*RES
1 *2893:X *2894:A 10.98 
*END

*D_NET *374 0.0153228
*CONN
*I *2896:B I *D sky130_fd_sc_hd__nor2_1
*I *2990:A I *D sky130_fd_sc_hd__nor2_1
*I *3076:A I *D sky130_fd_sc_hd__nor2_1
*I *2573:A I *D sky130_fd_sc_hd__or2_1
*I *2895:X O *D sky130_fd_sc_hd__or4b_4
*CAP
1 *2896:B 0
2 *2990:A 0.000186116
3 *3076:A 0.000240853
4 *2573:A 0.000460074
5 *2895:X 0.000243182
6 *374:51 0.000743873
7 *374:45 0.00184149
8 *374:8 0.00222784
9 *2573:A *2573:B 8.41384e-05
10 *2573:A *2579:S 6.35017e-05
11 *2573:A *2581:A1 0.000271125
12 *2573:A *2581:S 4.42148e-05
13 *2573:A *2714:A1 0.00016876
14 *2573:A *2714:B2 0.000380514
15 *2573:A *3429:A 0.000230649
16 *2573:A *527:24 0.000245412
17 *2573:A *544:12 6.04372e-05
18 *2990:A *443:122 0.000227773
19 *3076:A *2997:A1 0.000157394
20 *3076:A *2998:A 6.44082e-05
21 *3076:A *3180:CLK 0.000175699
22 *374:45 *2605:A1 0.000177142
23 *374:45 *2751:A 4.69402e-05
24 *374:45 *2908:B_N 3.1017e-05
25 *374:45 *3149:CLK 0
26 *374:45 *375:10 1.47347e-05
27 *374:45 *569:10 0.000306308
28 *374:51 *2897:S 0.000187567
29 *374:51 *375:10 0.000322914
30 *2581:A0 *2573:A 0.000159722
31 *2605:A0 *374:45 4.76051e-05
32 *2714:C1 *2573:A 3.22182e-05
33 *2714:C1 *374:45 3.23391e-05
34 *2721:A1 *374:45 1.74609e-05
35 *2721:B1 *374:45 0.000176388
36 *2735:A2 *3076:A 1.41095e-05
37 *2740:A2 *3076:A 0.000534952
38 *2800:A1 *374:45 0.000470284
39 *2800:A3 *2573:A 0
40 *2895:B *374:8 1.08758e-05
41 *2896:A *374:45 0.000235801
42 *3287:A *374:45 1.88656e-05
43 *207:42 *2573:A 3.86096e-05
44 *207:42 *374:45 0.000249214
45 *207:80 *374:45 0
46 *208:104 *3076:A 0.000267557
47 *215:148 *3076:A 0.000231815
48 *221:12 *2990:A 0.000490236
49 *221:12 *374:45 0
50 *221:12 *374:51 0.00088743
51 *316:80 *374:45 0.00026985
52 *316:82 *374:45 0.000814781
53 *316:96 *374:45 0.0001101
54 *349:18 *374:45 6.17614e-05
55 *349:18 *374:51 2.67184e-05
56 *352:24 *374:8 0.000312481
57 *372:18 *2990:A 0.00013998
58 *372:18 *374:51 0.000193188
59 *372:22 *374:45 0.000249398
60 *372:22 *374:51 2.50049e-05
*RES
1 *2895:X *374:8 6.81 
2 *374:8 *2573:A 16.83 
3 *374:8 *374:45 38.39 
4 *374:45 *374:51 13.355 
5 *374:51 *3076:A 12.015 
6 *374:51 *2990:A 9.57 
7 *374:45 *2896:B 1.6 
*END

*D_NET *375 0.0020111
*CONN
*I *2897:S I *D sky130_fd_sc_hd__mux2_1
*I *2899:S I *D sky130_fd_sc_hd__mux2_1
*I *2896:Y O *D sky130_fd_sc_hd__nor2_1
*CAP
1 *2897:S 0.000219469
2 *2899:S 0
3 *2896:Y 0.000138228
4 *375:10 0.000357697
5 *2897:S *2897:A0 1.91597e-05
6 *2897:S *2900:A 8.49205e-05
7 *2897:S *915:16 0.000164733
8 *2897:A1 *2897:S 1.08758e-05
9 *372:18 *2897:S 0.000125698
10 *372:22 *2897:S 7.13722e-05
11 *372:22 *375:10 0.000293733
12 *374:45 *375:10 1.47347e-05
13 *374:51 *2897:S 0.000187567
14 *374:51 *375:10 0.000322914
*RES
1 *2896:Y *375:10 7.815 
2 *375:10 *2899:S 3.6 
3 *375:10 *2897:S 8.865 
*END

*D_NET *376 0.000900708
*CONN
*I *2898:A I *D sky130_fd_sc_hd__clkbuf_1
*I *2897:X O *D sky130_fd_sc_hd__mux2_1
*CAP
1 *2898:A 0.000284028
2 *2897:X 0.000284028
3 *2898:A *3147:CLK 8.52883e-05
4 *2898:A *742:10 7.4027e-05
5 *3146:D *2898:A 7.90568e-05
6 *3147:D *2898:A 6.54935e-05
7 *202:22 *2898:A 2.87867e-05
*RES
1 *2897:X *2898:A 13.065 
*END

*D_NET *377 0.000996053
*CONN
*I *2900:A I *D sky130_fd_sc_hd__clkbuf_1
*I *2899:X O *D sky130_fd_sc_hd__mux2_1
*CAP
1 *2900:A 0.000218949
2 *2899:X 0.000218949
3 *2900:A *2897:A0 0.000284232
4 *2900:A *915:16 7.23533e-05
5 *2740:A2 *2900:A 8.73147e-06
6 *2897:A1 *2900:A 3.83194e-05
7 *2897:S *2900:A 8.49205e-05
8 *202:30 *2900:A 5.0751e-05
9 *366:20 *2900:A 1.88466e-05
*RES
1 *2899:X *2900:A 12.135 
*END

*D_NET *378 0.0129685
*CONN
*I *2996:A I *D sky130_fd_sc_hd__nor2_1
*I *3081:A I *D sky130_fd_sc_hd__nor2_1
*I *2902:B I *D sky130_fd_sc_hd__nor2_1
*I *2578:A I *D sky130_fd_sc_hd__or2_1
*I *2901:X O *D sky130_fd_sc_hd__or3_2
*CAP
1 *2996:A 0.000150387
2 *3081:A 2.80715e-05
3 *2902:B 0
4 *2578:A 0.000835209
5 *2901:X 0
6 *378:56 0.00136545
7 *378:35 0.00228037
8 *378:4 0.00192859
9 *2578:A *2886:B 0
10 *2578:A *775:70 0
11 *2996:A *2996:B 0.000115639
12 *2996:A *3082:A1 0.000190717
13 *3081:A *3081:B 3.09689e-05
14 *3081:A *3181:CLK 4.29749e-05
15 *378:35 *2919:B 3.97666e-05
16 *378:35 *2942:A 0.000164238
17 *378:35 *3252:CLK 0.000114253
18 *378:35 *3253:CLK 6.4428e-05
19 *378:35 *401:10 1.12196e-05
20 *378:35 *560:22 0.000130472
21 *378:35 *775:70 8.53113e-06
22 *378:56 *2905:S 2.94708e-05
23 *378:56 *2974:A1 9.57555e-05
24 *378:56 *3171:CLK 0
25 *378:56 *379:8 6.20952e-05
26 *378:56 *417:73 2.53191e-06
27 *378:56 *591:132 0.000119684
28 *378:56 *595:33 4.00178e-05
29 *378:56 *595:35 0
30 *2685:D_N *378:35 7.73189e-05
31 *2702:A_N *378:35 3.70011e-05
32 *2702:D *378:35 0.000125025
33 *2740:C1 *378:56 0
34 *2762:A2 *378:56 0
35 *2792:B1 *2996:A 0.000173912
36 *2792:B1 *378:56 8.9257e-05
37 *2792:C1 *378:56 0.000238057
38 *2800:A3 *2578:A 1.56428e-05
39 *2873:B_N *2578:A 0.000121437
40 *2879:C_N *2578:A 0
41 *2895:D_N *2578:A 3.15283e-05
42 *2903:A1 *378:56 0.000632089
43 *2918:B *378:35 0.000146279
44 *2936:B *378:35 0.000168987
45 *2974:A0 *378:56 0.000347891
46 *3170:D *378:56 0
47 *174:102 *378:35 0.000185995
48 *174:102 *378:56 1.01661e-05
49 *174:150 *378:56 1.7396e-05
50 *178:40 *378:35 0.000119866
51 *178:69 *378:35 0.00019425
52 *182:12 *378:35 0.000132552
53 *197:70 *378:35 0.000209647
54 *197:70 *378:56 2.24833e-05
55 *212:56 *378:35 0.000320922
56 *212:73 *378:56 0.000184937
57 *215:148 *378:56 0.000303281
58 *231:82 *378:56 0
59 *317:99 *378:35 5.16348e-05
60 *318:36 *2578:A 0.000196671
61 *318:58 *378:35 0
62 *322:56 *2578:A 8.65961e-05
63 *322:56 *378:35 6.90876e-05
64 *322:104 *2996:A 0.000166101
65 *322:104 *378:56 0.000173009
66 *339:57 *2578:A 1.60203e-05
67 *339:57 *378:35 0.000124895
68 *339:72 *378:35 0
69 *339:91 *378:35 0
70 *351:10 *2578:A 1.52184e-05
71 *351:12 *2578:A 0.000146408
72 *352:24 *2578:A 3.60648e-05
73 *366:125 *378:56 0.000130035
74 *368:23 *2578:A 0
*RES
1 *2901:X *378:4 1.6 
2 *378:4 *2578:A 19.295 
3 *378:4 *378:35 28.115 
4 *378:35 *2902:B 3.6 
5 *378:35 *378:56 30.16 
6 *378:56 *3081:A 4.47 
7 *378:56 *2996:A 7.935 
*END

*D_NET *379 0.00165634
*CONN
*I *2905:S I *D sky130_fd_sc_hd__mux2_1
*I *2903:S I *D sky130_fd_sc_hd__mux2_1
*I *2902:Y O *D sky130_fd_sc_hd__nor2_1
*CAP
1 *2905:S 0.000338105
2 *2903:S 0
3 *2902:Y 4.24989e-05
4 *379:8 0.000380604
5 *2905:S *2904:A 0.000149493
6 *2739:A2 *2905:S 4.21973e-05
7 *2739:B2 *2905:S 8.23457e-05
8 *2903:A1 *2905:S 0.000152491
9 *174:82 *2905:S 2.07184e-05
10 *174:92 *2905:S 0.000198658
11 *174:92 *379:8 0.000115464
12 *212:92 *2905:S 4.21973e-05
13 *378:56 *2905:S 2.94708e-05
14 *378:56 *379:8 6.20952e-05
*RES
1 *2902:Y *379:8 4.98 
2 *379:8 *2903:S 3.6 
3 *379:8 *2905:S 10.515 
*END

*D_NET *380 0.0014883
*CONN
*I *2904:A I *D sky130_fd_sc_hd__clkbuf_1
*I *2903:X O *D sky130_fd_sc_hd__mux2_1
*CAP
1 *2904:A 0.000281939
2 *2903:X 0.000281939
3 *2904:A *2739:A1 9.06149e-05
4 *2904:A *2905:A0 0.000255012
5 *2904:A *2906:A 4.80285e-05
6 *2904:A *393:31 1.88602e-05
7 *2739:A2 *2904:A 1.50225e-05
8 *2790:A3 *2904:A 4.50225e-05
9 *2905:A1 *2904:A 0.000269005
10 *2905:S *2904:A 0.000149493
11 *212:73 *2904:A 1.95781e-05
12 *231:82 *2904:A 1.37864e-05
*RES
1 *2903:X *2904:A 14.235 
*END

*D_NET *381 0.000927424
*CONN
*I *2906:A I *D sky130_fd_sc_hd__clkbuf_1
*I *2905:X O *D sky130_fd_sc_hd__mux2_1
*CAP
1 *2906:A 0.000236535
2 *2905:X 0.000236535
3 *2811:A1 *2906:A 7.4027e-05
4 *2904:A *2906:A 4.80285e-05
5 *3149:D *2906:A 0.000144349
6 *321:31 *2906:A 6.27059e-05
7 *321:48 *2906:A 8.65905e-05
8 *362:60 *2906:A 3.86529e-05
*RES
1 *2905:X *2906:A 12 
*END

*D_NET *382 0.00215588
*CONN
*I *3457:A I *D sky130_fd_sc_hd__clkbuf_1
*I *3462:A I *D sky130_fd_sc_hd__clkbuf_2
*I *2907:Y O *D sky130_fd_sc_hd__nor4_1
*CAP
1 *3457:A 8.12927e-05
2 *3462:A 9.78597e-05
3 *2907:Y 0.000222734
4 *382:10 0.000401886
5 *3457:A *397:18 0.000112893
6 *3457:A *413:10 2.15594e-05
7 *3462:A *3468:A 0.000386226
8 *382:10 *413:10 3.05712e-05
9 *2907:B *382:10 8.57024e-05
10 *2930:A *3462:A 0.000123225
11 *2930:C *3462:A 1.34503e-05
12 *3470:A *3462:A 8.2126e-05
13 *207:28 *3462:A 4.66108e-05
14 *207:80 *3457:A 0
15 *207:80 *382:10 0
16 *322:85 *382:10 0.000236772
17 *348:44 *3457:A 3.67779e-05
18 *362:16 *382:10 0.000176189
*RES
1 *2907:Y *382:10 8.07 
2 *382:10 *3462:A 7.155 
3 *382:10 *3457:A 5.49 
*END

*D_NET *383 0.00610446
*CONN
*I *2909:S I *D sky130_fd_sc_hd__mux2_1
*I *2911:S I *D sky130_fd_sc_hd__mux2_1
*I *2908:X O *D sky130_fd_sc_hd__or2b_1
*CAP
1 *2909:S 3.58421e-05
2 *2911:S 0.00034429
3 *2908:X 0.00155409
4 *383:12 0.00193422
5 *2911:S *2909:A1 8.77498e-05
6 *2911:S *3157:CLK 0.00019911
7 *2911:S *911:12 0
8 *2911:S *912:8 9.86822e-05
9 *383:12 *2725:B2 0.000292383
10 *383:12 *2726:A1 2.47313e-05
11 *383:12 *2804:B2 0.000138032
12 *383:12 *2909:A1 7.50252e-05
13 *383:12 *3397:A 5.96973e-05
14 *383:12 *3403:A 0.000279787
15 *383:12 *606:30 0.000113717
16 *383:12 *912:8 0.00012378
17 *2909:A0 *2911:S 4.19884e-05
18 *2911:A0 *2911:S 9.66106e-05
19 *3152:D *383:12 0.000238176
20 *3153:D *383:12 0.000130317
21 *3156:D *383:12 0.000236231
*RES
1 *2908:X *383:12 29.35 
2 *383:12 *2911:S 13.04 
3 *383:12 *2909:S 2.215 
*END

*D_NET *384 0.000725544
*CONN
*I *2910:A I *D sky130_fd_sc_hd__clkbuf_1
*I *2909:X O *D sky130_fd_sc_hd__mux2_1
*CAP
1 *2910:A 0.000298371
2 *2909:X 0.000298371
3 *2910:A *912:8 8.8266e-05
4 *3150:D *2910:A 4.05358e-05
*RES
1 *2909:X *2910:A 11.355 
*END

*D_NET *385 0.000130807
*CONN
*I *2912:A I *D sky130_fd_sc_hd__clkbuf_1
*I *2911:X O *D sky130_fd_sc_hd__mux2_1
*CAP
1 *2912:A 6.54036e-05
2 *2911:X 6.54036e-05
*RES
1 *2911:X *2912:A 4.265 
*END

*D_NET *386 0.00118382
*CONN
*I *2916:S I *D sky130_fd_sc_hd__mux2_1
*I *2914:S I *D sky130_fd_sc_hd__mux2_1
*I *2913:Y O *D sky130_fd_sc_hd__nor2_1
*CAP
1 *2916:S 0
2 *2914:S 5.73854e-05
3 *2913:Y 0.000175938
4 *386:16 0.000233324
5 *386:16 *2916:A0 0.000222474
6 *2913:A *386:16 4.82919e-05
7 *2916:A1 *386:16 2.61533e-05
8 *366:20 *386:16 3.64998e-06
9 *372:40 *386:16 0.000253404
10 *372:61 *2914:S 0.000163199
*RES
1 *2913:Y *386:16 7.27 
2 *386:16 *2914:S 3.085 
3 *386:16 *2916:S 1.6 
*END

*D_NET *387 0.000637758
*CONN
*I *2915:A I *D sky130_fd_sc_hd__clkbuf_1
*I *2914:X O *D sky130_fd_sc_hd__mux2_1
*CAP
1 *2915:A 0.000163883
2 *2914:X 0.000163883
3 *2915:A *2726:A1 0.000153154
4 *2915:A *2914:A0 0
5 *2915:A *3153:CLK 0
6 *2915:A *405:66 5.21742e-05
7 *2915:A *405:68 2.56866e-05
8 *3152:D *2915:A 7.89767e-05
*RES
1 *2914:X *2915:A 11.325 
*END

*D_NET *388 0.000841023
*CONN
*I *2917:A I *D sky130_fd_sc_hd__clkbuf_1
*I *2916:X O *D sky130_fd_sc_hd__mux2_1
*CAP
1 *2917:A 0.000198779
2 *2916:X 0.000198779
3 *2917:A *2804:B2 7.23602e-05
4 *2917:A *2916:A0 8.57024e-05
5 *2754:A *2917:A 0
6 *197:94 *2917:A 0.000285404
*RES
1 *2916:X *2917:A 11.67 
*END

*D_NET *389 0.0268018
*CONN
*I *2594:A I *D sky130_fd_sc_hd__or2_1
*I *3098:A I *D sky130_fd_sc_hd__nor2_1
*I *3013:A I *D sky130_fd_sc_hd__nor2_1
*I *2919:B I *D sky130_fd_sc_hd__nor2_1
*I *2918:X O *D sky130_fd_sc_hd__or4bb_4
*CAP
1 *2594:A 0.000314662
2 *3098:A 3.86119e-05
3 *3013:A 0.00125953
4 *2919:B 0.00202504
5 *2918:X 0.00067409
6 *389:63 0.00471209
7 *389:22 0.00610856
8 *389:12 0.00165832
9 *2594:A *528:72 0.000269309
10 *2919:B *2923:A 8.64421e-05
11 *2919:B *409:84 5.31588e-05
12 *2919:B *742:10 0.000125272
13 *2919:B *914:10 4.42415e-05
14 *3013:A *3104:A0 0.000193674
15 *3013:A *3105:A 4.89395e-05
16 *3013:A *3112:A1 0.000122817
17 *3013:A *3113:A 7.03219e-05
18 *3013:A *419:45 0.00109336
19 *3013:A *419:47 8.23457e-05
20 *3013:A *443:8 2.69153e-05
21 *3013:A *500:69 0.000637426
22 *3013:A *500:83 0.000158556
23 *3013:A *833:8 1.42598e-05
24 *3013:A *834:14 1.11025e-05
25 *389:12 *2600:A1 1.84465e-05
26 *389:12 *3307:A 0
27 *389:12 *604:10 0
28 *389:22 *2600:A1 8.17254e-05
29 *389:22 *3114:A 3.2305e-05
30 *389:22 *604:10 0
31 *389:63 *2698:A 0.000202811
32 *389:63 *2760:A 0.000202811
33 *389:63 *3114:A 0.000332221
34 *389:63 *3307:A 0.000128231
35 *389:63 *3308:A 0.00330358
36 *389:63 *393:50 0
37 *389:63 *475:45 1.79919e-05
38 *2755:B1 *389:22 0.000221613
39 *2755:B2 *389:63 0.000116216
40 *2790:A2 *2919:B 3.64099e-05
41 *2790:B1 *2919:B 0.000209484
42 *2811:B1 *2594:A 2.93517e-05
43 *2880:B *2919:B 0.000119873
44 *3148:D *2919:B 5.261e-05
45 *3459:A *389:12 0
46 *3469:A *389:12 0
47 *178:12 *389:12 0.000131729
48 *181:69 *3013:A 6.67565e-05
49 *181:106 *2919:B 0
50 *186:10 *389:12 0
51 *197:16 *389:12 0
52 *197:70 *2919:B 3.79318e-05
53 *321:62 *2919:B 0.000104173
54 *324:8 *2919:B 0.000303117
55 *327:91 *2919:B 0.000127269
56 *348:145 *3013:A 0.000142329
57 *348:145 *3098:A 8.35157e-05
58 *355:40 *389:22 0
59 *356:49 *389:12 0.000320056
60 *362:60 *2919:B 0.000510415
61 *378:35 *2919:B 3.97666e-05
*RES
1 *2918:X *389:12 14.5875 
2 *389:12 *389:22 3.21053 
3 *389:22 *2919:B 34.1123 
4 *389:22 *389:63 13.2706 
5 *389:63 *3013:A 29.405 
6 *389:63 *3098:A 2.395 
7 *389:12 *2594:A 7.8525 
*END

*D_NET *390 0.0019313
*CONN
*I *2922:S I *D sky130_fd_sc_hd__mux2_1
*I *2920:S I *D sky130_fd_sc_hd__mux2_1
*I *2919:Y O *D sky130_fd_sc_hd__nor2_1
*CAP
1 *2922:S 0.000207832
2 *2920:S 0.000186738
3 *2919:Y 0
4 *390:4 0.00039457
5 *2920:S *2923:A 0.000160125
6 *2922:S *2803:A1 2.68526e-05
7 *2922:S *2923:A 7.20243e-05
8 *2922:S *3155:CLK 1.39525e-05
9 *2922:S *3399:A 0.000165711
10 *2922:S *500:93 0
11 *320:64 *2920:S 0.000225759
12 *369:47 *2920:S 0.000120661
13 *369:47 *2922:S 3.54811e-05
14 *372:26 *2922:S 4.89295e-05
15 *372:40 *2922:S 0.000272664
*RES
1 *2919:Y *390:4 1.6 
2 *390:4 *2920:S 9.74 
3 *390:4 *2922:S 10.55 
*END

*D_NET *391 0.000146421
*CONN
*I *2921:A I *D sky130_fd_sc_hd__clkbuf_1
*I *2920:X O *D sky130_fd_sc_hd__mux2_1
*CAP
1 *2921:A 5.94533e-05
2 *2920:X 5.94533e-05
3 *2920:A1 *2921:A 2.75145e-05
*RES
1 *2920:X *2921:A 4.265 
*END

*D_NET *392 0.0011967
*CONN
*I *2923:A I *D sky130_fd_sc_hd__clkbuf_1
*I *2922:X O *D sky130_fd_sc_hd__mux2_1
*CAP
1 *2923:A 0.000267577
2 *2922:X 0.000267577
3 *2923:A *500:93 2.47705e-05
4 *2919:B *2923:A 8.64421e-05
5 *2920:S *2923:A 0.000160125
6 *2922:S *2923:A 7.20243e-05
7 *324:8 *2923:A 2.61633e-05
8 *324:24 *2923:A 0.000232116
9 *370:30 *2923:A 5.99048e-05
*RES
1 *2922:X *2923:A 13.59 
*END

*D_NET *393 0.0307264
*CONN
*I *3103:A I *D sky130_fd_sc_hd__nor2_1
*I *3018:A I *D sky130_fd_sc_hd__nor2_1
*I *2925:B I *D sky130_fd_sc_hd__nor2_1
*I *2599:A I *D sky130_fd_sc_hd__or2_1
*I *2924:X O *D sky130_fd_sc_hd__or3b_4
*CAP
1 *3103:A 0.0010264
2 *3018:A 0.00194965
3 *2925:B 0.00195142
4 *2599:A 4.61868e-05
5 *2924:X 0.000736818
6 *393:50 0.00656458
7 *393:31 0.00599538
8 *393:12 0.00123842
9 *2599:A *2599:B 8.41384e-05
10 *2599:A *2601:A 0.000194299
11 *2925:B *394:16 8.7152e-06
12 *2925:B *681:18 0.00388037
13 *3018:A *2690:A1 0.000135258
14 *3018:A *2706:B2 3.79595e-05
15 *3018:A *419:75 3.1191e-05
16 *3018:A *443:12 0
17 *3018:A *475:45 0.000105114
18 *3103:A *3103:B 8.58063e-05
19 *3103:A *3221:CLK 0
20 *3103:A *475:45 0.000161365
21 *3103:A *500:69 7.28993e-05
22 *3103:A *835:10 1.91597e-05
23 *393:12 *528:27 0.000122912
24 *393:12 *528:68 0.00089621
25 *393:12 *528:125 0.000105393
26 *393:31 *2739:A1 7.20795e-06
27 *393:31 *2790:A1 0.000157595
28 *393:31 *3114:A 0
29 *393:31 *914:10 3.95347e-05
30 *393:50 *3114:A 0
31 *2750:A *393:12 0
32 *2755:B1 *393:31 0.000172772
33 *2755:B1 *393:50 0.00139189
34 *2756:B1 *3018:A 0
35 *2790:A3 *393:31 0.000262642
36 *2904:A *393:31 1.88602e-05
37 *2930:C *393:12 1.01276e-05
38 *2995:A *3103:A 0.000289457
39 *3220:D *3103:A 0
40 *3252:D *393:12 7.15221e-05
41 *3287:A *3018:A 0.000372504
42 *3287:A *393:50 0
43 *181:106 *2925:B 0.000944663
44 *181:106 *393:31 1.81196e-05
45 *183:52 *2925:B 0.000197334
46 *187:83 *2925:B 3.85204e-05
47 *207:28 *393:12 0.000153004
48 *212:56 *393:31 4.10263e-05
49 *316:80 *2599:A 6.13343e-05
50 *317:69 *393:12 1.77893e-05
51 *317:73 *393:12 3.03135e-05
52 *318:69 *393:12 2.85515e-05
53 *339:106 *393:12 0
54 *348:128 *3103:A 0.000118521
55 *349:12 *393:12 0.000833421
56 *349:12 *393:31 0
57 *389:63 *393:50 0
*RES
1 *2924:X *393:12 21.78 
2 *393:12 *2599:A 5.43 
3 *393:12 *393:31 6.18943 
4 *393:31 *2925:B 11.0978 
5 *393:31 *393:50 7.08413 
6 *393:50 *3018:A 12.0668 
7 *393:50 *3103:A 16.3921 
*END

*D_NET *394 0.00188347
*CONN
*I *2928:S I *D sky130_fd_sc_hd__mux2_1
*I *2926:S I *D sky130_fd_sc_hd__mux2_1
*I *2925:Y O *D sky130_fd_sc_hd__nor2_1
*CAP
1 *2928:S 0
2 *2926:S 5.65945e-05
3 *2925:Y 0.000206002
4 *394:16 0.000262597
5 *2926:S *3158:CLK 0.000155234
6 *394:16 *2805:A1 0.000183221
7 *394:16 *2935:A 0.00011852
8 *394:16 *905:8 0.000308719
9 *2725:A2 *394:16 1.76774e-05
10 *2925:B *394:16 8.7152e-06
11 *2926:A1 *2926:S 0.000112123
12 *181:106 *394:16 2.0851e-06
13 *187:83 *394:16 1.92605e-05
14 *349:67 *394:16 0.000381088
15 *366:51 *2926:S 5.16348e-05
*RES
1 *2925:Y *394:16 11.855 
2 *394:16 *2926:S 7.49 
3 *394:16 *2928:S 1.6 
*END

*D_NET *395 0.000337555
*CONN
*I *2927:A I *D sky130_fd_sc_hd__clkbuf_1
*I *2926:X O *D sky130_fd_sc_hd__mux2_1
*CAP
1 *2927:A 0.000107873
2 *2926:X 0.000107873
3 *2927:A *2926:A0 7.23602e-05
4 *2927:A *3394:A 0
5 *2927:A *606:51 4.94474e-05
*RES
1 *2926:X *2927:A 9.03 
*END

*D_NET *396 0.00101788
*CONN
*I *2929:A I *D sky130_fd_sc_hd__clkbuf_1
*I *2928:X O *D sky130_fd_sc_hd__mux2_1
*CAP
1 *2929:A 0.000320407
2 *2928:X 0.000320407
3 *2929:A *2805:B2 0.000350615
4 *2929:A *905:8 2.64559e-05
5 *366:51 *2929:A 0
*RES
1 *2928:X *2929:A 12.795 
*END

*D_NET *397 0.0233895
*CONN
*I *2604:A I *D sky130_fd_sc_hd__or2_1
*I *3023:A I *D sky130_fd_sc_hd__or2_1
*I *3109:A I *D sky130_fd_sc_hd__or2_1
*I *2931:B I *D sky130_fd_sc_hd__or2_1
*I *2930:X O *D sky130_fd_sc_hd__or4b_4
*CAP
1 *2604:A 0
2 *3023:A 0.000741718
3 *3109:A 1.65033e-05
4 *2931:B 0.00227211
5 *2930:X 0.000587143
6 *397:59 0.00240987
7 *397:22 0.0043137
8 *397:18 0.000977082
9 *2931:B *620:46 4.41011e-05
10 *2931:B *681:18 0.0012832
11 *2931:B *764:64 0.00012383
12 *3023:A *3095:A 4.82863e-05
13 *3023:A *3110:A1 0.000160641
14 *3023:A *3110:S 4.82863e-05
15 *3023:A *3112:S 8.87275e-05
16 *3023:A *3120:A0 0.000134314
17 *3023:A *3383:A 0.000190633
18 *3023:A *443:22 0.0011536
19 *3023:A *443:122 0.000503702
20 *3023:A *475:45 2.92496e-05
21 *3023:A *500:83 0.000105266
22 *3023:A *834:14 1.16578e-05
23 *3023:A *840:8 8.35068e-05
24 *3109:A *475:49 4.66108e-05
25 *3109:A *511:126 2.49909e-05
26 *397:18 *2608:A 2.86691e-05
27 *397:18 *3468:A 8.57024e-05
28 *397:18 *413:10 0.00024207
29 *397:18 *413:72 0.000258342
30 *397:18 *563:6 4.77807e-05
31 *397:22 *2752:A1 0.000449001
32 *397:59 *2736:A 6.1714e-05
33 *397:59 *2752:A1 0.00011781
34 *397:59 *2975:A 6.14983e-05
35 *397:59 *2983:A0 0
36 *397:59 *2983:A1 0
37 *397:59 *431:10 0.000505357
38 *397:59 *475:45 4.1977e-05
39 *397:59 *500:83 7.30547e-05
40 *2684:B1 *3023:A 0.000144047
41 *2710:B1 *397:59 8.15598e-05
42 *2722:A2 *397:59 0
43 *2722:C1 *397:59 4.94326e-05
44 *2750:A *397:18 0
45 *2750:A *397:22 0.00102799
46 *2750:A *397:59 0.00016887
47 *2753:D *397:59 4.05358e-05
48 *2754:B *397:59 2.75716e-05
49 *2766:A2 *397:59 0
50 *2766:B1 *3023:A 3.09451e-05
51 *2769:B2 *397:59 0.000298837
52 *2782:B1 *397:59 0.00019145
53 *2791:C1 *397:59 0
54 *2792:A1 *397:59 0.00108055
55 *2792:A2 *397:59 0.000163218
56 *2811:A1 *397:18 5.80063e-05
57 *2811:A2 *397:18 8.29388e-05
58 *3066:A *397:59 0
59 *3216:D *3023:A 0.000152851
60 *3287:A *2931:B 4.34795e-05
61 *3457:A *397:18 0.000112893
62 *177:39 *397:59 0
63 *183:143 *3023:A 0.000614367
64 *193:44 *397:59 5.16348e-05
65 *193:54 *397:59 0
66 *207:80 *397:18 0
67 *231:14 *2931:B 0
68 *322:104 *397:59 0.000295685
69 *356:67 *2931:B 0.00120846
70 *362:60 *397:59 9.25025e-05
*RES
1 *2930:X *397:18 17.63 
2 *397:18 *397:22 14.2175 
3 *397:22 *2931:B 11.4807 
4 *397:22 *397:59 37.5225 
5 *397:59 *3109:A 4.05 
6 *397:59 *3023:A 28.92 
7 *397:18 *2604:A 1.6 
*END

*D_NET *398 0.00114794
*CONN
*I *2934:S I *D sky130_fd_sc_hd__mux2_1
*I *2932:S I *D sky130_fd_sc_hd__mux2_1
*I *2931:X O *D sky130_fd_sc_hd__or2_1
*CAP
1 *2934:S 7.34598e-05
2 *2932:S 8.37478e-05
3 *2931:X 0.000126062
4 *398:6 0.000283269
5 *2932:S *2728:A2 6.16894e-05
6 *2932:S *405:66 0.000113905
7 *2934:S *2934:A1 4.82919e-05
8 *2931:A *398:6 8.51879e-05
9 *356:79 *2934:S 1.33285e-05
10 *356:95 *2934:S 8.49205e-05
11 *356:95 *398:6 0.000174081
*RES
1 *2931:X *398:6 4.12 
2 *398:6 *2932:S 7.595 
3 *398:6 *2934:S 3.085 
*END

*D_NET *399 0.000991473
*CONN
*I *2933:A I *D sky130_fd_sc_hd__clkbuf_1
*I *2932:X O *D sky130_fd_sc_hd__mux2_1
*CAP
1 *2933:A 0.000129486
2 *2932:X 0.000129486
3 *2933:A *3450:A 4.77757e-05
4 *2933:A *405:66 6.28843e-05
5 *2933:A *904:8 0.000116165
6 *363:26 *2933:A 0.000165373
7 *370:30 *2933:A 0.000340303
*RES
1 *2932:X *2933:A 11.79 
*END

*D_NET *400 0.00114405
*CONN
*I *2935:A I *D sky130_fd_sc_hd__clkbuf_1
*I *2934:X O *D sky130_fd_sc_hd__mux2_1
*CAP
1 *2935:A 0.000305053
2 *2934:X 0.000305053
3 *187:83 *2935:A 6.55328e-05
4 *356:95 *2935:A 0.000349895
5 *394:16 *2935:A 0.00011852
*RES
1 *2934:X *2935:A 12.135 
*END

*D_NET *401 0.0320913
*CONN
*I *3114:A I *D sky130_fd_sc_hd__nor2_1
*I *2609:A I *D sky130_fd_sc_hd__or2_1
*I *2937:B I *D sky130_fd_sc_hd__nor2_1
*I *3028:A I *D sky130_fd_sc_hd__nor2_1
*I *2936:X O *D sky130_fd_sc_hd__or3_4
*CAP
1 *3114:A 0.00652852
2 *2609:A 0
3 *2937:B 5.81927e-05
4 *3028:A 0.00196696
5 *2936:X 2.29747e-05
6 *401:34 0.00343925
7 *401:22 0.00317962
8 *401:10 0.00831702
9 *2937:B *2728:B2 3.00335e-05
10 *2937:B *405:66 1.79483e-05
11 *2937:B *620:46 5.05066e-06
12 *3028:A *2757:A1 4.66108e-05
13 *3028:A *3028:B 9.50342e-06
14 *3028:A *3032:A 4.66108e-05
15 *3028:A *3038:A 0.00262743
16 *3028:A *405:66 0.00011656
17 *3028:A *620:46 0.000325595
18 *3114:A *591:18 0
19 *3114:A *591:26 0
20 *401:22 *2609:B 2.75145e-05
21 *401:22 *528:43 5.74791e-05
22 *401:22 *529:8 0.00010467
23 *401:22 *566:10 2.7441e-05
24 *401:34 *2802:A1 0
25 *401:34 *2802:A2 0
26 *401:34 *2806:B2 0.000431863
27 *401:34 *3240:CLK 0
28 *401:34 *3350:A 7.29214e-05
29 *401:34 *405:66 0
30 *401:34 *566:10 8.57024e-05
31 *401:34 *601:12 0
32 *2720:B *401:22 0
33 *2730:B *401:34 7.1624e-05
34 *2730:C *401:34 0.000112595
35 *2734:A2 *3028:A 0.000155582
36 *2755:B1 *3114:A 0
37 *2809:A1 *401:34 0.00052231
38 *3240:D *401:34 0
39 *176:101 *3114:A 3.99395e-05
40 *187:83 *3028:A 0
41 *197:152 *3114:A 0.000138483
42 *215:16 *401:22 0.00050609
43 *218:20 *3114:A 0
44 *218:20 *401:22 0
45 *320:16 *401:22 0.000106973
46 *339:91 *401:10 3.82018e-05
47 *355:98 *3114:A 3.99395e-05
48 *355:125 *3114:A 9.50342e-06
49 *369:18 *3114:A 0.000326067
50 *369:18 *401:22 0.00210273
51 *378:35 *401:10 1.12196e-05
52 *389:22 *3114:A 3.2305e-05
53 *389:63 *3114:A 0.000332221
54 *393:31 *3114:A 0
55 *393:50 *3114:A 0
*RES
1 *2936:X *401:10 4.5875 
2 *401:10 *401:22 10.7757 
3 *401:22 *401:34 26.3234 
4 *401:34 *3028:A 12.0085 
5 *401:34 *2937:B 5.1425 
6 *401:22 *2609:A 1.6 
7 *401:10 *3114:A 16.6708 
*END

*D_NET *402 0.00142871
*CONN
*I *2940:S I *D sky130_fd_sc_hd__mux2_1
*I *2938:S I *D sky130_fd_sc_hd__mux2_1
*I *2937:Y O *D sky130_fd_sc_hd__nor2_1
*CAP
1 *2940:S 0.000126408
2 *2938:S 9.37526e-05
3 *2937:Y 0.000242038
4 *402:8 0.000462199
5 *2940:S *2728:B2 2.49909e-05
6 *2940:S *901:12 4.66108e-05
7 *402:8 *2728:B2 6.98693e-05
8 *402:8 *2807:B2 0.000160342
9 *2940:A1 *2940:S 7.03512e-05
10 *366:51 *2938:S 5.87474e-05
11 *366:51 *2940:S 7.33965e-05
*RES
1 *2937:Y *402:8 7.845 
2 *402:8 *2938:S 5.49 
3 *402:8 *2940:S 6.45 
*END

*D_NET *403 0.000428638
*CONN
*I *2939:A I *D sky130_fd_sc_hd__clkbuf_1
*I *2938:X O *D sky130_fd_sc_hd__mux2_1
*CAP
1 *2939:A 0.000122567
2 *2938:X 0.000122567
3 *2890:A1 *2939:A 3.0933e-05
4 *2890:S *2939:A 7.92354e-05
5 *366:51 *2939:A 7.33357e-05
*RES
1 *2938:X *2939:A 9.63 
*END

*D_NET *404 0.000489118
*CONN
*I *2941:A I *D sky130_fd_sc_hd__clkbuf_1
*I *2940:X O *D sky130_fd_sc_hd__mux2_1
*CAP
1 *2941:A 0.000119275
2 *2940:X 0.000119275
3 *2941:A *2807:B2 0.000108618
4 *2941:A *3319:A 7.03276e-05
5 *3161:D *2941:A 7.1624e-05
*RES
1 *2940:X *2941:A 9.93 
*END

*D_NET *405 0.0218311
*CONN
*I *3033:A I *D sky130_fd_sc_hd__or2_1
*I *3119:A I *D sky130_fd_sc_hd__or2_1
*I *2943:B I *D sky130_fd_sc_hd__or2_1
*I *2614:A I *D sky130_fd_sc_hd__or2_1
*I *2942:X O *D sky130_fd_sc_hd__or4b_4
*CAP
1 *3033:A 0.000248567
2 *3119:A 0.00054183
3 *2943:B 5.8528e-05
4 *2614:A 0
5 *2942:X 0.000426014
6 *405:68 0.00164033
7 *405:66 0.00239045
8 *405:35 0.00334115
9 *405:18 0.00216812
10 *2943:B *2952:S 0
11 *3033:A *2689:A2 9.53428e-06
12 *3033:A *3024:A0 0
13 *3033:A *430:130 0
14 *3033:A *443:52 3.09233e-05
15 *3033:A *764:64 0.000113066
16 *3033:A *764:66 0.000157959
17 *3119:A *3051:B 0.000347316
18 *3119:A *3054:A0 0.000201508
19 *3119:A *3054:S 0.000205411
20 *3119:A *3055:A 5.05521e-05
21 *3119:A *430:130 0.000550303
22 *3119:A *443:40 3.90495e-05
23 *3119:A *443:52 0.00046451
24 *3119:A *828:10 5.01257e-05
25 *405:18 *2713:A1 5.04273e-05
26 *405:18 *3427:A 2.77283e-05
27 *405:18 *854:16 2.77183e-05
28 *405:35 *2569:S 5.26447e-05
29 *405:35 *2570:A 6.03532e-05
30 *405:35 *2571:A0 0.000201081
31 *405:35 *2719:B2 0.000353994
32 *405:35 *2793:B2 8.49205e-05
33 *405:35 *813:12 8.23457e-05
34 *405:66 *2728:A1 0.000105695
35 *405:66 *2728:A2 5.87711e-05
36 *405:66 *2802:A1 0.000116165
37 *405:66 *2802:A2 2.70233e-05
38 *405:66 *2950:A1 6.47594e-05
39 *405:66 *3038:A 0.000237795
40 *405:66 *620:29 0.000104507
41 *405:66 *620:46 0.000560173
42 *405:66 *764:64 0.000795386
43 *405:66 *904:8 7.21296e-06
44 *405:68 *3038:A 8.28317e-05
45 *405:68 *3153:CLK 0
46 *405:68 *419:91 0.000187759
47 *405:68 *419:121 0.000273695
48 *405:68 *443:52 0.000561946
49 *405:68 *591:220 0
50 *405:68 *764:64 0.000774645
51 *2571:A1 *405:35 0.000161985
52 *2690:C1 *3033:A 0.000347023
53 *2713:A2 *405:18 0.000139566
54 *2714:C1 *405:18 7.4027e-05
55 *2720:A *405:35 0.000158532
56 *2720:C *405:35 0.000278405
57 *2721:A2 *405:35 9.16017e-05
58 *2723:A2 *405:66 0.000316813
59 *2726:A2 *405:66 0
60 *2786:C1 *405:68 0.000343132
61 *2793:A2 *405:18 0.000198652
62 *2793:A2 *405:35 0.000104341
63 *2793:B1 *405:35 2.49909e-05
64 *2794:B1 *405:35 8.40269e-05
65 *2907:B *405:18 0
66 *2907:B *405:35 0
67 *2915:A *405:66 5.21742e-05
68 *2915:A *405:68 2.56866e-05
69 *2932:A0 *405:66 1.83847e-05
70 *2932:S *405:66 0.000113905
71 *2933:A *405:66 6.28843e-05
72 *2937:B *405:66 1.79483e-05
73 *2943:A *405:66 2.63122e-05
74 *3028:A *405:66 0.00011656
75 *3127:D *405:66 0.000297855
76 *3152:D *405:66 0.000141606
77 *3226:D *3119:A 0.000153984
78 *3240:D *405:35 4.99619e-05
79 *187:33 *405:35 9.8249e-05
80 *211:32 *405:18 1.51976e-05
81 *218:109 *405:66 0
82 *316:82 *405:18 3.00525e-05
83 *324:36 *405:66 0.000156961
84 *324:63 *405:66 0.00018429
85 *324:74 *405:66 1.12082e-05
86 *349:38 *405:66 0
87 *401:34 *405:66 0
*RES
1 *2942:X *405:18 13.145 
2 *405:18 *2614:A 1.6 
3 *405:18 *405:35 27.96 
4 *405:35 *2943:B 2.41 
5 *405:35 *405:66 41.6025 
6 *405:66 *405:68 22.6725 
7 *405:68 *3119:A 19.005 
8 *405:68 *3033:A 9.93 
*END

*D_NET *406 0.0012402
*CONN
*I *2946:S I *D sky130_fd_sc_hd__mux2_1
*I *2944:S I *D sky130_fd_sc_hd__mux2_1
*I *2943:X O *D sky130_fd_sc_hd__or2_1
*CAP
1 *2946:S 0
2 *2944:S 0.000140068
3 *2943:X 0.000279431
4 *406:8 0.000419499
5 *2944:S *2944:A1 8.65905e-05
6 *2944:S *2946:A1 5.53249e-06
7 *2944:S *2952:A1 0
8 *2944:S *2952:S 0
9 *406:8 *2952:S 2.75229e-05
10 *2802:C1 *2944:S 8.65905e-05
11 *2952:A0 *406:8 0.000118207
12 *211:65 *2944:S 7.67552e-05
*RES
1 *2943:X *406:8 6.205 
2 *406:8 *2944:S 8.795 
3 *406:8 *2946:S 1.6 
*END

*D_NET *407 0.000650549
*CONN
*I *2945:A I *D sky130_fd_sc_hd__clkbuf_1
*I *2944:X O *D sky130_fd_sc_hd__mux2_1
*CAP
1 *2945:A 0.000183475
2 *2944:X 0.000183475
3 *2945:A *2801:A1 6.55328e-05
4 *2945:A *2801:A2 4.77719e-05
5 *2945:A *2801:B2 3.7837e-05
6 *2945:A *900:10 1.56908e-05
7 *2801:B1 *2945:A 4.18398e-05
8 *2802:C1 *2945:A 7.14241e-05
9 *2871:S *2945:A 3.50152e-06
*RES
1 *2944:X *2945:A 11.115 
*END

*D_NET *408 0.000227866
*CONN
*I *2947:A I *D sky130_fd_sc_hd__clkbuf_1
*I *2946:X O *D sky130_fd_sc_hd__mux2_1
*CAP
1 *2947:A 0.000113933
2 *2946:X 0.000113933
*RES
1 *2946:X *2947:A 8.94 
*END

*D_NET *409 0.0361904
*CONN
*I *3124:A I *D sky130_fd_sc_hd__or2_1
*I *2619:A I *D sky130_fd_sc_hd__or2_1
*I *3038:A I *D sky130_fd_sc_hd__or2_1
*I *2949:B I *D sky130_fd_sc_hd__or2_1
*I *2948:X O *D sky130_fd_sc_hd__or3_4
*CAP
1 *3124:A 0
2 *2619:A 7.03449e-05
3 *3038:A 0.0021139
4 *2949:B 4.83953e-05
5 *2948:X 0.000384521
6 *409:115 0.0012337
7 *409:84 0.00269362
8 *409:34 0.00480434
9 *409:12 0.00441613
10 *2619:A *2619:B 1.08758e-05
11 *2619:A *2621:A 4.00541e-06
12 *3038:A *2734:B2 0.000156032
13 *3038:A *3043:A 0.00339965
14 *3038:A *413:26 1.81196e-05
15 *3038:A *764:64 8.28317e-05
16 *409:12 *3307:A 0.000218623
17 *409:12 *528:10 0.000120102
18 *409:34 *2717:B2 0.00010231
19 *409:34 *413:26 4.2323e-05
20 *409:34 *591:26 0.000522499
21 *409:34 *591:80 0.000208201
22 *409:34 *620:29 4.31921e-05
23 *409:84 *2619:B 4.21973e-05
24 *409:84 *2621:A 9.57924e-05
25 *409:84 *2738:B2 6.13706e-05
26 *409:84 *3307:A 2.77384e-05
27 *409:84 *631:20 0.000168621
28 *409:84 *682:12 0.00054578
29 *409:115 *2743:A 4.41741e-05
30 *409:115 *2779:A 1.65192e-05
31 *409:115 *3050:A 0.000484922
32 *409:115 *3087:B 0.000457113
33 *409:115 *3088:S 0.000134098
34 *409:115 *3114:B 2.15594e-05
35 *409:115 *473:18 8.53113e-06
36 *409:115 *473:33 0.000447385
37 *409:115 *475:25 0.000538796
38 *409:115 *498:12 0.000189062
39 *409:115 *596:33 0.000183043
40 *409:115 *720:49 0.000117708
41 *409:115 *731:19 7.23602e-05
42 *409:115 *731:42 0.000330309
43 *2685:B *409:12 0
44 *2723:A2 *2949:B 1.91597e-05
45 *2723:A2 *3038:A 3.09233e-05
46 *2723:A2 *409:34 2.49909e-05
47 *2734:B1 *3038:A 0.000137364
48 *2749:B1 *409:115 0.000122331
49 *2755:B1 *409:84 0.000240719
50 *2780:D *409:115 2.16306e-05
51 *2783:C *409:115 0.000451598
52 *2809:A1 *409:34 7.47145e-05
53 *2918:C_N *409:12 0.000234651
54 *2919:B *409:84 5.31588e-05
55 *2943:A *3038:A 2.92496e-05
56 *2948:B *409:12 0
57 *3028:A *3038:A 0.00262743
58 *3056:A *409:115 0.000349111
59 *3177:D *409:115 0.000329818
60 *3261:D *2619:A 0
61 *172:27 *409:34 0
62 *181:10 *409:84 0.000673679
63 *187:57 *409:34 0.000104619
64 *187:124 *409:115 0.000136949
65 *197:42 *409:12 0.000264496
66 *197:70 *409:12 0.000206071
67 *197:70 *409:84 9.12814e-05
68 *208:24 *409:34 0.00136894
69 *218:63 *409:34 0.000810535
70 *218:109 *3038:A 0.000202317
71 *324:36 *3038:A 0.000256361
72 *324:49 *2949:B 4.82863e-05
73 *327:64 *2619:A 3.24984e-05
74 *327:64 *409:84 0.000191335
75 *327:91 *409:84 2.33678e-05
76 *343:51 *409:34 0.000171992
77 *348:91 *409:115 0.000736156
78 *355:40 *409:34 0.000214835
79 *355:82 *2619:A 4.66108e-05
80 *355:82 *409:115 0.000861799
81 *405:66 *3038:A 0.000237795
82 *405:68 *3038:A 8.28317e-05
*RES
1 *2948:X *409:12 13.6725 
2 *409:12 *409:34 23.7114 
3 *409:34 *2949:B 2.395 
4 *409:34 *3038:A 19.1024 
5 *409:12 *409:84 17.975 
6 *409:84 *2619:A 3.22 
7 *409:84 *409:115 48.665 
8 *409:115 *3124:A 1.6 
*END

*D_NET *410 0.00107807
*CONN
*I *2950:S I *D sky130_fd_sc_hd__mux2_1
*I *2952:S I *D sky130_fd_sc_hd__mux2_1
*I *2949:X O *D sky130_fd_sc_hd__or2_1
*CAP
1 *2950:S 2.2266e-05
2 *2952:S 0.000189453
3 *2949:X 0.000228677
4 *410:10 0.000440397
5 *2952:S *2802:B2 0
6 *410:10 *2951:A 0
7 *410:10 *2955:B 9.50342e-06
8 *410:10 *3164:CLK 6.36656e-05
9 *2802:C1 *2950:S 4.82919e-05
10 *2943:A *410:10 0
11 *2943:B *2952:S 0
12 *2944:S *2952:S 0
13 *2955:A *410:10 4.82919e-05
14 *406:8 *2952:S 2.75229e-05
*RES
1 *2949:X *410:10 7.725 
2 *410:10 *2952:S 6.66 
3 *410:10 *2950:S 4.05 
*END

*D_NET *411 0.000804703
*CONN
*I *2951:A I *D sky130_fd_sc_hd__clkbuf_1
*I *2950:X O *D sky130_fd_sc_hd__mux2_1
*CAP
1 *2951:A 0.000267486
2 *2950:X 0.000267486
3 *2951:A *2801:A2 2.63378e-05
4 *2951:A *2944:A1 2.87867e-05
5 *2951:A *2955:B 0
6 *2723:A2 *2951:A 0.000160635
7 *3164:D *2951:A 5.39718e-05
8 *211:65 *2951:A 0
9 *410:10 *2951:A 0
*RES
1 *2950:X *2951:A 12.105 
*END

*D_NET *412 0.000426148
*CONN
*I *2953:A I *D sky130_fd_sc_hd__clkbuf_1
*I *2952:X O *D sky130_fd_sc_hd__mux2_1
*CAP
1 *2953:A 0.00020252
2 *2952:X 0.00020252
3 *2953:A *2946:A1 2.11084e-05
4 *2953:A *2952:A1 0
*RES
1 *2952:X *2953:A 10.425 
*END

*D_NET *413 0.0375399
*CONN
*I *2541:A I *D sky130_fd_sc_hd__or2_1
*I *2624:A I *D sky130_fd_sc_hd__or2_1
*I *3043:A I *D sky130_fd_sc_hd__or2_1
*I *2955:B I *D sky130_fd_sc_hd__or2_1
*I *2954:X O *D sky130_fd_sc_hd__or4_4
*CAP
1 *2541:A 0.00544584
2 *2624:A 2.08101e-05
3 *3043:A 0.00339009
4 *2955:B 0.000408306
5 *2954:X 0.000276639
6 *413:72 0.00725806
7 *413:26 0.00660318
8 *413:10 0.00487283
9 *2541:A *2625:A1 0
10 *2541:A *2771:A 0.000137597
11 *2541:A *2810:B1 3.79555e-05
12 *2541:A *3269:D 0.000378839
13 *2541:A *3270:D 0.00019548
14 *2541:A *604:60 1.5567e-05
15 *2541:A *609:12 0.000102833
16 *2541:A *609:53 0.000104423
17 *2541:A *631:41 8.98033e-05
18 *2541:A *720:49 0
19 *2955:B *2801:A2 0
20 *2955:B *3164:CLK 0.000193338
21 *2955:B *600:23 0.000136079
22 *3043:A *2688:A2 0
23 *3043:A *606:30 0.000124887
24 *3043:A *620:46 0.000158665
25 *3043:A *865:12 6.44676e-05
26 *413:26 *2795:A1 4.80085e-05
27 *413:26 *3420:A 0.000131175
28 *413:72 *2624:B 2.75145e-05
29 *413:72 *604:10 0.000105515
30 *413:72 *604:60 0.000157901
31 *2688:B1 *3043:A 7.63204e-05
32 *2702:B *413:72 5.29788e-05
33 *2702:C *413:72 1.27656e-05
34 *2750:A *413:10 0
35 *2750:A *413:72 0
36 *2758:C1 *3043:A 3.89528e-05
37 *2796:A2 *413:72 0.000636237
38 *2800:A2 *413:26 9.53428e-06
39 *2800:A3 *413:26 8.40269e-05
40 *2800:B1 *413:26 9.94984e-05
41 *2833:A1 *413:26 0.000268745
42 *2930:A *413:10 1.16283e-05
43 *2930:B *413:10 6.38291e-05
44 *2951:A *2955:B 0
45 *3038:A *3043:A 0.00339965
46 *3038:A *413:26 1.81196e-05
47 *3263:D *2541:A 0.000119756
48 *3457:A *413:10 2.15594e-05
49 *3460:A *413:72 0.000158553
50 *3470:A *413:10 0
51 *174:102 *413:26 0.000210961
52 *187:83 *3043:A 5.20196e-05
53 *187:124 *2541:A 0
54 *193:132 *2541:A 8.75474e-05
55 *207:28 *413:10 4.82919e-05
56 *208:24 *413:26 0.00039259
57 *322:85 *413:10 7.06865e-05
58 *327:33 *2541:A 0.00015777
59 *329:109 *413:10 8.53113e-06
60 *348:28 *413:10 7.17841e-05
61 *348:91 *2541:A 3.96088e-05
62 *355:40 *413:26 0.000133592
63 *358:37 *413:26 0
64 *362:35 *413:26 0.000125711
65 *382:10 *413:10 3.05712e-05
66 *397:18 *413:10 0.00024207
67 *397:18 *413:72 0.000258342
68 *409:34 *413:26 4.2323e-05
69 *410:10 *2955:B 9.50342e-06
*RES
1 *2954:X *413:10 9 
2 *413:10 *413:26 20.3954 
3 *413:26 *2955:B 9.55443 
4 *413:26 *3043:A 14.8817 
5 *413:10 *413:72 27.2 
6 *413:72 *2624:A 1.96 
7 *413:72 *2541:A 18.1345 
*END

*D_NET *414 0.0037238
*CONN
*I *2958:S I *D sky130_fd_sc_hd__mux2_1
*I *2956:S I *D sky130_fd_sc_hd__mux2_1
*I *2955:X O *D sky130_fd_sc_hd__or2_1
*CAP
1 *2958:S 0.000303432
2 *2956:S 9.99685e-05
3 *2955:X 0.000532207
4 *414:10 0.000935607
5 *2956:S *926:8 8.40213e-05
6 *414:10 *2723:B2 6.42348e-05
7 *414:10 *926:8 0.000460865
8 *2723:A2 *414:10 0.000274659
9 *2723:B1 *414:10 4.82863e-05
10 *2724:C1 *414:10 0.000122337
11 *2871:S *2958:S 0
12 *3162:D *2958:S 5.72091e-05
13 *349:98 *2956:S 4.91189e-05
14 *349:119 *414:10 2.96845e-05
15 *353:22 *2958:S 0
16 *356:103 *2956:S 0.00011852
17 *356:103 *2958:S 0.000183043
18 *356:107 *2958:S 0.000360611
*RES
1 *2955:X *414:10 10.795 
2 *414:10 *2956:S 7.775 
3 *414:10 *2958:S 12.59 
*END

*D_NET *415 0.000773717
*CONN
*I *2957:A I *D sky130_fd_sc_hd__clkbuf_1
*I *2956:X O *D sky130_fd_sc_hd__mux2_1
*CAP
1 *2957:A 0.000366591
2 *2956:X 0.000366591
3 *2957:A *600:73 0
4 *2957:A *894:12 0
5 *3166:D *2957:A 4.05358e-05
*RES
1 *2956:X *2957:A 11.79 
*END

*D_NET *416 0.00159091
*CONN
*I *2959:A I *D sky130_fd_sc_hd__clkbuf_1
*I *2958:X O *D sky130_fd_sc_hd__mux2_1
*CAP
1 *2959:A 0.000674411
2 *2958:X 0.000674411
3 *2959:A *3167:CLK 0
4 *2959:A *893:8 1.7386e-05
5 *3167:D *2959:A 0.000224699
*RES
1 *2958:X *2959:A 15.585 
*END

*D_NET *417 0.0151852
*CONN
*I *3002:A I *D sky130_fd_sc_hd__inv_2
*I *2980:B I *D sky130_fd_sc_hd__or2_1
*I *2961:B I *D sky130_fd_sc_hd__or2_1
*I *2990:B I *D sky130_fd_sc_hd__nor2_1
*I *2996:B I *D sky130_fd_sc_hd__nor2_1
*I *2973:B I *D sky130_fd_sc_hd__or2_1
*I *2985:B I *D sky130_fd_sc_hd__nor2_1
*I *2968:B I *D sky130_fd_sc_hd__or2_1
*I *2960:Y O *D sky130_fd_sc_hd__nand3b_4
*CAP
1 *3002:A 0.00129665
2 *2980:B 0.000160044
3 *2961:B 0
4 *2990:B 9.43001e-05
5 *2996:B 0.000175441
6 *2973:B 1.89267e-05
7 *2985:B 0
8 *2968:B 8.66584e-05
9 *2960:Y 0.000180184
10 *417:98 0.000661463
11 *417:92 0.00079903
12 *417:73 0.000472481
13 *417:58 0.000706855
14 *417:50 0.00190619
15 *417:39 0.000480348
16 *417:10 0.000600361
17 *2968:B *596:16 8.30853e-06
18 *2990:B *428:65 0.000348904
19 *2996:B *3082:A0 4.66108e-05
20 *2996:B *3082:A1 9.85933e-05
21 *2996:B *3082:S 4.66108e-05
22 *2996:B *3084:A1 0.000361524
23 *2996:B *441:10 4.89395e-05
24 *3002:A *2988:A0 7.03276e-05
25 *3002:A *3003:A 1.78306e-05
26 *3002:A *3087:A 0.000301905
27 *3002:A *3087:B 0.00015639
28 *3002:A *3177:CLK 2.49909e-05
29 *3002:A *498:12 8.73389e-06
30 *3002:A *731:42 0.000400656
31 *3002:A *731:56 4.29198e-05
32 *417:10 *3407:A 0.000120655
33 *417:39 *2986:S 3.57349e-05
34 *417:39 *434:6 8.23457e-05
35 *417:39 *596:16 0.000264167
36 *417:50 *596:12 4.02728e-05
37 *417:50 *596:16 0.000198242
38 *417:58 *2977:S 0.000109265
39 *417:58 *426:6 0.000436038
40 *417:73 *3082:S 0.000109489
41 *417:73 *3084:S 0.00021993
42 *417:73 *591:132 0.00024725
43 *417:73 *591:149 0.000134583
44 *417:92 *3082:S 1.96118e-05
45 *417:98 *3212:CLK 2.49909e-05
46 *417:98 *428:65 1.17409e-05
47 *2744:C1 *3002:A 0.000238231
48 *2746:C *417:58 1.79445e-05
49 *2762:A2 *2980:B 0.000105002
50 *2762:A2 *417:73 0.000147194
51 *2762:A2 *417:92 5.19173e-05
52 *2774:C *3002:A 8.53011e-05
53 *2780:B *3002:A 4.72912e-05
54 *2781:B *3002:A 2.46007e-05
55 *2783:D *417:39 7.06865e-05
56 *2791:A2 *2990:B 0.000138092
57 *2885:A *2980:B 0.000199607
58 *2961:A *417:98 9.55262e-05
59 *2964:A1 *2980:B 1.07797e-05
60 *2968:A *2968:B 1.05476e-05
61 *2973:A *417:73 3.82018e-05
62 *2996:A *2996:B 0.000115639
63 *3049:A *417:98 2.62017e-05
64 *3115:A1 *3002:A 7.66811e-05
65 *3176:D *417:10 6.55706e-05
66 *3176:D *417:39 3.09233e-05
67 *3177:D *3002:A 6.23115e-05
68 *3212:D *417:98 3.03807e-05
69 *3224:D *3002:A 0
70 *174:80 *417:10 0.000267325
71 *176:18 *3002:A 3.16427e-06
72 *176:20 *3002:A 8.50801e-06
73 *176:20 *417:58 0.000119742
74 *176:29 *2973:B 2.69217e-05
75 *176:29 *417:58 5.85705e-05
76 *176:31 *2973:B 5.83121e-06
77 *177:135 *417:50 0
78 *183:110 *3002:A 0
79 *183:110 *417:39 0.000173758
80 *187:124 *3002:A 9.1113e-06
81 *211:122 *417:39 0
82 *212:109 *417:58 1.32026e-05
83 *212:113 *2973:B 2.49909e-05
84 *212:113 *417:58 0.000549742
85 *218:152 *417:39 0
86 *348:91 *3002:A 4.24562e-05
87 *366:113 *2980:B 0.000342982
88 *366:125 *2980:B 0.000101317
89 *366:125 *417:73 5.1985e-06
90 *366:125 *417:92 6.47731e-05
91 *378:56 *417:73 2.53191e-06
*RES
1 *2960:Y *417:10 7.755 
2 *417:10 *2968:B 5.115 
3 *417:10 *417:39 10.945 
4 *417:39 *2985:B 3.6 
5 *417:39 *417:50 4.91 
6 *417:50 *417:58 11.97 
7 *417:58 *2973:B 2.05 
8 *417:58 *417:73 8.525 
9 *417:73 *2996:B 9.12 
10 *417:73 *417:92 1.635 
11 *417:92 *417:98 8.84 
12 *417:98 *2990:B 4.81 
13 *417:98 *2961:B 1.6 
14 *417:92 *2980:B 9.21 
15 *417:50 *3002:A 28.445 
*END

*D_NET *418 0.000726841
*CONN
*I *2962:A I *D sky130_fd_sc_hd__buf_2
*I *2961:X O *D sky130_fd_sc_hd__or2_1
*CAP
1 *2962:A 0.000187772
2 *2961:X 0.000187772
3 *2792:A1 *2962:A 0.000112123
4 *2792:B1 *2962:A 4.11281e-05
5 *2961:A *2962:A 0.000198046
*RES
1 *2961:X *2962:A 10.41 
*END

*D_NET *419 0.0179243
*CONN
*I *3008:B I *D sky130_fd_sc_hd__nor2_1
*I *3023:B I *D sky130_fd_sc_hd__or2_1
*I *3033:B I *D sky130_fd_sc_hd__or2_1
*I *3043:B I *D sky130_fd_sc_hd__or2_1
*I *3038:B I *D sky130_fd_sc_hd__or2_1
*I *3028:B I *D sky130_fd_sc_hd__nor2_1
*I *3013:B I *D sky130_fd_sc_hd__nor2_1
*I *3018:B I *D sky130_fd_sc_hd__nor2_1
*I *2963:B I *D sky130_fd_sc_hd__nor2_1
*I *2962:X O *D sky130_fd_sc_hd__buf_2
*CAP
1 *3008:B 1.5099e-05
2 *3023:B 0
3 *3033:B 0.000122402
4 *3043:B 5.04167e-05
5 *3038:B 5.24807e-05
6 *3028:B 0.000239486
7 *3013:B 1.48768e-05
8 *3018:B 5.96272e-05
9 *2963:B 0
10 *2962:X 4.24256e-05
11 *419:121 0.000400617
12 *419:91 0.00035615
13 *419:85 0.0014214
14 *419:75 0.00182765
15 *419:47 0.000160138
16 *419:45 0.00124752
17 *419:39 0.00140349
18 *419:10 0.000967164
19 *3018:B *452:16 0.000123955
20 *3028:B *3029:A0 1.1668e-05
21 *3028:B *3200:CLK 0.00020951
22 *3028:B *467:14 0.00015639
23 *3028:B *620:46 0.000203829
24 *3033:B *2688:A2 3.09233e-05
25 *3033:B *764:64 0
26 *3038:B *3200:CLK 3.83194e-05
27 *3043:B *2688:A2 4.66742e-05
28 *419:39 *2704:A1 0
29 *419:39 *2709:A1 1.08758e-05
30 *419:39 *2709:B2 0.0002014
31 *419:39 *2767:B2 5.73518e-05
32 *419:39 *420:10 9.10429e-05
33 *419:39 *430:68 0.000134516
34 *419:39 *597:100 0.000122337
35 *419:39 *597:113 0.000345651
36 *419:39 *886:10 0.000116853
37 *419:45 *3222:CLK 8.53011e-05
38 *419:45 *834:14 4.66108e-05
39 *419:47 *452:16 1.14169e-05
40 *419:75 *2684:A1 2.747e-05
41 *419:75 *2690:A1 0.000155489
42 *419:75 *2759:A2 0.000331003
43 *419:75 *3024:A0 0
44 *419:75 *753:45 0.000852826
45 *419:85 *2759:A2 4.85989e-05
46 *419:85 *2786:A1 9.18292e-06
47 *419:85 *3024:A0 0
48 *419:85 *3053:A 7.06865e-05
49 *419:85 *3054:S 2.54523e-05
50 *419:85 *3055:A 3.1835e-05
51 *419:85 *3201:CLK 0.000111293
52 *419:85 *3289:A 3.0807e-05
53 *419:85 *3451:A 0.000284274
54 *419:85 *443:26 0
55 *419:85 *443:40 0.000124632
56 *419:85 *594:8 0
57 *419:85 *594:56 0
58 *419:91 *764:64 0.000189426
59 *419:121 *2688:A2 2.49909e-05
60 *419:121 *764:64 0.000263504
61 *2704:A2 *419:39 0.000113373
62 *2704:B1 *419:39 9.11408e-05
63 *2722:A2 *419:75 0.000347279
64 *2758:C1 *3033:B 0.000224487
65 *2762:A2 *419:39 0.000184253
66 *2769:A2 *419:39 0.000491731
67 *2770:B *419:39 0.000120655
68 *2770:C *419:39 2.77874e-05
69 *2792:A1 *419:10 2.37234e-05
70 *2792:A2 *419:85 0
71 *2792:B1 *419:10 0.000139245
72 *2792:B1 *419:39 5.00699e-05
73 *2999:A *419:39 0.000110494
74 *2999:A *419:45 0.000751423
75 *2999:A *419:75 5.00903e-05
76 *3008:A *419:39 0.000112264
77 *3013:A *419:45 0.00109336
78 *3013:A *419:47 8.23457e-05
79 *3018:A *419:75 3.1191e-05
80 *3028:A *3028:B 9.50342e-06
81 *3201:D *419:85 2.26018e-05
82 *3217:D *419:85 0
83 *3222:D *419:45 1.50897e-05
84 *3226:D *419:85 0
85 *3227:D *419:85 0.000286635
86 *187:83 *3028:B 0
87 *207:159 *419:10 7.70828e-05
88 *405:68 *419:91 0.000187759
89 *405:68 *419:121 0.000273695
*RES
1 *2962:X *419:10 7.235 
2 *419:10 *2963:B 1.6 
3 *419:10 *419:39 31.685 
4 *419:39 *419:45 14.625 
5 *419:45 *419:47 1.485 
6 *419:47 *3018:B 3.1 
7 *419:47 *3013:B 1.96 
8 *419:45 *419:75 21.6 
9 *419:75 *419:85 22.78 
10 *419:85 *419:91 4.505 
11 *419:91 *3028:B 10.985 
12 *419:91 *3038:B 2.395 
13 *419:85 *419:121 7.34 
14 *419:121 *3043:B 2.395 
15 *419:121 *3033:B 8.255 
16 *419:75 *3023:B 3.6 
17 *419:39 *3008:B 1.96 
*END

*D_NET *420 0.00269772
*CONN
*I *2966:S I *D sky130_fd_sc_hd__mux2_1
*I *2964:S I *D sky130_fd_sc_hd__mux2_1
*I *2963:Y O *D sky130_fd_sc_hd__nor2_1
*CAP
1 *2966:S 0.000397218
2 *2964:S 0
3 *2963:Y 0.00056225
4 *420:10 0.000959467
5 *2966:S *2966:A0 2.20544e-05
6 *2966:S *2967:A 0.000132885
7 *2966:S *428:57 0.00010404
8 *420:10 *428:57 0.000226265
9 *348:128 *2966:S 7.62605e-05
10 *348:128 *420:10 0.000126235
11 *419:39 *420:10 9.10429e-05
*RES
1 *2963:Y *420:10 12.915 
2 *420:10 *2964:S 3.6 
3 *420:10 *2966:S 10.5 
*END

*D_NET *421 0.000847723
*CONN
*I *2965:A I *D sky130_fd_sc_hd__clkbuf_1
*I *2964:X O *D sky130_fd_sc_hd__mux2_1
*CAP
1 *2965:A 0.000229058
2 *2964:X 0.000229058
3 *2965:A *430:68 5.16418e-05
4 *2762:A2 *2965:A 8.10907e-05
5 *2769:A2 *2965:A 0.000215249
6 *2964:A1 *2965:A 4.16262e-05
*RES
1 *2964:X *2965:A 11.22 
*END

*D_NET *422 0.00148806
*CONN
*I *2967:A I *D sky130_fd_sc_hd__clkbuf_1
*I *2966:X O *D sky130_fd_sc_hd__mux2_1
*CAP
1 *2967:A 0.000429191
2 *2966:X 0.000429191
3 *2967:A *428:57 0.000167404
4 *2967:A *430:68 0.00015639
5 *2966:S *2967:A 0.000132885
6 *3169:D *2967:A 0.000173002
*RES
1 *2966:X *2967:A 12.335 
*END

*D_NET *423 0.00219896
*CONN
*I *2969:S I *D sky130_fd_sc_hd__mux2_1
*I *2971:S I *D sky130_fd_sc_hd__mux2_1
*I *2968:X O *D sky130_fd_sc_hd__or2_1
*CAP
1 *2969:S 0.0002283
2 *2971:S 0.000165141
3 *2968:X 8.32353e-05
4 *423:8 0.000476677
5 *2969:S *2782:A1 0.000161581
6 *2969:S *2972:A 8.65905e-05
7 *2969:S *3171:CLK 7.66163e-05
8 *2969:S *3407:A 5.4155e-06
9 *2971:S *2971:A1 0.000198614
10 *2971:S *2987:A 0.00015997
11 *423:8 *2782:A1 0
12 *423:8 *2987:A 0.000138551
13 *3171:D *2969:S 8.38039e-05
14 *174:80 *2969:S 0.000334466
15 *181:35 *2971:S 0
16 *181:35 *423:8 0
*RES
1 *2968:X *423:8 5.235 
2 *423:8 *2971:S 7.32 
3 *423:8 *2969:S 10.74 
*END

*D_NET *424 0.000187525
*CONN
*I *2970:A I *D sky130_fd_sc_hd__clkbuf_1
*I *2969:X O *D sky130_fd_sc_hd__mux2_1
*CAP
1 *2970:A 3.03056e-05
2 *2969:X 3.03056e-05
3 *2970:A *3171:CLK 4.99619e-05
4 *349:160 *2970:A 7.69521e-05
*RES
1 *2969:X *2970:A 4.265 
*END

*D_NET *425 0.000584658
*CONN
*I *2972:A I *D sky130_fd_sc_hd__clkbuf_1
*I *2971:X O *D sky130_fd_sc_hd__mux2_1
*CAP
1 *2972:A 0.000175301
2 *2971:X 0.000175301
3 *2972:A *3171:CLK 8.65905e-05
4 *2972:A *753:29 0
5 *2755:B2 *2972:A 4.92096e-05
6 *2969:S *2972:A 8.65905e-05
7 *356:67 *2972:A 1.16646e-05
*RES
1 *2971:X *2972:A 10.425 
*END

*D_NET *426 0.00408228
*CONN
*I *2977:S I *D sky130_fd_sc_hd__mux2_1
*I *2974:S I *D sky130_fd_sc_hd__mux2_1
*I *2973:X O *D sky130_fd_sc_hd__or2_1
*CAP
1 *2977:S 0.000210356
2 *2974:S 0.000369411
3 *2973:X 9.66892e-05
4 *426:6 0.000676456
5 *2974:S *2746:A 7.01406e-05
6 *2974:S *2749:A1 0.000112266
7 *2977:S *428:45 7.50296e-05
8 *2977:S *428:57 4.77807e-05
9 *2977:S *473:43 0.00012281
10 *2747:A2 *2974:S 3.83895e-05
11 *2747:A3 *2974:S 4.12408e-05
12 *2747:B1 *2974:S 0
13 *2749:A3 *2974:S 0.00034367
14 *2749:B1 *2974:S 9.03508e-06
15 *2753:B *2974:S 5.18872e-05
16 *2755:B2 *2974:S 0.000135731
17 *2778:B *2977:S 0.000229512
18 *2985:A *2974:S 7.96104e-06
19 *176:20 *2977:S 5.45002e-05
20 *176:20 *426:6 8.35719e-05
21 *176:29 *426:6 0.000305068
22 *181:35 *2977:S 0.00032187
23 *212:109 *2977:S 0.000133606
24 *417:58 *2977:S 0.000109265
25 *417:58 *426:6 0.000436038
*RES
1 *2973:X *426:6 5.845 
2 *426:6 *2974:S 13.715 
3 *426:6 *2977:S 12.86 
*END

*D_NET *427 0.000918109
*CONN
*I *2975:A I *D sky130_fd_sc_hd__clkbuf_1
*I *2974:X O *D sky130_fd_sc_hd__mux2_1
*CAP
1 *2975:A 0.000322095
2 *2974:X 0.000322095
3 *2740:C1 *2975:A 8.57835e-05
4 *2749:A3 *2975:A 1.13827e-05
5 *2754:B *2975:A 0.000115254
6 *397:59 *2975:A 6.14983e-05
*RES
1 *2974:X *2975:A 11.79 
*END

*D_NET *428 0.0261727
*CONN
*I *3006:A0 I *D sky130_fd_sc_hd__mux2_1
*I *2977:A0 I *D sky130_fd_sc_hd__mux2_1
*I *2983:A0 I *D sky130_fd_sc_hd__mux2_1
*I *3069:A0 I *D sky130_fd_sc_hd__mux2_1
*I *3064:A0 I *D sky130_fd_sc_hd__mux2_1
*I *3026:A0 I *D sky130_fd_sc_hd__mux2_1
*I *3036:A0 I *D sky130_fd_sc_hd__mux2_1
*I *3046:A0 I *D sky130_fd_sc_hd__mux2_1
*I *3041:A0 I *D sky130_fd_sc_hd__mux2_1
*I *3059:A0 I *D sky130_fd_sc_hd__mux2_1
*I *2976:X O *D sky130_fd_sc_hd__clkbuf_4
*CAP
1 *3006:A0 0
2 *2977:A0 0
3 *2983:A0 3.74349e-05
4 *3069:A0 0
5 *3064:A0 0
6 *3026:A0 0.000205406
7 *3036:A0 0
8 *3046:A0 0
9 *3041:A0 0.000170741
10 *3059:A0 0.000209211
11 *2976:X 0.000405124
12 *428:121 0.000326255
13 *428:114 0.000938794
14 *428:99 0.00223011
15 *428:83 0.00163633
16 *428:65 0.00139616
17 *428:57 0.00238405
18 *428:45 0.00202942
19 *428:22 0.00164703
20 *428:12 0.00115889
21 *2983:A0 *431:10 1.7396e-05
22 *3026:A0 *2759:A1 0
23 *3026:A0 *3027:A 0
24 *3026:A0 *3347:A 0.000275548
25 *3041:A0 *3041:A1 0.000204026
26 *3059:A0 *2773:A 4.77807e-05
27 *3059:A0 *3059:A1 3.89366e-05
28 *3059:A0 *3059:S 6.54361e-06
29 *3059:A0 *511:102 5.6027e-05
30 *428:12 *3004:A1 0
31 *428:12 *3004:S 8.49205e-05
32 *428:12 *3006:A1 0.000124007
33 *428:12 *430:8 0
34 *428:12 *430:10 0
35 *428:12 *446:12 1.52184e-05
36 *428:12 *598:44 0
37 *428:22 *2543:A 0.000418628
38 *428:22 *2545:A 4.70343e-05
39 *428:22 *3183:CLK 8.32488e-05
40 *428:22 *511:102 4.61448e-05
41 *428:22 *511:108 4.0735e-05
42 *428:45 *2772:A 2.69153e-05
43 *428:45 *2772:B 2.69217e-05
44 *428:45 *2778:A 0.000493789
45 *428:45 *473:43 0.000540718
46 *428:45 *473:124 0.000264592
47 *428:57 *2749:A1 1.0397e-05
48 *428:57 *2778:A 0.000194291
49 *428:57 *3085:A 0.000153407
50 *428:57 *3173:CLK 0.000306515
51 *428:57 *3435:A 0.000102184
52 *428:57 *430:68 0.000670434
53 *428:57 *473:43 0.000141842
54 *428:57 *595:10 4.77807e-05
55 *428:57 *753:29 0
56 *428:65 *3069:A1 4.77719e-05
57 *428:65 *3434:A 8.34348e-05
58 *428:65 *431:10 0.000101356
59 *428:65 *437:10 0.000122331
60 *428:83 *3062:S 0.000128213
61 *428:83 *3064:A1 9.66977e-05
62 *428:83 *3069:A1 8.64421e-05
63 *428:83 *491:14 1.54665e-05
64 *428:83 *851:12 4.77769e-05
65 *428:99 *2733:B2 1.64056e-05
66 *428:99 *3029:A1 7.89689e-05
67 *428:99 *3062:A0 2.97263e-05
68 *428:99 *3062:A1 7.18795e-06
69 *428:99 *3062:S 4.17298e-05
70 *428:99 *3064:A1 5.37136e-05
71 *428:99 *3065:A 0.000158489
72 *428:99 *3068:A 4.77769e-05
73 *428:99 *3206:CLK 0.000176747
74 *428:99 *443:56 0.000141599
75 *428:99 *491:14 5.8403e-05
76 *428:99 *591:210 1.84465e-05
77 *428:99 *607:10 8.33066e-06
78 *428:99 *851:12 0.000158556
79 *428:114 *2688:B2 0
80 *428:114 *2689:A1 0.00013669
81 *428:114 *3029:A1 5.84456e-05
82 *428:114 *3031:A0 0.000137414
83 *428:114 *3037:A 5.05521e-05
84 *428:114 *3039:A0 7.04021e-05
85 *428:114 *3041:S 0
86 *428:114 *3044:A0 3.90266e-05
87 *428:114 *3045:A 0
88 *428:114 *3046:A1 5.05521e-05
89 *428:114 *443:56 0.000332816
90 *428:114 *467:14 1.82476e-05
91 *428:114 *470:8 0
92 *428:121 *3037:A 0.000101022
93 *428:121 *3046:A1 2.75145e-05
94 *428:121 *3347:A 0.000272096
95 *2689:C1 *428:114 0.000136884
96 *2700:B *428:12 0
97 *2700:B *428:22 9.67081e-06
98 *2758:C1 *428:114 0
99 *2763:B *428:22 0.000214917
100 *2772:C *428:45 7.98317e-05
101 *2778:C *428:45 0.000221534
102 *2780:A *428:45 0.000412903
103 *2780:C *428:45 0.000144665
104 *2780:D *428:45 9.68403e-05
105 *2786:B1 *428:83 0.000112297
106 *2791:A2 *428:65 0.000387251
107 *2791:A2 *428:83 0.000269806
108 *2966:S *428:57 0.00010404
109 *2967:A *428:57 0.000167404
110 *2977:S *428:45 7.50296e-05
111 *2977:S *428:57 4.77807e-05
112 *2990:B *428:65 0.000348904
113 *3066:A *428:65 8.59365e-05
114 *3206:D *428:99 5.05981e-05
115 *3207:D *428:83 8.5002e-05
116 *3231:D *428:22 0
117 *187:83 *428:114 0
118 *191:33 *3059:A0 5.00903e-05
119 *193:54 *2983:A0 2.46007e-05
120 *193:54 *428:65 0.000136114
121 *207:159 *428:65 0.000242837
122 *348:101 *428:57 8.08153e-06
123 *348:128 *428:57 4.55992e-05
124 *362:60 *428:65 9.47454e-05
125 *397:59 *2983:A0 0
126 *417:98 *428:65 1.17409e-05
127 *420:10 *428:57 0.000226265
*RES
1 *2976:X *428:12 12.8 
2 *428:12 *428:22 17.735 
3 *428:22 *3059:A0 7.605 
4 *428:22 *428:45 20.855 
5 *428:45 *428:57 30.21 
6 *428:57 *428:65 22.565 
7 *428:65 *428:83 13.21 
8 *428:83 *428:99 26.475 
9 *428:99 *3041:A0 7.155 
10 *428:99 *428:114 19.22 
11 *428:114 *3046:A0 1.6 
12 *428:114 *428:121 3.21 
13 *428:121 *3036:A0 1.6 
14 *428:121 *3026:A0 9.5 
15 *428:83 *3064:A0 1.6 
16 *428:65 *3069:A0 1.6 
17 *428:57 *2983:A0 4.47 
18 *428:45 *2977:A0 1.6 
19 *428:12 *3006:A0 1.6 
*END

*D_NET *429 0.000535119
*CONN
*I *2978:A I *D sky130_fd_sc_hd__clkbuf_1
*I *2977:X O *D sky130_fd_sc_hd__mux2_1
*CAP
1 *2978:A 0.000131608
2 *2977:X 0.000131608
3 *2978:A *3388:A 7.1624e-05
4 *2792:C1 *2978:A 0.000128654
5 *3173:D *2978:A 7.1624e-05
*RES
1 *2977:X *2978:A 10.08 
*END

*D_NET *430 0.0293115
*CONN
*I *3088:A0 I *D sky130_fd_sc_hd__mux2_1
*I *2981:A0 I *D sky130_fd_sc_hd__mux2_1
*I *3024:A0 I *D sky130_fd_sc_hd__mux2_1
*I *3044:A0 I *D sky130_fd_sc_hd__mux2_1
*I *3034:A0 I *D sky130_fd_sc_hd__mux2_1
*I *3039:A0 I *D sky130_fd_sc_hd__mux2_1
*I *3067:A0 I *D sky130_fd_sc_hd__mux2_1
*I *3062:A0 I *D sky130_fd_sc_hd__mux2_1
*I *3004:A0 I *D sky130_fd_sc_hd__mux2_1
*I *3057:A0 I *D sky130_fd_sc_hd__mux2_1
*I *2979:X O *D sky130_fd_sc_hd__buf_2
*CAP
1 *3088:A0 7.15081e-05
2 *2981:A0 0
3 *3024:A0 0.000473765
4 *3044:A0 7.10263e-05
5 *3034:A0 0.000163939
6 *3039:A0 0.000349959
7 *3067:A0 0.0011058
8 *3062:A0 0.000346199
9 *3004:A0 0
10 *3057:A0 0.000887881
11 *2979:X 0.000180557
12 *430:149 0.000263797
13 *430:136 0.00116985
14 *430:130 0.00199128
15 *430:86 0.00227681
16 *430:72 0.00220487
17 *430:68 0.00187794
18 *430:40 0.00237613
19 *430:10 0.00105589
20 *430:8 0.00142885
21 *3024:A0 *2759:A1 0.000184499
22 *3024:A0 *3024:A1 2.69153e-05
23 *3024:A0 *867:12 0
24 *3034:A0 *2689:B2 0.000123225
25 *3034:A0 *3034:S 0.00011577
26 *3039:A0 *3039:A1 2.11084e-05
27 *3039:A0 *3323:A 4.7043e-05
28 *3039:A0 *467:14 8.31173e-05
29 *3044:A0 *3323:A 1.52945e-05
30 *3044:A0 *864:10 2.46089e-05
31 *3057:A0 *2545:A 0
32 *3057:A0 *446:12 0
33 *3057:A0 *596:65 9.66249e-05
34 *3057:A0 *596:80 0.000252633
35 *3057:A0 *824:12 0
36 *3062:A0 *3065:A 0.000194299
37 *3062:A0 *591:220 0
38 *3067:A0 *3066:B 0
39 *3067:A0 *3067:S 0.00023665
40 *3067:A0 *3069:A1 2.30258e-05
41 *3067:A0 *3070:A 0
42 *3067:A0 *3326:A 2.01934e-05
43 *3067:A0 *485:10 0.000150453
44 *3067:A0 *500:91 1.11025e-05
45 *3088:A0 *3088:A1 3.25676e-05
46 *3088:A0 *3088:S 5.18486e-05
47 *3088:A0 *475:35 0.000102868
48 *430:8 *2700:A 3.68682e-05
49 *430:10 *3004:A1 9.54399e-05
50 *430:10 *446:12 0
51 *430:40 *3088:A1 0.000106078
52 *430:40 *3088:S 0.000204229
53 *430:40 *3089:A 8.53113e-06
54 *430:40 *3092:A 9.30787e-05
55 *430:40 *3182:CLK 8.40269e-05
56 *430:40 *3314:A 0.000227055
57 *430:40 *475:25 4.66108e-05
58 *430:40 *475:35 0.000120655
59 *430:40 *500:28 4.31189e-05
60 *430:40 *521:10 4.99619e-05
61 *430:68 *2696:A1 0.000159741
62 *430:68 *2981:A1 5.14242e-05
63 *430:68 *2981:S 0.000349078
64 *430:68 *2984:A 7.68414e-06
65 *430:68 *3293:A 3.82741e-05
66 *430:68 *3442:A 0.00012182
67 *430:68 *3452:A 2.49909e-05
68 *430:68 *475:35 0.000167055
69 *430:72 *2768:A1 0.000524141
70 *430:72 *2982:A 0.000118294
71 *430:72 *2984:A 6.97118e-05
72 *430:72 *3451:A 2.75229e-05
73 *430:86 *2733:B2 0
74 *430:86 *3051:B 8.05681e-05
75 *430:86 *3052:A0 0
76 *430:86 *3052:S 0
77 *430:86 *3329:A 0
78 *430:86 *591:220 0
79 *430:130 *3051:B 4.19967e-05
80 *430:130 *3054:A0 0.000201508
81 *430:130 *3329:A 0
82 *430:130 *443:52 0
83 *430:136 *3034:S 0.000193156
84 *430:149 *3323:A 2.75538e-05
85 *2689:C1 *3039:A0 3.86529e-05
86 *2689:C1 *3044:A0 5.53249e-06
87 *2689:C1 *430:149 4.13249e-05
88 *2690:C1 *430:136 0.000842413
89 *2705:A *430:68 0.00057785
90 *2705:D *430:68 5.76626e-05
91 *2722:B1 *430:68 0.00030615
92 *2735:C1 *3062:A0 0
93 *2759:C1 *3024:A0 0
94 *2762:A2 *430:68 0.000365114
95 *2769:A2 *430:68 7.83144e-05
96 *2770:A *430:68 0.000267846
97 *2792:A1 *430:68 0.000122331
98 *2792:A2 *3024:A0 0.00020272
99 *2792:A2 *3062:A0 0.000153644
100 *2792:A2 *430:86 9.04515e-05
101 *2792:A2 *430:130 9.86611e-05
102 *2965:A *430:68 5.16418e-05
103 *2967:A *430:68 0.00015639
104 *3033:A *3024:A0 0
105 *3033:A *430:130 0
106 *3119:A *430:130 0.000550303
107 *3182:D *430:10 7.63204e-05
108 *3182:D *430:40 0.000355903
109 *3205:D *3062:A0 4.77769e-05
110 *3230:D *3057:A0 0.000154273
111 *3231:D *3057:A0 0
112 *320:64 *430:86 0.000296088
113 *419:39 *430:68 0.000134516
114 *419:75 *3024:A0 0
115 *419:85 *3024:A0 0
116 *428:12 *430:8 0
117 *428:12 *430:10 0
118 *428:57 *430:68 0.000670434
119 *428:99 *3062:A0 2.97263e-05
120 *428:114 *3039:A0 7.04021e-05
121 *428:114 *3044:A0 3.90266e-05
*RES
1 *2979:X *430:8 6.765 
2 *430:8 *430:10 3.165 
3 *430:10 *3057:A0 20.79 
4 *430:10 *3004:A0 3.6 
5 *430:8 *430:40 23.91 
6 *430:40 *430:68 33.97 
7 *430:68 *430:72 15.215 
8 *430:72 *430:86 18.655 
9 *430:86 *3062:A0 10.155 
10 *430:86 *3067:A0 23.935 
11 *430:72 *430:130 14.875 
12 *430:130 *430:136 14.8 
13 *430:136 *3039:A0 9.375 
14 *430:136 *430:149 0.87 
15 *430:149 *3034:A0 6.825 
16 *430:149 *3044:A0 4.98 
17 *430:130 *3024:A0 13.08 
18 *430:68 *2981:A0 1.6 
19 *430:40 *3088:A0 3.82 
*END

*D_NET *431 0.00185832
*CONN
*I *2983:S I *D sky130_fd_sc_hd__mux2_1
*I *2981:S I *D sky130_fd_sc_hd__mux2_1
*I *2980:X O *D sky130_fd_sc_hd__or2_1
*CAP
1 *2983:S 0
2 *2981:S 6.98888e-05
3 *2980:X 0.000167935
4 *431:10 0.000237824
5 *2981:S *2981:A1 0.000203358
6 *431:10 *3434:A 0.000206123
7 *2983:A0 *431:10 1.7396e-05
8 *397:59 *431:10 0.000505357
9 *428:65 *431:10 0.000101356
10 *430:68 *2981:S 0.000349078
*RES
1 *2980:X *431:10 11.57 
2 *431:10 *2981:S 4.81 
3 *431:10 *2983:S 1.6 
*END

*D_NET *432 0.000585201
*CONN
*I *2982:A I *D sky130_fd_sc_hd__clkbuf_1
*I *2981:X O *D sky130_fd_sc_hd__mux2_1
*CAP
1 *2982:A 0.00019975
2 *2981:X 0.00019975
3 *2982:A *597:16 0
4 *343:66 *2982:A 6.74079e-05
5 *430:72 *2982:A 0.000118294
*RES
1 *2981:X *2982:A 10.41 
*END

*D_NET *433 0.00161945
*CONN
*I *2984:A I *D sky130_fd_sc_hd__clkbuf_1
*I *2983:X O *D sky130_fd_sc_hd__mux2_1
*CAP
1 *2984:A 0.000369645
2 *2983:X 0.000369645
3 *2984:A *2981:A1 0.000163293
4 *2984:A *597:16 6.10014e-05
5 *2984:A *597:36 7.70938e-05
6 *2984:A *597:49 0.000127408
7 *2710:A2 *2984:A 0.000126399
8 *2722:D1 *2984:A 0.000247567
9 *430:68 *2984:A 7.68414e-06
10 *430:72 *2984:A 6.97118e-05
*RES
1 *2983:X *2984:A 15.525 
*END

*D_NET *434 0.000921319
*CONN
*I *2986:S I *D sky130_fd_sc_hd__mux2_1
*I *2988:S I *D sky130_fd_sc_hd__mux2_1
*I *2985:Y O *D sky130_fd_sc_hd__nor2_1
*CAP
1 *2986:S 0.000128142
2 *2988:S 3.38389e-05
3 *2985:Y 5.33495e-05
4 *434:6 0.00021533
5 *2986:S *2988:A0 1.16578e-05
6 *2986:S *2989:A 0
7 *2754:C *2986:S 0.000158106
8 *2754:C *434:6 4.1745e-05
9 *2988:A1 *2986:S 2.75145e-05
10 *183:110 *2986:S 0.000133555
11 *211:122 *2988:S 0
12 *417:39 *2986:S 3.57349e-05
13 *417:39 *434:6 8.23457e-05
*RES
1 *2985:Y *434:6 2.74 
2 *434:6 *2988:S 2.215 
3 *434:6 *2986:S 8.735 
*END

*D_NET *435 0.00160158
*CONN
*I *2987:A I *D sky130_fd_sc_hd__clkbuf_1
*I *2986:X O *D sky130_fd_sc_hd__mux2_1
*CAP
1 *2987:A 0.000474726
2 *2986:X 0.000474726
3 *2987:A *2782:A1 0
4 *2987:A *2971:A1 3.79351e-05
5 *2987:A *3463:A 0
6 *2749:B1 *2987:A 2.01565e-05
7 *2753:C *2987:A 0
8 *2754:D *2987:A 3.67779e-05
9 *2783:D *2987:A 8.64421e-05
10 *2968:A *2987:A 9.177e-05
11 *2971:S *2987:A 0.00015997
12 *2986:A1 *2987:A 8.05276e-05
13 *181:35 *2987:A 0
14 *321:16 *2987:A 0
15 *356:49 *2987:A 0
16 *423:8 *2987:A 0.000138551
*RES
1 *2986:X *2987:A 16.2 
*END

*D_NET *436 0.00177699
*CONN
*I *2989:A I *D sky130_fd_sc_hd__clkbuf_1
*I *2988:X O *D sky130_fd_sc_hd__mux2_1
*CAP
1 *2989:A 0.000581858
2 *2988:X 0.000581858
3 *2989:A *2988:A0 8.8266e-05
4 *2989:A *3387:A 0.000157282
5 *2989:A *473:18 4.66108e-05
6 *2989:A *473:33 1.33285e-05
7 *2989:A *479:10 1.1392e-05
8 *2744:C1 *2989:A 0
9 *2780:A *2989:A 3.86529e-05
10 *2986:S *2989:A 0
11 *3056:A *2989:A 4.66108e-05
12 *3177:D *2989:A 0.000118081
13 *211:170 *2989:A 2.07001e-05
14 *355:82 *2989:A 7.23533e-05
*RES
1 *2988:X *2989:A 16.275 
*END

*D_NET *437 0.0012848
*CONN
*I *2993:S I *D sky130_fd_sc_hd__mux2_1
*I *2991:S I *D sky130_fd_sc_hd__mux2_1
*I *2990:Y O *D sky130_fd_sc_hd__nor2_1
*CAP
1 *2993:S 0.000218576
2 *2991:S 0
3 *2990:Y 0.000176859
4 *437:10 0.000395435
5 *2993:S *443:122 2.75538e-05
6 *2993:A1 *2993:S 0.000265924
7 *193:54 *2993:S 0
8 *193:54 *437:10 0
9 *372:18 *2993:S 7.12228e-06
10 *372:18 *437:10 7.09999e-05
11 *428:65 *437:10 0.000122331
*RES
1 *2990:Y *437:10 6.375 
2 *437:10 *2991:S 3.6 
3 *437:10 *2993:S 7.785 
*END

*D_NET *438 0.000412288
*CONN
*I *2992:A I *D sky130_fd_sc_hd__clkbuf_1
*I *2991:X O *D sky130_fd_sc_hd__mux2_1
*CAP
1 *2992:A 5.0305e-05
2 *2991:X 5.0305e-05
3 *2992:A *440:90 3.05373e-05
4 *2885:A *2992:A 0.000162311
5 *3066:A *2992:A 6.48274e-05
6 *221:12 *2992:A 5.4003e-05
*RES
1 *2991:X *2992:A 9.3 
*END

*D_NET *439 0.00135178
*CONN
*I *2994:A I *D sky130_fd_sc_hd__clkbuf_1
*I *2993:X O *D sky130_fd_sc_hd__mux2_1
*CAP
1 *2994:A 0.000433889
2 *2993:X 0.000433889
3 *2994:A *3178:CLK 0.000138633
4 *2994:A *440:90 0.000197264
5 *2963:A *2994:A 4.21973e-05
6 *3066:A *2994:A 4.11678e-06
7 *3179:D *2994:A 4.39911e-06
8 *202:83 *2994:A 2.67022e-05
9 *343:66 *2994:A 7.06865e-05
*RES
1 *2993:X *2994:A 13.38 
*END

*D_NET *440 0.0219044
*CONN
*I *3009:A1 I *D sky130_fd_sc_hd__mux2_1
*I *3019:A1 I *D sky130_fd_sc_hd__mux2_1
*I *3014:A1 I *D sky130_fd_sc_hd__mux2_1
*I *3094:A1 I *D sky130_fd_sc_hd__mux2_1
*I *3082:A1 I *D sky130_fd_sc_hd__mux2_1
*I *2997:A1 I *D sky130_fd_sc_hd__mux2_1
*I *3052:A1 I *D sky130_fd_sc_hd__mux2_1
*I *3077:A1 I *D sky130_fd_sc_hd__mux2_1
*I *3029:A1 I *D sky130_fd_sc_hd__mux2_1
*I *3072:A1 I *D sky130_fd_sc_hd__mux2_1
*I *2995:X O *D sky130_fd_sc_hd__clkbuf_4
*CAP
1 *3009:A1 0.000391661
2 *3019:A1 0
3 *3014:A1 0.000195361
4 *3094:A1 4.76538e-05
5 *3082:A1 0.000906124
6 *2997:A1 0.000256401
7 *3052:A1 0
8 *3077:A1 0
9 *3029:A1 0.000282319
10 *3072:A1 0.000408064
11 *2995:X 0
12 *440:90 0.00196694
13 *440:52 0.000959053
14 *440:42 0.00118821
15 *440:26 0.00127859
16 *440:20 0.00170759
17 *440:18 0.000976231
18 *440:14 0.000720436
19 *440:12 0.000651082
20 *440:4 0.000902118
21 *2997:A1 *2997:A0 4.77807e-05
22 *2997:A1 *2998:A 8.64599e-05
23 *3009:A1 *3113:A 0.000278111
24 *3014:A1 *3014:A0 2.75229e-05
25 *3014:A1 *3020:A 0.000114424
26 *3029:A1 *3041:S 0
27 *3029:A1 *3074:A0 3.72081e-05
28 *3029:A1 *3079:A1 4.04729e-05
29 *3029:A1 *443:56 1.48065e-05
30 *3072:A1 *3072:A0 3.00381e-05
31 *3072:A1 *3073:A 0
32 *3072:A1 *3074:S 0
33 *3072:A1 *606:30 0
34 *3082:A1 *3000:A0 1.22325e-05
35 *3082:A1 *3001:A 0.0001157
36 *3082:A1 *3082:A0 4.66108e-05
37 *3082:A1 *3084:A1 4.98914e-05
38 *3082:A1 *441:10 0.000328748
39 *3082:A1 *443:122 8.46818e-05
40 *3094:A1 *3096:A0 0.000166238
41 *3094:A1 *3096:S 0.000274952
42 *440:12 *3019:A0 0.000158511
43 *440:14 *3019:A0 1.5567e-05
44 *440:14 *3020:A 1.47347e-05
45 *440:18 *2756:A1 0.00019895
46 *440:18 *2756:B2 0.000110785
47 *440:18 *455:10 0
48 *440:18 *594:78 6.19385e-05
49 *440:20 *3051:B 0.000312083
50 *440:20 *3121:A 7.23533e-05
51 *440:20 *500:83 0
52 *440:20 *500:91 0
53 *440:20 *518:12 0
54 *440:20 *594:45 0
55 *440:20 *594:56 0
56 *440:26 *3052:A0 4.99619e-05
57 *440:26 *3052:S 3.83041e-05
58 *440:26 *3066:B 8.53113e-06
59 *440:26 *500:91 0
60 *440:42 *2733:B2 0
61 *440:42 *2786:A1 0.000314438
62 *440:42 *3052:A0 4.82919e-05
63 *440:42 *3052:S 4.82919e-05
64 *440:42 *3053:A 3.03684e-05
65 *440:42 *3065:A 3.79514e-05
66 *440:42 *3077:A0 0.000157944
67 *440:42 *3079:S 1.32026e-05
68 *440:42 *3207:CLK 9.29751e-06
69 *440:42 *491:14 5.54707e-05
70 *440:42 *607:20 0.000304455
71 *440:42 *858:8 0.00015639
72 *440:52 *3077:A0 2.01934e-05
73 *440:52 *3078:A 0.000592552
74 *440:52 *3079:A1 0.00019428
75 *440:52 *3079:S 0.000246376
76 *440:52 *3080:A 1.43558e-05
77 *440:90 *597:16 6.10014e-05
78 *2690:C1 *440:18 0.000355196
79 *2690:C1 *440:20 0.00033517
80 *2786:A2 *440:42 0.000261053
81 *2792:A2 *440:42 0
82 *2963:A *440:90 0.000858669
83 *2992:A *440:90 3.05373e-05
84 *2994:A *440:90 0.000197264
85 *2995:A *3009:A1 0.00029032
86 *2996:A *3082:A1 0.000190717
87 *2996:B *3082:A1 9.85933e-05
88 *3076:A *2997:A1 0.000157394
89 *3181:D *2997:A1 9.17857e-05
90 *3211:D *3072:A1 0.000280104
91 *215:148 *2997:A1 0.000170004
92 *221:12 *2997:A1 8.35277e-05
93 *221:12 *440:90 0.000188883
94 *320:64 *440:20 5.98004e-06
95 *320:64 *440:26 4.7043e-05
96 *343:66 *440:90 0
97 *366:10 *2997:A1 7.34418e-05
98 *366:10 *440:90 0.000111042
99 *428:99 *3029:A1 7.89689e-05
100 *428:114 *3029:A1 5.84456e-05
*RES
1 *2995:X *440:4 1.6 
2 *440:4 *440:12 8.865 
3 *440:12 *440:14 2.175 
4 *440:14 *440:18 10.265 
5 *440:18 *440:20 10.56 
6 *440:20 *440:26 7.625 
7 *440:26 *440:42 21.07 
8 *440:42 *440:52 9.485 
9 *440:52 *3072:A1 10.71 
10 *440:52 *3029:A1 9.315 
11 *440:42 *3077:A1 1.6 
12 *440:26 *3052:A1 1.6 
13 *440:20 *440:90 21.175 
14 *440:90 *2997:A1 10.305 
15 *440:90 *3082:A1 16.65 
16 *440:18 *3094:A1 6.12 
17 *440:14 *3014:A1 5.17 
18 *440:12 *3019:A1 1.6 
19 *440:4 *3009:A1 9.64 
*END

*D_NET *441 0.00161427
*CONN
*I *3000:S I *D sky130_fd_sc_hd__mux2_1
*I *2997:S I *D sky130_fd_sc_hd__mux2_1
*I *2996:Y O *D sky130_fd_sc_hd__nor2_1
*CAP
1 *3000:S 0
2 *2997:S 0.000201733
3 *2996:Y 0.00015161
4 *441:10 0.000353343
5 *2997:S *2997:A0 0.000141045
6 *441:10 *3084:A1 0.000254138
7 *2791:A2 *2997:S 2.47547e-05
8 *2996:B *441:10 4.89395e-05
9 *3082:A1 *441:10 0.000328748
10 *372:18 *2997:S 0.000109962
*RES
1 *2996:Y *441:10 6.22 
2 *441:10 *2997:S 9.785 
3 *441:10 *3000:S 1.6 
*END

*D_NET *442 0.000473141
*CONN
*I *2998:A I *D sky130_fd_sc_hd__clkbuf_1
*I *2997:X O *D sky130_fd_sc_hd__mux2_1
*CAP
1 *2998:A 8.1547e-05
2 *2997:X 8.1547e-05
3 *2740:A2 *2998:A 0.000159179
4 *2997:A1 *2998:A 8.64599e-05
5 *3076:A *2998:A 6.44082e-05
*RES
1 *2997:X *2998:A 5.645 
*END

*D_NET *443 0.0234793
*CONN
*I *3011:A1 I *D sky130_fd_sc_hd__mux2_1
*I *3021:A1 I *D sky130_fd_sc_hd__mux2_1
*I *3084:A1 I *D sky130_fd_sc_hd__mux2_1
*I *3000:A1 I *D sky130_fd_sc_hd__mux2_1
*I *3016:A1 I *D sky130_fd_sc_hd__mux2_1
*I *3096:A1 I *D sky130_fd_sc_hd__mux2_1
*I *3054:A1 I *D sky130_fd_sc_hd__mux2_1
*I *3031:A1 I *D sky130_fd_sc_hd__mux2_1
*I *3074:A1 I *D sky130_fd_sc_hd__mux2_1
*I *3079:A1 I *D sky130_fd_sc_hd__mux2_1
*I *2999:X O *D sky130_fd_sc_hd__clkbuf_4
*CAP
1 *3011:A1 0.000721963
2 *3021:A1 0.000488247
3 *3084:A1 0.000691134
4 *3000:A1 0
5 *3016:A1 0.000230751
6 *3096:A1 0.000159498
7 *3054:A1 0
8 *3031:A1 0
9 *3074:A1 0
10 *3079:A1 0.000216183
11 *2999:X 3.58389e-05
12 *443:148 0.00167066
13 *443:122 0.00174409
14 *443:56 0.00046077
15 *443:52 0.000996777
16 *443:40 0.00125037
17 *443:26 0.000786529
18 *443:22 0.00111586
19 *443:12 0.00208208
20 *443:8 0.000769162
21 *3011:A1 *3011:A0 3.00381e-05
22 *3011:A1 *3012:A 0.000115484
23 *3016:A1 *2684:B2 6.04287e-05
24 *3016:A1 *2759:A2 0.00019278
25 *3016:A1 *3016:A0 4.77769e-05
26 *3079:A1 *3074:A0 7.03276e-05
27 *3079:A1 *3074:S 0.000106686
28 *3079:A1 *3079:A0 2.87686e-05
29 *3079:A1 *3080:A 1.14192e-05
30 *3084:A1 *3000:A0 6.48757e-05
31 *3084:A1 *3082:A0 2.88602e-05
32 *3084:A1 *3082:S 8.35157e-05
33 *3084:A1 *3083:A 4.77719e-05
34 *3084:A1 *591:132 9.61257e-05
35 *3084:A1 *591:149 5.46347e-05
36 *3084:A1 *595:10 0.000132666
37 *3096:A1 *3096:A0 3.00381e-05
38 *3096:A1 *3096:S 0
39 *443:12 *2706:B2 0
40 *443:12 *597:49 0
41 *443:26 *2759:A2 0.000138662
42 *443:26 *594:67 0
43 *443:40 *3054:S 4.99619e-05
44 *443:40 *3451:A 7.3664e-05
45 *443:52 *3031:S 0.000141792
46 *443:52 *3055:A 0
47 *443:52 *3200:CLK 0.000205909
48 *443:52 *3290:A 2.75538e-05
49 *443:52 *3405:A 0.0003227
50 *443:52 *591:220 2.46007e-05
51 *443:52 *866:8 7.35813e-05
52 *443:56 *3031:S 3.47837e-05
53 *443:56 *3041:A1 7.23602e-05
54 *443:56 *3074:S 5.31158e-06
55 *443:122 *2983:A1 0
56 *443:122 *3000:A0 4.77807e-05
57 *443:122 *3120:A0 0.000465398
58 *443:122 *511:126 0
59 *443:122 *597:49 0
60 *443:148 *2690:A1 0
61 *443:148 *597:75 0
62 *2684:B1 *3016:A1 4.43394e-05
63 *2710:A2 *443:122 0.000425815
64 *2722:A2 *443:122 0
65 *2722:D1 *443:122 0.000137819
66 *2759:B1 *3016:A1 0
67 *2759:B1 *3096:A1 0.000172739
68 *2759:B1 *443:26 0
69 *2759:B1 *443:40 0.000275548
70 *2769:B1 *443:122 0
71 *2792:A2 *443:40 0
72 *2990:A *443:122 0.000227773
73 *2993:A1 *443:122 0.000142662
74 *2993:S *443:122 2.75538e-05
75 *2996:B *3084:A1 0.000361524
76 *3013:A *443:8 2.69153e-05
77 *3018:A *443:12 0
78 *3023:A *443:22 0.0011536
79 *3023:A *443:122 0.000503702
80 *3029:A1 *3079:A1 4.04729e-05
81 *3029:A1 *443:56 1.48065e-05
82 *3033:A *443:52 3.09233e-05
83 *3049:A *3084:A1 0.000266942
84 *3082:A1 *3084:A1 4.98914e-05
85 *3082:A1 *443:122 8.46818e-05
86 *3119:A *443:40 3.90495e-05
87 *3119:A *443:52 0.00046451
88 *3200:D *443:52 0.000148983
89 *3217:D *3096:A1 4.82863e-05
90 *187:83 *443:56 0
91 *193:54 *443:122 0
92 *221:12 *443:122 0.00030121
93 *366:125 *3084:A1 0.000154395
94 *372:18 *443:122 0.000419602
95 *405:68 *443:52 0.000561946
96 *419:85 *443:26 0
97 *419:85 *443:40 0.000124632
98 *428:99 *443:56 0.000141599
99 *428:114 *443:56 0.000332816
100 *430:130 *443:52 0
101 *440:52 *3079:A1 0.00019428
102 *441:10 *3084:A1 0.000254138
*RES
1 *2999:X *443:8 4.05 
2 *443:8 *443:12 5.93 
3 *443:12 *443:22 14.315 
4 *443:22 *443:26 4.145 
5 *443:26 *443:40 13.585 
6 *443:40 *443:52 21.655 
7 *443:52 *443:56 7.97 
8 *443:56 *3079:A1 8.37 
9 *443:56 *3074:A1 3.6 
10 *443:52 *3031:A1 1.6 
11 *443:40 *3054:A1 1.6 
12 *443:26 *3096:A1 4.93 
13 *443:22 *3016:A1 8.325 
14 *443:12 *443:122 30.79 
15 *443:122 *3000:A1 1.6 
16 *443:122 *3084:A1 20.885 
17 *443:8 *443:148 7.5 
18 *443:148 *3021:A1 8.88 
19 *443:148 *3011:A1 15.345 
*END

*D_NET *444 0.000463845
*CONN
*I *3001:A I *D sky130_fd_sc_hd__clkbuf_1
*I *3000:X O *D sky130_fd_sc_hd__mux2_1
*CAP
1 *3001:A 0.000139982
2 *3000:X 0.000139982
3 *3082:A1 *3001:A 0.0001157
4 *3181:D *3001:A 6.81824e-05
*RES
1 *3000:X *3001:A 5.99 
*END

*D_NET *445 0.000375272
*CONN
*I *3003:B I *D sky130_fd_sc_hd__nand2_1
*I *3002:Y O *D sky130_fd_sc_hd__inv_2
*CAP
1 *3003:B 5.58673e-05
2 *3002:Y 5.58673e-05
3 *3003:B *3003:A 0.000191302
4 *3003:B *731:56 7.22354e-05
*RES
1 *3002:Y *3003:B 5.03 
*END

*D_NET *446 0.0019096
*CONN
*I *3004:S I *D sky130_fd_sc_hd__mux2_1
*I *3006:S I *D sky130_fd_sc_hd__mux2_1
*I *3003:Y O *D sky130_fd_sc_hd__nand2_1
*CAP
1 *3004:S 8.63829e-05
2 *3006:S 0
3 *3003:Y 0.000728284
4 *446:12 0.000814667
5 *3004:S *3006:A1 6.90876e-05
6 *446:12 *3003:A 1.4389e-05
7 *2700:B *446:12 1.37311e-05
8 *2763:B *446:12 8.29202e-05
9 *3057:A0 *446:12 0
10 *428:12 *3004:S 8.49205e-05
11 *428:12 *446:12 1.52184e-05
12 *430:10 *446:12 0
*RES
1 *3003:Y *446:12 14.9 
2 *446:12 *3006:S 1.6 
3 *446:12 *3004:S 3.43 
*END

*D_NET *447 0.000669513
*CONN
*I *3005:A I *D sky130_fd_sc_hd__clkbuf_1
*I *3004:X O *D sky130_fd_sc_hd__mux2_1
*CAP
1 *3005:A 0.000213964
2 *3004:X 0.000213964
3 *3005:A *3004:A1 0
4 *3005:A *3006:A1 3.00381e-05
5 *3182:D *3005:A 0.000211546
*RES
1 *3004:X *3005:A 7.82 
*END

*D_NET *448 0.000315196
*CONN
*I *3007:A I *D sky130_fd_sc_hd__clkbuf_1
*I *3006:X O *D sky130_fd_sc_hd__mux2_1
*CAP
1 *3007:A 9.64326e-05
2 *3006:X 9.64326e-05
3 *2701:B1 *3007:A 0.000122331
*RES
1 *3006:X *3007:A 4.955 
*END

*D_NET *449 0.00150781
*CONN
*I *3011:S I *D sky130_fd_sc_hd__mux2_1
*I *3009:S I *D sky130_fd_sc_hd__mux2_1
*I *3008:Y O *D sky130_fd_sc_hd__nor2_1
*CAP
1 *3011:S 0.000268313
2 *3009:S 0
3 *3008:Y 0.000125709
4 *449:12 0.000394022
5 *3011:S *2704:A1 0.000136023
6 *3011:S *2766:A1 6.73424e-05
7 *3011:S *3334:A 0.000278659
8 *449:12 *2704:A1 4.59586e-05
9 *449:12 *2766:A1 6.37775e-05
10 *2999:A *449:12 0.000128008
*RES
1 *3008:Y *449:12 6.48 
2 *449:12 *3009:S 3.6 
3 *449:12 *3011:S 10.53 
*END

*D_NET *450 0.00109676
*CONN
*I *3010:A I *D sky130_fd_sc_hd__clkbuf_1
*I *3009:X O *D sky130_fd_sc_hd__mux2_1
*CAP
1 *3010:A 0.000386097
2 *3009:X 0.000386097
3 *3010:A *2766:A1 0
4 *3010:A *3012:A 4.99619e-05
5 *3010:A *3184:CLK 4.82919e-05
6 *3010:A *3334:A 0
7 *3184:D *3010:A 0.000151967
8 *3185:D *3010:A 7.4346e-05
*RES
1 *3009:X *3010:A 14.43 
*END

*D_NET *451 0.000962646
*CONN
*I *3012:A I *D sky130_fd_sc_hd__clkbuf_1
*I *3011:X O *D sky130_fd_sc_hd__mux2_1
*CAP
1 *3012:A 0.000374164
2 *3011:X 0.000374164
3 *3010:A *3012:A 4.99619e-05
4 *3011:A1 *3012:A 0.000115484
5 *3184:D *3012:A 3.26889e-05
6 *3185:D *3012:A 1.61831e-05
*RES
1 *3011:X *3012:A 12.795 
*END

*D_NET *452 0.00182796
*CONN
*I *3014:S I *D sky130_fd_sc_hd__mux2_1
*I *3016:S I *D sky130_fd_sc_hd__mux2_1
*I *3013:Y O *D sky130_fd_sc_hd__nor2_1
*CAP
1 *3014:S 8.21606e-05
2 *3016:S 2.04255e-05
3 *3013:Y 0.000505941
4 *452:16 0.000608527
5 *3014:S *594:78 0
6 *3014:S *871:14 9.14516e-05
7 *3016:S *871:14 4.89395e-05
8 *452:16 *2756:A1 2.7789e-05
9 *452:16 *2756:B2 1.56428e-05
10 *452:16 *455:10 4.89295e-05
11 *452:16 *871:14 0.000234167
12 *2756:A2 *452:16 8.61121e-06
13 *3018:B *452:16 0.000123955
14 *419:47 *452:16 1.14169e-05
*RES
1 *3013:Y *452:16 9.805 
2 *452:16 *3016:S 2.05 
3 *452:16 *3014:S 7.49 
*END

*D_NET *453 0.000175062
*CONN
*I *3015:A I *D sky130_fd_sc_hd__clkbuf_1
*I *3014:X O *D sky130_fd_sc_hd__mux2_1
*CAP
1 *3015:A 8.75312e-05
2 *3014:X 8.75312e-05
*RES
1 *3014:X *3015:A 4.61 
*END

*D_NET *454 0.000913013
*CONN
*I *3017:A I *D sky130_fd_sc_hd__clkbuf_1
*I *3016:X O *D sky130_fd_sc_hd__mux2_1
*CAP
1 *3017:A 0.000408787
2 *3016:X 0.000408787
3 *3017:A *2684:B2 0
4 *3017:A *3187:CLK 0
5 *3017:A *594:92 0
6 *3017:A *871:14 0
7 *3186:D *3017:A 9.54399e-05
*RES
1 *3016:X *3017:A 13.965 
*END

*D_NET *455 0.000840885
*CONN
*I *3021:S I *D sky130_fd_sc_hd__mux2_1
*I *3019:S I *D sky130_fd_sc_hd__mux2_1
*I *3018:Y O *D sky130_fd_sc_hd__nor2_1
*CAP
1 *3021:S 0.000267372
2 *3019:S 0
3 *3018:Y 0.000128605
4 *455:10 0.000395978
5 *3021:S *2756:A1 0
6 *3021:S *3409:A 0
7 *440:18 *455:10 0
8 *452:16 *455:10 4.89295e-05
*RES
1 *3018:Y *455:10 5.43 
2 *455:10 *3019:S 3.6 
3 *455:10 *3021:S 7.785 
*END

*D_NET *456 0.00066168
*CONN
*I *3020:A I *D sky130_fd_sc_hd__clkbuf_1
*I *3019:X O *D sky130_fd_sc_hd__mux2_1
*CAP
1 *3020:A 0.000220268
2 *3019:X 0.000220268
3 *3020:A *3014:A0 4.49498e-05
4 *3020:A *594:78 4.70343e-05
5 *3014:A1 *3020:A 0.000114424
6 *440:14 *3020:A 1.47347e-05
*RES
1 *3019:X *3020:A 10.755 
*END

*D_NET *457 0.000282301
*CONN
*I *3022:A I *D sky130_fd_sc_hd__clkbuf_1
*I *3021:X O *D sky130_fd_sc_hd__mux2_1
*CAP
1 *3022:A 9.92035e-05
2 *3021:X 9.92035e-05
3 *3022:A *3021:A0 2.30258e-05
4 *3022:A *3409:A 2.03321e-05
5 *3189:D *3022:A 4.05358e-05
*RES
1 *3021:X *3022:A 9.03 
*END

*D_NET *458 0.00141671
*CONN
*I *3024:S I *D sky130_fd_sc_hd__mux2_1
*I *3026:S I *D sky130_fd_sc_hd__mux2_1
*I *3023:X O *D sky130_fd_sc_hd__or2_1
*CAP
1 *3024:S 0.000188806
2 *3026:S 0.000297656
3 *3023:X 0
4 *458:4 0.000486461
5 *3024:S *2684:A1 2.88357e-05
6 *3026:S *3026:A1 1.61831e-05
7 *3026:S *3412:A 0.000198939
8 *3026:S *867:12 0.000199833
*RES
1 *3023:X *458:4 1.6 
2 *458:4 *3026:S 6.91 
3 *458:4 *3024:S 8.57 
*END

*D_NET *459 0.000785566
*CONN
*I *3025:A I *D sky130_fd_sc_hd__clkbuf_1
*I *3024:X O *D sky130_fd_sc_hd__mux2_1
*CAP
1 *3025:A 0.000379819
2 *3024:X 0.000379819
3 *3025:A *3024:A1 2.59285e-05
*RES
1 *3024:X *3025:A 13.395 
*END

*D_NET *460 0.000707053
*CONN
*I *3027:A I *D sky130_fd_sc_hd__clkbuf_1
*I *3026:X O *D sky130_fd_sc_hd__mux2_1
*CAP
1 *3027:A 0.000183644
2 *3026:X 0.000183644
3 *3027:A *3036:A1 4.05358e-05
4 *3027:A *3036:S 0.000185411
5 *3027:A *3044:A1 6.55267e-05
6 *3027:A *742:45 4.82919e-05
7 *2759:C1 *3027:A 0
8 *3026:A0 *3027:A 0
9 *3191:D *3027:A 0
*RES
1 *3026:X *3027:A 11.325 
*END

*D_NET *461 0.00148061
*CONN
*I *3031:S I *D sky130_fd_sc_hd__mux2_1
*I *3029:S I *D sky130_fd_sc_hd__mux2_1
*I *3028:Y O *D sky130_fd_sc_hd__nor2_1
*CAP
1 *3031:S 0.000211202
2 *3029:S 0.000109869
3 *3028:Y 0.000128047
4 *461:6 0.000449118
5 *3029:S *3029:A0 9.2741e-05
6 *3029:S *861:12 0
7 *3031:S *866:8 2.67184e-05
8 *461:6 *3029:A0 3.51884e-05
9 *461:6 *3032:A 0.000157378
10 *187:83 *3031:S 9.37731e-05
11 *443:52 *3031:S 0.000141792
12 *443:56 *3031:S 3.47837e-05
*RES
1 *3028:Y *461:6 3.775 
2 *461:6 *3029:S 3.445 
3 *461:6 *3031:S 9.17 
*END

*D_NET *462 0.000233702
*CONN
*I *3030:A I *D sky130_fd_sc_hd__clkbuf_1
*I *3029:X O *D sky130_fd_sc_hd__mux2_1
*CAP
1 *3030:A 0.000100296
2 *3029:X 0.000100296
3 *3030:A *861:12 3.31103e-05
*RES
1 *3029:X *3030:A 4.61 
*END

*D_NET *463 0.00108578
*CONN
*I *3032:A I *D sky130_fd_sc_hd__clkbuf_1
*I *3031:X O *D sky130_fd_sc_hd__mux2_1
*CAP
1 *3032:A 0.000246666
2 *3031:X 0.000246666
3 *3032:A *2757:A1 8.41777e-05
4 *3032:A *3029:A0 0.000164452
5 *3032:A *861:12 2.20014e-05
6 *3028:A *3032:A 4.66108e-05
7 *187:83 *3032:A 0.000117832
8 *461:6 *3032:A 0.000157378
*RES
1 *3031:X *3032:A 12.84 
*END

*D_NET *464 0.0022499
*CONN
*I *3036:S I *D sky130_fd_sc_hd__mux2_1
*I *3034:S I *D sky130_fd_sc_hd__mux2_1
*I *3033:X O *D sky130_fd_sc_hd__or2_1
*CAP
1 *3036:S 0.000306052
2 *3034:S 0.000223987
3 *3033:X 0
4 *464:4 0.000530039
5 *3034:S *2689:A2 0.000103179
6 *3034:S *2689:B1 8.84963e-05
7 *3034:S *2689:B2 7.03681e-05
8 *3034:S *2758:A2 3.09164e-05
9 *3034:S *470:8 2.15594e-05
10 *3036:S *2689:A2 2.0514e-05
11 *3036:S *2758:A1 0
12 *3036:S *764:66 0.000198945
13 *2690:C1 *3034:S 4.99619e-05
14 *2758:C1 *3034:S 1.53032e-05
15 *2758:C1 *3036:S 4.92096e-05
16 *3027:A *3036:S 0.000185411
17 *3034:A0 *3034:S 0.00011577
18 *3191:D *3036:S 4.70343e-05
19 *430:136 *3034:S 0.000193156
*RES
1 *3033:X *464:4 1.6 
2 *464:4 *3034:S 11.75 
3 *464:4 *3036:S 11.195 
*END

*D_NET *465 0.00143853
*CONN
*I *3035:A I *D sky130_fd_sc_hd__clkbuf_1
*I *3034:X O *D sky130_fd_sc_hd__mux2_1
*CAP
1 *3035:A 0.000594445
2 *3034:X 0.000594445
3 *3035:A *3194:CLK 0.000104395
4 *3035:A *593:63 0
5 *3194:D *3035:A 0.000145242
*RES
1 *3034:X *3035:A 15.57 
*END

*D_NET *466 0.00223055
*CONN
*I *3037:A I *D sky130_fd_sc_hd__clkbuf_1
*I *3036:X O *D sky130_fd_sc_hd__mux2_1
*CAP
1 *3037:A 0.000753326
2 *3036:X 0.000753326
3 *3037:A *3046:A1 1.17309e-05
4 *3037:A *3047:A 4.40446e-05
5 *3037:A *863:8 0.00046193
6 *3194:D *3037:A 3.64998e-06
7 *3195:D *3037:A 5.09689e-05
8 *428:114 *3037:A 5.05521e-05
9 *428:121 *3037:A 0.000101022
*RES
1 *3036:X *3037:A 15.785 
*END

*D_NET *467 0.00332778
*CONN
*I *3039:S I *D sky130_fd_sc_hd__mux2_1
*I *3041:S I *D sky130_fd_sc_hd__mux2_1
*I *3038:X O *D sky130_fd_sc_hd__or2_1
*CAP
1 *3039:S 0
2 *3041:S 0.000504698
3 *3038:X 0.000661272
4 *467:14 0.00116597
5 *3041:S *3042:A 0
6 *3041:S *593:24 0
7 *3041:S *593:63 0
8 *467:14 *2688:B2 0.000289698
9 *467:14 *3031:A0 0.000246872
10 *467:14 *3200:CLK 1.91597e-05
11 *467:14 *3405:A 9.76391e-05
12 *467:14 *866:8 2.75145e-05
13 *3028:B *467:14 0.00015639
14 *3029:A1 *3041:S 0
15 *3039:A0 *467:14 8.31173e-05
16 *3192:D *3041:S 5.72004e-05
17 *428:114 *3041:S 0
18 *428:114 *467:14 1.82476e-05
*RES
1 *3038:X *467:14 17.165 
2 *467:14 *3041:S 13.865 
3 *467:14 *3039:S 1.6 
*END

*D_NET *468 0.000397562
*CONN
*I *3040:A I *D sky130_fd_sc_hd__clkbuf_1
*I *3039:X O *D sky130_fd_sc_hd__mux2_1
*CAP
1 *3040:A 0.000101102
2 *3039:X 0.000101102
3 *3040:A *593:14 4.66108e-05
4 *3040:A *593:24 7.47215e-05
5 *3040:A *593:63 7.4027e-05
*RES
1 *3039:X *3040:A 9.285 
*END

*D_NET *469 0.0010689
*CONN
*I *3042:A I *D sky130_fd_sc_hd__clkbuf_1
*I *3041:X O *D sky130_fd_sc_hd__mux2_1
*CAP
1 *3042:A 0.000490638
2 *3041:X 0.000490638
3 *3042:A *593:24 1.74869e-05
4 *3042:A *862:14 0
5 *3041:S *3042:A 0
6 *3192:D *3042:A 0
7 *3196:D *3042:A 7.01359e-05
8 *3197:D *3042:A 0
*RES
1 *3041:X *3042:A 14.7 
*END

*D_NET *470 0.00159334
*CONN
*I *3044:S I *D sky130_fd_sc_hd__mux2_1
*I *3046:S I *D sky130_fd_sc_hd__mux2_1
*I *3043:X O *D sky130_fd_sc_hd__or2_1
*CAP
1 *3044:S 0.000152305
2 *3046:S 0.000112141
3 *3043:X 0.000136259
4 *470:8 0.000400705
5 *3044:S *2689:B1 2.05641e-05
6 *3044:S *2758:B2 2.65402e-05
7 *3044:S *3044:A1 9.63964e-05
8 *3046:S *2689:A1 0.000234853
9 *3046:S *2689:B1 1.1561e-05
10 *3046:S *2758:A2 0
11 *3046:S *2758:B2 0.000136877
12 *3046:S *3337:A 4.31106e-05
13 *470:8 *2689:A1 5.30479e-05
14 *470:8 *2689:B1 8.3907e-05
15 *2758:C1 *3044:S 6.35111e-05
16 *2758:C1 *470:8 0
17 *3034:S *470:8 2.15594e-05
18 *428:114 *470:8 0
*RES
1 *3043:X *470:8 6.3825 
2 *470:8 *3046:S 6.8325 
3 *470:8 *3044:S 6.7425 
*END

*D_NET *471 0.00100468
*CONN
*I *3045:A I *D sky130_fd_sc_hd__clkbuf_1
*I *3044:X O *D sky130_fd_sc_hd__mux2_1
*CAP
1 *3045:A 0.000443337
2 *3044:X 0.000443337
3 *3045:A *3047:A 0
4 *3045:A *593:63 0
5 *3045:A *864:10 1.67266e-05
6 *3198:D *3045:A 3.79351e-05
7 *3199:D *3045:A 6.33432e-05
8 *428:114 *3045:A 0
*RES
1 *3044:X *3045:A 14.055 
*END

*D_NET *472 0.000705428
*CONN
*I *3047:A I *D sky130_fd_sc_hd__clkbuf_1
*I *3046:X O *D sky130_fd_sc_hd__mux2_1
*CAP
1 *3047:A 0.000286692
2 *3046:X 0.000286692
3 *3047:A *3046:A1 0
4 *3037:A *3047:A 4.40446e-05
5 *3045:A *3047:A 0
6 *3199:D *3047:A 8.79995e-05
*RES
1 *3046:X *3047:A 12.015 
*END

*D_NET *473 0.0177198
*CONN
*I *3086:A I *D sky130_fd_sc_hd__inv_2
*I *3049:B I *D sky130_fd_sc_hd__or2_1
*I *3076:B I *D sky130_fd_sc_hd__nor2_1
*I *3061:B I *D sky130_fd_sc_hd__or2_1
*I *3066:B I *D sky130_fd_sc_hd__or2_1
*I *3071:B I *D sky130_fd_sc_hd__nor2_1
*I *3081:B I *D sky130_fd_sc_hd__nor2_1
*I *3056:B I *D sky130_fd_sc_hd__or2_1
*I *3048:Y O *D sky130_fd_sc_hd__nand3b_4
*CAP
1 *3086:A 0.000168183
2 *3049:B 0.000124383
3 *3076:B 0
4 *3061:B 0
5 *3066:B 0.000618064
6 *3071:B 0.000300715
7 *3081:B 5.08278e-05
8 *3056:B 0
9 *3048:Y 0.000321968
10 *473:124 0.000542362
11 *473:78 0.0011189
12 *473:74 0.000311753
13 *473:68 0.0011098
14 *473:43 0.00208848
15 *473:33 0.00149295
16 *473:18 0.000525636
17 *3066:B *2735:A1 0.000195485
18 *3066:B *3062:A1 7.03219e-05
19 *3066:B *3070:A 0.000117832
20 *3066:B *3441:A 0.000218711
21 *3066:B *485:10 0
22 *3066:B *500:91 0
23 *3071:B *488:6 4.9253e-06
24 *3071:B *500:91 0
25 *3081:B *3181:CLK 1.08758e-05
26 *3081:B *494:8 1.33269e-05
27 *3086:A *2743:A 4.66108e-05
28 *473:18 *731:42 0.000406082
29 *473:33 *720:49 0.000109539
30 *473:33 *731:42 0.000394407
31 *473:43 *3291:A 8.83862e-05
32 *473:43 *494:8 2.20544e-05
33 *473:43 *595:10 9.17195e-05
34 *473:68 *3180:CLK 7.14892e-06
35 *473:68 *500:91 3.83985e-05
36 *473:68 *591:210 3.90739e-05
37 *473:68 *595:31 8.33066e-06
38 *473:68 *595:33 0.000101936
39 *473:74 *2735:A1 2.0851e-06
40 *473:74 *500:91 0.000151185
41 *473:74 *607:62 1.91597e-05
42 *473:78 *2735:A1 0
43 *473:78 *500:91 1.75459e-05
44 *2735:A2 *473:74 8.23457e-05
45 *2735:B1 *3066:B 0.00011109
46 *2735:B1 *473:74 0
47 *2740:A2 *473:74 4.77807e-05
48 *2742:B1 *473:124 5.5429e-05
49 *2743:C *3049:B 5.80712e-05
50 *2743:C *3086:A 0.000174096
51 *2743:C *473:124 9.12494e-06
52 *2749:B1 *473:18 4.66108e-05
53 *2762:A2 *473:68 0.000103238
54 *2778:B *473:43 0.000564809
55 *2780:A *473:124 4.87939e-05
56 *2780:C *473:43 0.000243346
57 *2780:D *473:124 4.25877e-05
58 *2781:C *3086:A 7.53048e-05
59 *2792:A2 *473:68 0.000557854
60 *2977:S *473:43 0.00012281
61 *2985:A *3071:B 2.16917e-05
62 *2989:A *473:18 4.66108e-05
63 *2989:A *473:33 1.33285e-05
64 *3056:A *473:33 1.08758e-05
65 *3067:A0 *3066:B 0
66 *3071:A *3071:B 9.81565e-05
67 *3081:A *3081:B 3.09689e-05
68 *3207:D *3066:B 9.54469e-05
69 *192:40 *3086:A 0
70 *193:132 *3086:A 3.57349e-05
71 *197:84 *473:68 0.00182659
72 *202:30 *3071:B 2.26018e-05
73 *211:170 *473:18 1.56428e-05
74 *211:170 *473:33 1.83847e-05
75 *320:64 *3066:B 0.000125018
76 *320:64 *3071:B 5.75612e-05
77 *348:91 *473:18 0.000566206
78 *369:47 *3071:B 3.09164e-05
79 *409:115 *473:18 8.53113e-06
80 *409:115 *473:33 0.000447385
81 *428:45 *473:43 0.000540718
82 *428:45 *473:124 0.000264592
83 *428:57 *473:43 0.000141842
84 *440:26 *3066:B 8.53113e-06
*RES
1 *3048:Y *473:18 14.555 
2 *473:18 *3056:B 1.6 
3 *473:18 *473:33 10.525 
4 *473:33 *473:43 19.32 
5 *473:43 *3081:B 2.665 
6 *473:43 *473:68 9.99307 
7 *473:68 *473:74 4.685 
8 *473:74 *473:78 2.0325 
9 *473:78 *3071:B 9.1425 
10 *473:78 *3066:B 16.8525 
11 *473:74 *3061:B 3.6 
12 *473:68 *3076:B 1.6 
13 *473:33 *473:124 6.92 
14 *473:124 *3049:B 5.805 
15 *473:124 *3086:A 7.245 
*END

*D_NET *474 0.00135651
*CONN
*I *3050:A I *D sky130_fd_sc_hd__buf_2
*I *3049:X O *D sky130_fd_sc_hd__or2_1
*CAP
1 *3050:A 0.000185346
2 *3049:X 0.000185346
3 *3050:A *2743:A 9.14049e-05
4 *3050:A *3114:B 8.53113e-06
5 *3050:A *3373:A 0.000112123
6 *3050:A *720:49 0.000114655
7 *3050:A *731:42 0.00015408
8 *3049:A *3050:A 2.00986e-05
9 *409:115 *3050:A 0.000484922
*RES
1 *3049:X *3050:A 13.365 
*END

*D_NET *475 0.0172519
*CONN
*I *2541:B I *D sky130_fd_sc_hd__or2_1
*I *3124:B I *D sky130_fd_sc_hd__or2_1
*I *3103:B I *D sky130_fd_sc_hd__nor2_1
*I *3098:B I *D sky130_fd_sc_hd__nor2_1
*I *3109:B I *D sky130_fd_sc_hd__or2_1
*I *3093:B I *D sky130_fd_sc_hd__nor2_1
*I *3119:B I *D sky130_fd_sc_hd__or2_1
*I *3051:B I *D sky130_fd_sc_hd__nor2_1
*I *3114:B I *D sky130_fd_sc_hd__nor2_1
*I *3050:X O *D sky130_fd_sc_hd__buf_2
*CAP
1 *2541:B 0.000382938
2 *3124:B 0
3 *3103:B 0.000410706
4 *3098:B 1.98158e-05
5 *3109:B 0
6 *3093:B 0
7 *3119:B 0
8 *3051:B 0.000422964
9 *3114:B 0.000130229
10 *3050:X 3.69588e-05
11 *475:91 0.000660985
12 *475:59 0.000815637
13 *475:49 0.000926374
14 *475:45 0.00147403
15 *475:35 0.00210819
16 *475:25 0.00119116
17 *475:8 0.000384005
18 *475:6 0.000419897
19 *2541:B *3115:A0 0.000183034
20 *2541:B *3117:S 3.09179e-05
21 *3051:B *828:10 1.81772e-05
22 *3103:B *2698:A 0.000113721
23 *3103:B *2760:A 0.000190763
24 *3103:B *3219:CLK 2.67159e-05
25 *3103:B *508:14 5.00612e-05
26 *3103:B *835:10 0.000187014
27 *3103:B *836:8 0.000102962
28 *3114:B *3115:A0 0.000272973
29 *3114:B *3116:A 4.82919e-05
30 *3114:B *3117:S 0.000159741
31 *3114:B *515:8 9.99942e-05
32 *3114:B *731:42 4.9968e-05
33 *475:6 *3115:A0 4.66108e-05
34 *475:25 *2695:C 0.000197236
35 *475:25 *3088:A1 3.57349e-05
36 *475:25 *731:42 0.000147397
37 *475:25 *731:84 0.000308068
38 *475:35 *2696:A1 5.85443e-05
39 *475:35 *2699:A1 0.000116158
40 *475:35 *2762:A1 7.4027e-05
41 *475:35 *3088:A1 0.000182374
42 *475:35 *3442:A 4.85359e-05
43 *475:35 *598:8 0
44 *475:45 *2766:A1 8.13313e-06
45 *475:49 *500:83 2.26018e-05
46 *475:49 *511:126 2.45351e-05
47 *475:59 *2706:A1 0.000157588
48 *475:59 *2706:B2 7.12055e-05
49 *475:59 *2768:B2 0.000330434
50 *475:59 *3120:A0 0
51 *475:59 *502:6 2.16917e-05
52 *475:59 *742:10 3.09233e-05
53 *475:59 *742:14 2.05583e-05
54 *475:59 *742:31 1.07797e-05
55 *475:59 *828:10 0.000237438
56 *475:59 *839:14 4.66108e-05
57 *475:91 *2698:A 2.0794e-05
58 *475:91 *598:86 0
59 *2699:B1 *475:35 0
60 *2699:B1 *475:91 0
61 *2766:B1 *475:45 1.70935e-05
62 *3008:A *475:49 0.000957242
63 *3018:A *475:45 0.000105114
64 *3023:A *475:45 2.92496e-05
65 *3050:A *3114:B 8.53113e-06
66 *3088:A0 *475:35 0.000102868
67 *3093:A *475:49 8.40213e-05
68 *3103:A *3103:B 8.58063e-05
69 *3103:A *475:45 0.000161365
70 *3109:A *475:49 4.66108e-05
71 *3119:A *3051:B 0.000347316
72 *3224:D *3114:B 9.4087e-05
73 *181:35 *475:35 0.000109159
74 *181:35 *475:91 0.000195322
75 *181:69 *475:91 8.9257e-05
76 *202:83 *475:59 0.000127188
77 *320:64 *3051:B 5.53249e-06
78 *348:145 *3098:B 4.77757e-05
79 *355:145 *3098:B 1.14169e-05
80 *355:145 *3103:B 0.000101468
81 *389:63 *475:45 1.79919e-05
82 *397:59 *475:45 4.1977e-05
83 *409:115 *3114:B 2.15594e-05
84 *409:115 *475:25 0.000538796
85 *430:40 *475:25 4.66108e-05
86 *430:40 *475:35 0.000120655
87 *430:68 *475:35 0.000167055
88 *430:86 *3051:B 8.05681e-05
89 *430:130 *3051:B 4.19967e-05
90 *440:20 *3051:B 0.000312083
*RES
1 *3050:X *475:6 2.05 
2 *475:6 *475:8 2 
3 *475:8 *3114:B 8.46 
4 *475:8 *475:25 10.205 
5 *475:25 *475:35 15.7775 
6 *475:35 *475:45 5.58677 
7 *475:45 *475:49 10.47 
8 *475:49 *475:59 14.05 
9 *475:59 *3051:B 13.535 
10 *475:59 *3119:B 1.6 
11 *475:49 *3093:B 1.6 
12 *475:45 *3109:B 1.6 
13 *475:35 *475:91 4.5675 
14 *475:91 *3098:B 4.05 
15 *475:91 *3103:B 12.4778 
16 *475:25 *3124:B 1.6 
17 *475:6 *2541:B 6.655 
*END

*D_NET *476 0.00273174
*CONN
*I *3054:S I *D sky130_fd_sc_hd__mux2_1
*I *3052:S I *D sky130_fd_sc_hd__mux2_1
*I *3051:Y O *D sky130_fd_sc_hd__nor2_1
*CAP
1 *3054:S 0.000234652
2 *3052:S 0.000157475
3 *3051:Y 0.000250258
4 *476:8 0.000642384
5 *3052:S *2733:B2 7.47145e-05
6 *3052:S *3052:A0 3.23391e-05
7 *3052:S *3053:A 2.68721e-05
8 *3052:S *3329:A 9.61414e-05
9 *3052:S *3341:A 0.000114492
10 *3054:S *3053:A 4.65565e-05
11 *3054:S *3329:A 0.000312083
12 *476:8 *3341:A 0.000184858
13 *2963:A *476:8 8.65905e-05
14 *3119:A *3054:S 0.000205411
15 *3226:D *3054:S 1.1561e-05
16 *3227:D *3054:S 9.33406e-05
17 *419:85 *3054:S 2.54523e-05
18 *430:86 *3052:S 0
19 *440:26 *3052:S 3.83041e-05
20 *440:42 *3052:S 4.82919e-05
21 *443:40 *3054:S 4.99619e-05
*RES
1 *3051:Y *476:8 7.845 
2 *476:8 *3052:S 7.77 
3 *476:8 *3054:S 10.05 
*END

*D_NET *477 0.00217553
*CONN
*I *3053:A I *D sky130_fd_sc_hd__clkbuf_1
*I *3052:X O *D sky130_fd_sc_hd__mux2_1
*CAP
1 *3053:A 0.000740936
2 *3052:X 0.000740936
3 *3053:A *2733:B2 9.61344e-05
4 *3053:A *2757:B2 1.37328e-05
5 *3053:A *3207:CLK 0.000192222
6 *3053:A *3290:A 4.80285e-05
7 *3053:A *3341:A 0.000107627
8 *3053:A *594:8 0
9 *3053:A *594:32 2.77283e-05
10 *3053:A *594:45 2.88829e-05
11 *3052:S *3053:A 2.68721e-05
12 *3054:S *3053:A 4.65565e-05
13 *3227:D *3053:A 4.82319e-06
14 *419:85 *3053:A 7.06865e-05
15 *440:42 *3053:A 3.03684e-05
*RES
1 *3052:X *3053:A 19.665 
*END

*D_NET *478 0.000811118
*CONN
*I *3055:A I *D sky130_fd_sc_hd__clkbuf_1
*I *3054:X O *D sky130_fd_sc_hd__mux2_1
*CAP
1 *3055:A 0.000297046
2 *3054:X 0.000297046
3 *3055:A *3289:A 1.08758e-05
4 *3055:A *3290:A 0.000112105
5 *2792:A2 *3055:A 0
6 *3119:A *3055:A 5.05521e-05
7 *3201:D *3055:A 1.16578e-05
8 *419:85 *3055:A 3.1835e-05
9 *443:52 *3055:A 0
*RES
1 *3054:X *3055:A 12.465 
*END

*D_NET *479 0.00295511
*CONN
*I *3059:S I *D sky130_fd_sc_hd__mux2_1
*I *3057:S I *D sky130_fd_sc_hd__mux2_1
*I *3056:X O *D sky130_fd_sc_hd__or2_1
*CAP
1 *3059:S 0.00010756
2 *3057:S 0.000264288
3 *3056:X 0.000355094
4 *479:10 0.000726942
5 *3057:S *3060:A 5.96989e-05
6 *3059:S *2773:A 9.18556e-05
7 *3059:S *511:102 0.000108451
8 *479:10 *2691:A_N 5.83121e-06
9 *479:10 *2745:A 0.000101898
10 *479:10 *511:102 7.21066e-05
11 *2745:C *479:10 2.74814e-05
12 *2773:B *479:10 0.000147294
13 *2773:C *3057:S 3.112e-05
14 *2989:A *479:10 1.1392e-05
15 *3059:A0 *3059:S 6.54361e-06
16 *3203:D *3057:S 9.9995e-05
17 *176:16 *3057:S 0.000170796
18 *191:14 *3059:S 2.4002e-05
19 *191:14 *479:10 9.15093e-05
20 *191:33 *3059:S 6.92729e-05
21 *211:170 *479:10 0.000381974
*RES
1 *3056:X *479:10 11.895 
2 *479:10 *3057:S 8.835 
3 *479:10 *3059:S 6.45 
*END

*D_NET *480 0.0002864
*CONN
*I *3058:A I *D sky130_fd_sc_hd__clkbuf_1
*I *3057:X O *D sky130_fd_sc_hd__mux2_1
*CAP
1 *3058:A 8.12097e-05
2 *3057:X 8.12097e-05
3 *3058:A *3057:A1 0.00012398
*RES
1 *3057:X *3058:A 4.955 
*END

*D_NET *481 0.00036289
*CONN
*I *3060:A I *D sky130_fd_sc_hd__clkbuf_1
*I *3059:X O *D sky130_fd_sc_hd__mux2_1
*CAP
1 *3060:A 0.000111595
2 *3059:X 0.000111595
3 *3057:S *3060:A 5.96989e-05
4 *3203:D *3060:A 8.00005e-05
*RES
1 *3059:X *3060:A 9.48 
*END

*D_NET *482 0.0025557
*CONN
*I *3062:S I *D sky130_fd_sc_hd__mux2_1
*I *3064:S I *D sky130_fd_sc_hd__mux2_1
*I *3061:X O *D sky130_fd_sc_hd__or2_1
*CAP
1 *3062:S 0.000217607
2 *3064:S 0
3 *3061:X 0.000252166
4 *482:10 0.000469773
5 *3062:S *3062:A1 0.000376555
6 *3062:S *3068:A 4.02514e-05
7 *3062:S *3206:CLK 4.66108e-05
8 *3062:S *3328:A 8.7152e-06
9 *482:10 *2733:A1 0.000194144
10 *482:10 *3328:A 0.000102759
11 *482:10 *591:210 0
12 *2733:A2 *482:10 0.000231826
13 *2786:B1 *3062:S 9.05535e-05
14 *3206:D *3062:S 7.65252e-05
15 *197:84 *482:10 0
16 *207:117 *482:10 0.000232985
17 *320:64 *3062:S 2.44944e-05
18 *320:64 *482:10 2.0794e-05
19 *428:83 *3062:S 0.000128213
20 *428:99 *3062:S 4.17298e-05
*RES
1 *3061:X *482:10 9.96 
2 *482:10 *3064:S 3.6 
3 *482:10 *3062:S 9.66 
*END

*D_NET *483 0.00149903
*CONN
*I *3063:A I *D sky130_fd_sc_hd__clkbuf_1
*I *3062:X O *D sky130_fd_sc_hd__mux2_1
*CAP
1 *3063:A 0.000359971
2 *3062:X 0.000359971
3 *2786:A2 *3063:A 0.000213679
4 *2792:A2 *3063:A 0.000144134
5 *3204:D *3063:A 4.83032e-05
6 *197:94 *3063:A 2.68111e-05
7 *207:117 *3063:A 0.000346161
*RES
1 *3062:X *3063:A 15.87 
*END

*D_NET *484 0.00126262
*CONN
*I *3065:A I *D sky130_fd_sc_hd__clkbuf_1
*I *3064:X O *D sky130_fd_sc_hd__mux2_1
*CAP
1 *3065:A 0.000241431
2 *3064:X 0.000241431
3 *3065:A *2733:B2 8.36568e-05
4 *3065:A *3062:A1 2.69153e-05
5 *3065:A *491:14 0.000195465
6 *3065:A *607:20 7.34196e-05
7 *3065:A *851:12 9.56017e-06
8 *3062:A0 *3065:A 0.000194299
9 *428:99 *3065:A 0.000158489
10 *440:42 *3065:A 3.79514e-05
*RES
1 *3064:X *3065:A 14.055 
*END

*D_NET *485 0.00162158
*CONN
*I *3069:S I *D sky130_fd_sc_hd__mux2_1
*I *3067:S I *D sky130_fd_sc_hd__mux2_1
*I *3066:X O *D sky130_fd_sc_hd__or2_1
*CAP
1 *3069:S 0
2 *3067:S 9.62505e-05
3 *3066:X 0.000178124
4 *485:10 0.000274375
5 *3067:S *3067:A1 1.87038e-05
6 *3067:S *3326:A 0.000158536
7 *3067:S *500:91 0.000156773
8 *485:10 *3070:A 0
9 *485:10 *500:91 0.00031916
10 *3066:A *485:10 3.25589e-05
11 *3066:B *485:10 0
12 *3067:A0 *3067:S 0.00023665
13 *3067:A0 *485:10 0.000150453
*RES
1 *3066:X *485:10 8.07 
2 *485:10 *3067:S 6.975 
3 *485:10 *3069:S 3.6 
*END

*D_NET *486 0.00180438
*CONN
*I *3068:A I *D sky130_fd_sc_hd__clkbuf_1
*I *3067:X O *D sky130_fd_sc_hd__mux2_1
*CAP
1 *3068:A 0.000660094
2 *3067:X 0.000660094
3 *3068:A *2733:B2 0.000161622
4 *3068:A *2735:A1 7.87466e-06
5 *3068:A *3062:A1 2.01935e-05
6 *3068:A *3326:A 4.89295e-05
7 *3062:S *3068:A 4.02514e-05
8 *3206:D *3068:A 0.00015754
9 *320:64 *3068:A 0
10 *428:99 *3068:A 4.77769e-05
*RES
1 *3067:X *3068:A 16.59 
*END

*D_NET *487 0.000250338
*CONN
*I *3070:A I *D sky130_fd_sc_hd__clkbuf_1
*I *3069:X O *D sky130_fd_sc_hd__mux2_1
*CAP
1 *3070:A 4.59852e-05
2 *3069:X 4.59852e-05
3 *3070:A *3069:A1 4.05358e-05
4 *3066:B *3070:A 0.000117832
5 *3067:A0 *3070:A 0
6 *485:10 *3070:A 0
*RES
1 *3069:X *3070:A 8.58 
*END

*D_NET *488 0.00390574
*CONN
*I *3074:S I *D sky130_fd_sc_hd__mux2_1
*I *3072:S I *D sky130_fd_sc_hd__mux2_1
*I *3071:Y O *D sky130_fd_sc_hd__nor2_1
*CAP
1 *3074:S 0.000364995
2 *3072:S 4.64287e-05
3 *3071:Y 0.00103933
4 *488:6 0.00145075
5 *3072:S *3072:A0 2.11084e-05
6 *3074:S *606:24 0.000143928
7 *3074:S *606:30 0.000160733
8 *488:6 *3072:A0 2.54431e-05
9 *3071:B *488:6 4.9253e-06
10 *3072:A1 *3074:S 0
11 *3079:A1 *3074:S 0.000106686
12 *3210:D *3074:S 5.80139e-05
13 *187:83 *3074:S 0.000238266
14 *202:30 *488:6 0.000239813
15 *443:56 *3074:S 5.31158e-06
*RES
1 *3071:Y *488:6 16.54 
2 *488:6 *3072:S 2.41 
3 *488:6 *3074:S 14.72 
*END

*D_NET *489 0.00127356
*CONN
*I *3073:A I *D sky130_fd_sc_hd__clkbuf_1
*I *3072:X O *D sky130_fd_sc_hd__mux2_1
*CAP
1 *3073:A 0.000518341
2 *3072:X 0.000518341
3 *3073:A *3075:A 7.03219e-05
4 *3073:A *3453:A 2.87133e-05
5 *3072:A1 *3073:A 0
6 *3208:D *3073:A 0.000137845
*RES
1 *3072:X *3073:A 15.84 
*END

*D_NET *490 0.00106737
*CONN
*I *3075:A I *D sky130_fd_sc_hd__clkbuf_1
*I *3074:X O *D sky130_fd_sc_hd__mux2_1
*CAP
1 *3075:A 0.000343557
2 *3074:X 0.000343557
3 *3075:A *3080:A 0.000238312
4 *3073:A *3075:A 7.03219e-05
5 *3208:D *3075:A 7.1624e-05
*RES
1 *3074:X *3075:A 12.795 
*END

*D_NET *491 0.00395226
*CONN
*I *3077:S I *D sky130_fd_sc_hd__mux2_1
*I *3079:S I *D sky130_fd_sc_hd__mux2_1
*I *3076:Y O *D sky130_fd_sc_hd__nor2_1
*CAP
1 *3077:S 1.14963e-05
2 *3079:S 0.000157463
3 *3076:Y 0.00125058
4 *491:14 0.00141954
5 *3079:S *3078:A 8.23457e-05
6 *491:14 *2784:B2 4.28112e-06
7 *491:14 *3328:A 0.000231785
8 *491:14 *500:91 6.72143e-05
9 *491:14 *607:20 0.000117775
10 *491:14 *851:12 1.91739e-05
11 *3065:A *491:14 0.000195465
12 *3205:D *491:14 6.22023e-06
13 *428:83 *491:14 1.54665e-05
14 *428:99 *491:14 5.8403e-05
15 *440:42 *3079:S 1.32026e-05
16 *440:42 *491:14 5.54707e-05
17 *440:52 *3079:S 0.000246376
*RES
1 *3076:Y *491:14 21.425 
2 *491:14 *3079:S 4.93 
3 *491:14 *3077:S 1.96 
*END

*D_NET *492 0.00162399
*CONN
*I *3078:A I *D sky130_fd_sc_hd__clkbuf_1
*I *3077:X O *D sky130_fd_sc_hd__mux2_1
*CAP
1 *3078:A 0.000332464
2 *3077:X 0.000332464
3 *3078:A *3080:A 0.000200655
4 *3079:S *3078:A 8.23457e-05
5 *3211:D *3078:A 8.35118e-05
6 *440:52 *3078:A 0.000592552
*RES
1 *3077:X *3078:A 10.925 
*END

*D_NET *493 0.00127474
*CONN
*I *3080:A I *D sky130_fd_sc_hd__clkbuf_1
*I *3079:X O *D sky130_fd_sc_hd__mux2_1
*CAP
1 *3080:A 0.000263834
2 *3079:X 0.000263834
3 *3080:A *3074:A0 0.000159722
4 *3075:A *3080:A 0.000238312
5 *3078:A *3080:A 0.000200655
6 *3079:A1 *3080:A 1.14192e-05
7 *3211:D *3080:A 0.000122607
8 *440:52 *3080:A 1.43558e-05
*RES
1 *3079:X *3080:A 9.995 
*END

*D_NET *494 0.00160471
*CONN
*I *3082:S I *D sky130_fd_sc_hd__mux2_1
*I *3084:S I *D sky130_fd_sc_hd__mux2_1
*I *3081:Y O *D sky130_fd_sc_hd__nor2_1
*CAP
1 *3082:S 7.23865e-05
2 *3084:S 0.000109521
3 *3081:Y 0.00013895
4 *494:8 0.000320858
5 *3082:S *3082:A0 1.91597e-05
6 *494:8 *3181:CLK 3.1562e-06
7 *2762:A2 *3082:S 0.000123861
8 *2762:A2 *3084:S 0.00021993
9 *2792:C1 *3084:S 8.23457e-05
10 *2996:B *3082:S 4.66108e-05
11 *3081:B *494:8 1.33269e-05
12 *3084:A1 *3082:S 8.35157e-05
13 *417:73 *3082:S 0.000109489
14 *417:73 *3084:S 0.00021993
15 *417:92 *3082:S 1.96118e-05
16 *473:43 *494:8 2.20544e-05
*RES
1 *3081:Y *494:8 5.085 
2 *494:8 *3084:S 7.05 
3 *494:8 *3082:S 6.03 
*END

*D_NET *495 0.000471774
*CONN
*I *3083:A I *D sky130_fd_sc_hd__clkbuf_1
*I *3082:X O *D sky130_fd_sc_hd__mux2_1
*CAP
1 *3083:A 7.19294e-05
2 *3082:X 7.19294e-05
3 *2792:B1 *3083:A 0.000139238
4 *3084:A1 *3083:A 4.77719e-05
5 *322:104 *3083:A 0.000140905
*RES
1 *3082:X *3083:A 9.285 
*END

*D_NET *496 0.00165727
*CONN
*I *3085:A I *D sky130_fd_sc_hd__clkbuf_1
*I *3084:X O *D sky130_fd_sc_hd__mux2_1
*CAP
1 *3085:A 0.000374597
2 *3084:X 0.000374597
3 *3085:A *2749:A1 4.51265e-05
4 *3085:A *753:29 0
5 *2792:C1 *3085:A 5.0958e-05
6 *3049:A *3085:A 0.000319582
7 *3213:D *3085:A 0.000339008
8 *428:57 *3085:A 0.000153407
*RES
1 *3084:X *3085:A 15.66 
*END

*D_NET *497 0.00170272
*CONN
*I *3087:B I *D sky130_fd_sc_hd__nand2_1
*I *3086:Y O *D sky130_fd_sc_hd__inv_2
*CAP
1 *3087:B 0.000301314
2 *3086:Y 0.000301314
3 *3087:B *731:56 8.63479e-05
4 *2780:D *3087:B 0.000208121
5 *2781:C *3087:B 0.000119756
6 *3002:A *3087:B 0.00015639
7 *355:82 *3087:B 7.23602e-05
8 *409:115 *3087:B 0.000457113
*RES
1 *3086:Y *3087:B 15.285 
*END

*D_NET *498 0.00249098
*CONN
*I *3088:S I *D sky130_fd_sc_hd__mux2_1
*I *3091:S I *D sky130_fd_sc_hd__mux2_1
*I *3087:Y O *D sky130_fd_sc_hd__nand2_1
*CAP
1 *3088:S 0.000244507
2 *3091:S 0
3 *3087:Y 0.000321967
4 *498:12 0.000566474
5 *3088:S *2779:A 6.53611e-05
6 *3088:S *3088:A1 0.000375944
7 *498:12 *2544:A0 0
8 *498:12 *2779:A 0.000132021
9 *498:12 *731:56 0.000158072
10 *2780:D *498:12 3.86607e-05
11 *3002:A *498:12 8.73389e-06
12 *3088:A0 *3088:S 5.18486e-05
13 *409:115 *3088:S 0.000134098
14 *409:115 *498:12 0.000189062
15 *430:40 *3088:S 0.000204229
*RES
1 *3087:Y *498:12 9.555 
2 *498:12 *3091:S 3.6 
3 *498:12 *3088:S 9.495 
*END

*D_NET *499 0.000831341
*CONN
*I *3089:A I *D sky130_fd_sc_hd__clkbuf_1
*I *3088:X O *D sky130_fd_sc_hd__mux2_1
*CAP
1 *3089:A 0.000219978
2 *3088:X 0.000219978
3 *3089:A *3092:A 3.42142e-05
4 *3089:A *500:28 0.000177532
5 *3089:A *731:84 3.50033e-05
6 *3214:D *3089:A 0
7 *192:63 *3089:A 0.000136104
8 *430:40 *3089:A 8.53113e-06
*RES
1 *3088:X *3089:A 11.865 
*END

*D_NET *500 0.0327935
*CONN
*I *3112:A0 I *D sky130_fd_sc_hd__mux2_1
*I *3122:A0 I *D sky130_fd_sc_hd__mux2_1
*I *2566:A0 I *D sky130_fd_sc_hd__mux2_1
*I *2551:A0 I *D sky130_fd_sc_hd__mux2_1
*I *2561:A0 I *D sky130_fd_sc_hd__mux2_1
*I *2556:A0 I *D sky130_fd_sc_hd__mux2_1
*I *2576:A0 I *D sky130_fd_sc_hd__mux2_1
*I *2539:A0 I *D sky130_fd_sc_hd__mux2_1
*I *2544:A0 I *D sky130_fd_sc_hd__mux2_1
*I *3091:A0 I *D sky130_fd_sc_hd__mux2_1
*I *3090:X O *D sky130_fd_sc_hd__clkbuf_4
*CAP
1 *3112:A0 0
2 *3122:A0 0.000224095
3 *2566:A0 3.62745e-05
4 *2551:A0 0
5 *2561:A0 9.17686e-05
6 *2556:A0 0.000358241
7 *2576:A0 4.88375e-05
8 *2539:A0 1.0324e-05
9 *2544:A0 0.000851806
10 *3091:A0 0
11 *3090:X 0.000602601
12 *500:125 0.000777968
13 *500:119 0.000841422
14 *500:115 0.00138214
15 *500:93 0.00214272
16 *500:91 0.00306513
17 *500:83 0.00366999
18 *500:69 0.00221896
19 *500:28 0.00113869
20 *500:18 0.000450291
21 *500:10 0.0014908
22 *2539:A0 *2539:A1 4.99619e-05
23 *2539:A0 *2695:C 1.91597e-05
24 *2544:A0 *2544:A1 4.82919e-05
25 *2544:A0 *2701:A2 0
26 *2544:A0 *2743:A 6.54674e-05
27 *2544:A0 *3117:S 0.000116165
28 *2544:A0 *3374:A 4.70343e-05
29 *2544:A0 *720:49 2.89319e-05
30 *2544:A0 *731:56 7.63204e-05
31 *2556:A0 *511:40 0.000495405
32 *2561:A0 *2561:A1 5.05437e-05
33 *2566:A0 *2566:S 2.68526e-05
34 *2576:A0 *511:40 4.99619e-05
35 *2576:A0 *818:14 5.30673e-05
36 *3122:A0 *3120:A0 0.00012438
37 *3122:A0 *3120:A1 8.65905e-05
38 *3122:A0 *3122:S 0.000146226
39 *500:10 *2538:A 9.32375e-05
40 *500:10 *2540:A 8.53113e-06
41 *500:10 *2696:A1 0
42 *500:10 *3099:A0 8.33066e-06
43 *500:18 *2539:A1 1.16578e-05
44 *500:18 *2540:A 0.00011852
45 *500:18 *2695:C 6.52265e-05
46 *500:18 *2696:A1 0
47 *500:18 *3092:A 4.82863e-05
48 *500:28 *2695:C 0.000512469
49 *500:28 *3092:A 0.00011794
50 *500:28 *3406:A 0
51 *500:28 *731:84 4.88568e-05
52 *500:69 *2760:A 4.77757e-05
53 *500:69 *2761:A 0.000158532
54 *500:69 *753:29 7.41045e-05
55 *500:69 *833:8 0.000102732
56 *500:83 *2766:A1 0
57 *500:83 *3096:S 1.08758e-05
58 *500:83 *3121:A 0
59 *500:83 *502:6 0.000406236
60 *500:83 *511:126 0.000237243
61 *500:83 *512:10 6.40411e-05
62 *500:83 *833:8 9.02962e-05
63 *500:83 *834:14 0.000192583
64 *500:91 *2735:A1 0
65 *500:91 *2784:B2 1.73654e-05
66 *500:91 *2803:B2 2.88995e-05
67 *500:91 *2877:A1 6.72143e-05
68 *500:91 *3180:CLK 0
69 *500:91 *3424:A 0
70 *500:91 *518:12 4.57817e-05
71 *500:91 *607:64 0.000233668
72 *500:91 *607:66 0.000102757
73 *500:91 *607:70 0.000130994
74 *500:91 *607:84 1.90818e-05
75 *500:93 *2592:S 0.000229305
76 *500:93 *2803:B2 2.91921e-05
77 *500:93 *3155:CLK 0
78 *500:93 *3379:A 6.12754e-05
79 *500:93 *601:38 0
80 *500:93 *742:10 0
81 *500:115 *2551:S 8.49205e-05
82 *500:115 *2563:B 0.000320279
83 *500:115 *2612:A1 0.000166056
84 *500:115 *2799:A1 3.64998e-06
85 *500:115 *3426:A 0.000114492
86 *500:115 *527:50 0.000458026
87 *500:115 *528:37 0.000316372
88 *500:115 *875:8 0.000117106
89 *500:119 *2549:A1 3.89366e-05
90 *500:119 *2549:S 1.52945e-05
91 *500:119 *2564:A0 0
92 *500:119 *2716:B2 0.000144179
93 *500:119 *511:55 0
94 *500:119 *529:8 1.22762e-05
95 *500:125 *511:40 0
96 *500:125 *511:55 0
97 *500:125 *818:14 3.99879e-05
98 *2553:A *500:115 2.54692e-05
99 *2571:A1 *500:93 0
100 *2571:A1 *500:115 0
101 *2690:C1 *3122:A0 0.000201503
102 *2705:C *2544:A0 0.000342778
103 *2705:C *500:28 4.66108e-05
104 *2720:B *500:115 2.28191e-05
105 *2722:A2 *500:83 0
106 *2762:C1 *500:69 0.000415323
107 *2764:B1 *2544:A0 3.67779e-05
108 *2780:D *2544:A0 0.00011046
109 *2781:C *2544:A0 5.4155e-06
110 *2797:B1 *500:119 9.59969e-05
111 *2866:A *500:93 0.000105798
112 *2866:B *500:115 9.64314e-05
113 *2922:S *500:93 0
114 *2923:A *500:93 2.47705e-05
115 *2976:A *500:10 2.88357e-05
116 *2979:A *500:10 0
117 *3008:A *500:83 0.000308451
118 *3013:A *500:69 0.000637426
119 *3013:A *500:83 0.000158556
120 *3023:A *500:83 0.000105266
121 *3066:B *500:91 0
122 *3067:A0 *500:91 1.11025e-05
123 *3067:S *500:91 0.000156773
124 *3071:B *500:91 0
125 *3089:A *500:28 0.000177532
126 *3093:A *500:83 3.03684e-05
127 *3103:A *500:69 7.28993e-05
128 *3141:D *500:91 0.000171203
129 *3232:D *500:119 7.70736e-05
130 *3241:D *500:115 0
131 *181:69 *500:69 0.000245606
132 *183:52 *500:93 0
133 *183:123 *500:69 7.87003e-05
134 *192:40 *2544:A0 0
135 *192:78 *500:18 2.66935e-05
136 *192:78 *500:69 0.000167931
137 *192:87 *500:69 0.000291223
138 *192:91 *500:69 7.69602e-05
139 *192:104 *500:69 0.000207781
140 *193:132 *2544:A0 0.000274659
141 *208:104 *500:91 0
142 *208:154 *500:91 0
143 *321:62 *500:93 0.000116088
144 *321:70 *500:93 1.24708e-05
145 *343:32 *500:93 2.11536e-05
146 *343:32 *500:115 0.000203079
147 *355:188 *500:10 0.000349697
148 *356:67 *500:91 6.0837e-05
149 *369:30 *500:115 0.000361732
150 *369:47 *500:91 0
151 *369:47 *500:93 0
152 *397:59 *500:83 7.30547e-05
153 *430:40 *500:28 4.31189e-05
154 *440:20 *500:83 0
155 *440:20 *500:91 0
156 *440:26 *500:91 0
157 *473:68 *500:91 3.83985e-05
158 *473:74 *500:91 0.000151185
159 *473:78 *500:91 1.75459e-05
160 *475:49 *500:83 2.26018e-05
161 *485:10 *500:91 0.00031916
162 *491:14 *500:91 6.72143e-05
163 *498:12 *2544:A0 0
*RES
1 *3090:X *500:10 12.48 
2 *500:10 *500:18 5.225 
3 *500:18 *500:28 11.8 
4 *500:28 *3091:A0 1.6 
5 *500:28 *2544:A0 20.72 
6 *500:18 *2539:A0 2.05 
7 *500:10 *500:69 26.55 
8 *500:69 *500:83 28.815 
9 *500:83 *500:91 35.205 
10 *500:91 *500:93 18.72 
11 *500:93 *500:115 21.2041 
12 *500:115 *500:119 9.755 
13 *500:119 *500:125 7.325 
14 *500:125 *2576:A0 3.01 
15 *500:125 *2556:A0 6.535 
16 *500:119 *2561:A0 4.74 
17 *500:115 *2551:A0 1.6 
18 *500:93 *2566:A0 4.05 
19 *500:83 *3122:A0 8.535 
20 *500:69 *3112:A0 1.6 
*END

*D_NET *501 0.0012408
*CONN
*I *3092:A I *D sky130_fd_sc_hd__clkbuf_1
*I *3091:X O *D sky130_fd_sc_hd__mux2_1
*CAP
1 *3092:A 0.000286891
2 *3091:X 0.000286891
3 *3092:A *2695:C 0.000124895
4 *3089:A *3092:A 3.42142e-05
5 *3214:D *3092:A 8.86401e-05
6 *3215:D *3092:A 0.000159964
7 *192:78 *3092:A 0
8 *430:40 *3092:A 9.30787e-05
9 *500:18 *3092:A 4.82863e-05
10 *500:28 *3092:A 0.00011794
*RES
1 *3091:X *3092:A 14.055 
*END

*D_NET *502 0.00169801
*CONN
*I *3094:S I *D sky130_fd_sc_hd__mux2_1
*I *3096:S I *D sky130_fd_sc_hd__mux2_1
*I *3093:Y O *D sky130_fd_sc_hd__nor2_1
*CAP
1 *3094:S 2.09808e-05
2 *3096:S 0.000226559
3 *3093:Y 9.16298e-05
4 *502:6 0.000339169
5 *3096:S *3096:A0 4.63445e-05
6 *502:6 *3094:A0 3.04767e-05
7 *502:6 *3096:A0 7.27003e-05
8 *502:6 *839:14 0.00015639
9 *3094:A1 *3096:S 0.000274952
10 *3096:A1 *3096:S 0
11 *475:59 *502:6 2.16917e-05
12 *500:83 *3096:S 1.08758e-05
13 *500:83 *502:6 0.000406236
*RES
1 *3093:Y *502:6 5.5 
2 *502:6 *3096:S 5.515 
3 *502:6 *3094:S 1.96 
*END

*D_NET *503 0.000870362
*CONN
*I *3095:A I *D sky130_fd_sc_hd__clkbuf_1
*I *3094:X O *D sky130_fd_sc_hd__mux2_1
*CAP
1 *3095:A 0.000256049
2 *3094:X 0.000256049
3 *3095:A *3096:A0 0.000233264
4 *3095:A *594:67 5.83373e-05
5 *2684:B1 *3095:A 1.83756e-05
6 *2759:B1 *3095:A 0
7 *3023:A *3095:A 4.82863e-05
*RES
1 *3094:X *3095:A 11.205 
*END

*D_NET *504 0.000304897
*CONN
*I *3097:A I *D sky130_fd_sc_hd__clkbuf_1
*I *3096:X O *D sky130_fd_sc_hd__mux2_1
*CAP
1 *3097:A 8.54807e-05
2 *3096:X 8.54807e-05
3 *2759:B1 *3097:A 0.000133935
*RES
1 *3096:X *3097:A 4.955 
*END

*D_NET *505 0.00122632
*CONN
*I *3099:S I *D sky130_fd_sc_hd__mux2_1
*I *3101:S I *D sky130_fd_sc_hd__mux2_1
*I *3098:Y O *D sky130_fd_sc_hd__nor2_1
*CAP
1 *3099:S 0.000173731
2 *3101:S 2.09808e-05
3 *3098:Y 5.29047e-05
4 *505:6 0.000247617
5 *3099:S *3100:A 8.52845e-05
6 *2979:A *3099:S 2.0187e-05
7 *183:143 *505:6 0.000270086
8 *348:145 *3099:S 0.00017721
9 *348:145 *505:6 0.000178321
*RES
1 *3098:Y *505:6 4.12 
2 *505:6 *3101:S 1.96 
3 *505:6 *3099:S 5.17 
*END

*D_NET *506 0.00195738
*CONN
*I *3100:A I *D sky130_fd_sc_hd__clkbuf_1
*I *3099:X O *D sky130_fd_sc_hd__mux2_1
*CAP
1 *3100:A 0.000420218
2 *3099:X 0.000420218
3 *3100:A *2761:A 0.000346467
4 *3100:A *3101:A0 0.00043694
5 *3100:A *3102:A 0
6 *3100:A *3364:A 0.000221793
7 *3099:S *3100:A 8.52845e-05
8 *3218:D *3100:A 2.64607e-05
*RES
1 *3099:X *3100:A 17.25 
*END

*D_NET *507 0.00115889
*CONN
*I *3102:A I *D sky130_fd_sc_hd__clkbuf_1
*I *3101:X O *D sky130_fd_sc_hd__mux2_1
*CAP
1 *3102:A 0.00039279
2 *3101:X 0.00039279
3 *3102:A *508:14 0
4 *3102:A *598:86 6.05046e-05
5 *3100:A *3102:A 0
6 *3218:D *3102:A 0.000157119
7 *3219:D *3102:A 3.17252e-05
8 *355:145 *3102:A 0.000123961
*RES
1 *3101:X *3102:A 14.25 
*END

*D_NET *508 0.00144032
*CONN
*I *3106:S I *D sky130_fd_sc_hd__mux2_1
*I *3104:S I *D sky130_fd_sc_hd__mux2_1
*I *3103:Y O *D sky130_fd_sc_hd__nor2_1
*CAP
1 *3106:S 0
2 *3104:S 7.6322e-05
3 *3103:Y 0.000194964
4 *508:14 0.000271286
5 *3104:S *2760:A 0.000196747
6 *508:14 *3106:A0 3.9232e-05
7 *508:14 *3219:CLK 0.000184232
8 *508:14 *3371:A 2.37612e-05
9 *2995:A *3104:S 9.23252e-05
10 *3102:A *508:14 0
11 *3103:B *508:14 5.00612e-05
12 *3219:D *508:14 5.39718e-05
13 *348:128 *3104:S 1.64067e-05
14 *355:145 *508:14 0.00024101
*RES
1 *3103:Y *508:14 10.955 
2 *508:14 *3104:S 8 
3 *508:14 *3106:S 1.6 
*END

*D_NET *509 0.000291383
*CONN
*I *3105:A I *D sky130_fd_sc_hd__clkbuf_1
*I *3104:X O *D sky130_fd_sc_hd__mux2_1
*CAP
1 *3105:A 9.91291e-05
2 *3104:X 9.91291e-05
3 *3105:A *597:113 4.41857e-05
4 *3013:A *3105:A 4.89395e-05
*RES
1 *3104:X *3105:A 9.03 
*END

*D_NET *510 0.000866394
*CONN
*I *3107:A I *D sky130_fd_sc_hd__clkbuf_1
*I *3106:X O *D sky130_fd_sc_hd__mux2_1
*CAP
1 *3107:A 0.000225763
2 *3106:X 0.000225763
3 *3107:A *2704:A1 5.61246e-05
4 *3107:A *597:113 0
5 *2999:A *3107:A 0.000309804
6 *3220:D *3107:A 4.89395e-05
*RES
1 *3106:X *3107:A 12.06 
*END

*D_NET *511 0.0373759
*CONN
*I *2542:A0 I *D sky130_fd_sc_hd__mux2_1
*I *3125:A0 I *D sky130_fd_sc_hd__mux2_1
*I *3110:A0 I *D sky130_fd_sc_hd__mux2_1
*I *3120:A0 I *D sky130_fd_sc_hd__mux2_1
*I *2579:A0 I *D sky130_fd_sc_hd__mux2_1
*I *2574:A0 I *D sky130_fd_sc_hd__mux2_1
*I *2554:A0 I *D sky130_fd_sc_hd__mux2_1
*I *2564:A0 I *D sky130_fd_sc_hd__mux2_1
*I *2549:A0 I *D sky130_fd_sc_hd__mux2_1
*I *2559:A0 I *D sky130_fd_sc_hd__mux2_1
*I *3108:X O *D sky130_fd_sc_hd__clkbuf_4
*CAP
1 *2542:A0 3.28444e-05
2 *3125:A0 0
3 *3110:A0 0
4 *3120:A0 0.00117705
5 *2579:A0 0
6 *2574:A0 0
7 *2554:A0 0
8 *2564:A0 0.00042039
9 *2549:A0 1.46098e-05
10 *2559:A0 2.56208e-05
11 *3108:X 0.000293553
12 *511:126 0.00314173
13 *511:108 0.00276673
14 *511:102 0.00234056
15 *511:55 0.000886494
16 *511:40 0.000926213
17 *511:30 0.000639109
18 *511:22 0.000683628
19 *511:14 0.00236021
20 *511:12 0.00263913
21 *511:8 0.00257175
22 *2549:A0 *821:8 8.52972e-05
23 *2559:A0 *817:18 1.83847e-05
24 *2564:A0 *2569:A0 3.23391e-05
25 *2564:A0 *2612:A1 7.23533e-05
26 *2564:A0 *3440:A 0.000352566
27 *2564:A0 *528:43 0.000305906
28 *3120:A0 *2706:B2 0
29 *3120:A0 *2768:A2 0.00026784
30 *3120:A0 *2768:B2 0
31 *3120:A0 *3120:A1 4.30228e-05
32 *3120:A0 *597:49 0
33 *511:12 *2755:C1 0.000945351
34 *511:12 *3282:D 0
35 *511:12 *603:10 3.84409e-05
36 *511:12 *603:12 9.05377e-05
37 *511:12 *603:14 8.78813e-05
38 *511:12 *603:16 0.000202863
39 *511:12 *609:12 0.000506349
40 *511:14 *2579:A1 0.000156778
41 *511:14 *2822:A 0.000160338
42 *511:14 *3265:D 0.000123969
43 *511:14 *3268:D 8.64421e-05
44 *511:14 *3400:A 0.000115072
45 *511:14 *775:27 8.06306e-05
46 *511:14 *777:38 0.000196699
47 *511:14 *778:27 6.08213e-05
48 *511:14 *778:33 8.35157e-05
49 *511:22 *2574:A1 9.91257e-05
50 *511:22 *2574:S 1.12578e-05
51 *511:22 *2580:A 0
52 *511:22 *2714:A1 0.000683562
53 *511:30 *2555:A 8.57024e-05
54 *511:30 *2574:S 0.000138175
55 *511:30 *2576:S 9.8249e-05
56 *511:40 *2554:S 5.57848e-05
57 *511:40 *2576:A1 0.000158066
58 *511:40 *2576:S 0.000133685
59 *511:40 *532:14 9.00151e-05
60 *511:40 *818:14 6.34206e-05
61 *511:55 *2549:A1 2.41307e-05
62 *511:55 *2559:S 8.08153e-06
63 *511:55 *3440:A 2.73058e-05
64 *511:55 *535:10 9.77135e-05
65 *511:55 *817:18 0.000132873
66 *511:55 *818:14 2.75538e-05
67 *511:102 *2586:A 0
68 *511:102 *2588:A 7.89689e-05
69 *511:102 *2691:A_N 8.89829e-05
70 *511:102 *2741:B 3.20393e-05
71 *511:102 *2755:C1 0.000406111
72 *511:102 *2771:A 0.000451291
73 *511:102 *2772:A 9.23635e-05
74 *511:102 *2776:A 2.4997e-05
75 *511:102 *2810:A1 6.72501e-05
76 *511:102 *3246:CLK 0.000279986
77 *511:102 *3269:RESET_B 0
78 *511:102 *3270:D 6.28425e-05
79 *511:102 *3310:A 9.88165e-05
80 *511:102 *3312:A 0.000122783
81 *511:102 *551:16 0.00038719
82 *511:102 *605:109 9.68709e-05
83 *511:102 *609:12 0.000540999
84 *511:102 *609:53 8.75068e-05
85 *511:102 *631:41 0
86 *511:102 *684:71 0
87 *511:102 *695:6 8.23457e-05
88 *511:102 *807:21 0
89 *511:108 *2543:A 0.000279914
90 *511:108 *2700:C 0.000123225
91 *511:108 *2772:A 0.000286969
92 *511:108 *3183:CLK 0.000146191
93 *511:108 *3382:A 0.00011852
94 *511:108 *524:12 0
95 *511:108 *598:44 5.7344e-05
96 *511:126 *2539:A1 1.17409e-05
97 *511:126 *2695:C 0.000428596
98 *511:126 *2700:C 9.50342e-06
99 *511:126 *2701:A1 9.76522e-05
100 *511:126 *2704:A1 0.000125264
101 *511:126 *3125:A1 2.66935e-05
102 *511:126 *598:33 0.000116357
103 *511:126 *598:44 0
104 *511:126 *825:8 4.66108e-05
105 *2553:A *2564:A0 3.76596e-05
106 *2553:A *511:55 3.66494e-05
107 *2556:A0 *511:40 0.000495405
108 *2569:A1 *2564:A0 7.4027e-05
109 *2576:A0 *511:40 4.99619e-05
110 *2627:A0 *511:8 8.40269e-05
111 *2631:A *511:12 4.76581e-05
112 *2632:A0 *511:12 0
113 *2695:B *511:126 0.000118081
114 *2704:A3 *511:126 0.000193698
115 *2705:D *511:126 0.000383652
116 *2720:C *2564:A0 7.15931e-05
117 *2722:A2 *511:126 0.000158297
118 *2770:C *511:126 0.000123313
119 *2773:B *511:102 2.34758e-05
120 *2775:A *511:102 4.10914e-05
121 *2797:B1 *2549:A0 8.52972e-05
122 *2797:B1 *2564:A0 0.000250016
123 *2866:B *2564:A0 0.000147709
124 *2979:A *511:126 4.25379e-05
125 *3008:A *511:126 0.000172166
126 *3023:A *3120:A0 0.000134314
127 *3059:A0 *511:102 5.6027e-05
128 *3059:S *511:102 0.000108451
129 *3109:A *511:126 2.49909e-05
130 *3122:A0 *3120:A0 0.00012438
131 *3183:D *511:108 9.47454e-05
132 *3229:D *511:126 6.70598e-05
133 *3246:D *511:102 0
134 *3272:D *511:102 5.16479e-05
135 *187:16 *2564:A0 1.23331e-05
136 *191:14 *511:102 1.52776e-05
137 *193:132 *511:108 0
138 *202:96 *3120:A0 3.39151e-05
139 *231:14 *511:102 0
140 *317:8 *511:14 0.000376544
141 *327:14 *511:8 0.000334472
142 *343:66 *3120:A0 0.000311806
143 *358:16 *511:14 0.000263831
144 *428:22 *511:102 4.61448e-05
145 *428:22 *511:108 4.0735e-05
146 *443:122 *3120:A0 0.000465398
147 *443:122 *511:126 0
148 *475:49 *511:126 2.45351e-05
149 *475:59 *3120:A0 0
150 *479:10 *511:102 7.21066e-05
151 *500:83 *511:126 0.000237243
152 *500:119 *2564:A0 0
153 *500:119 *511:55 0
154 *500:125 *511:40 0
155 *500:125 *511:55 0
*RES
1 *3108:X *511:8 7.5 
2 *511:8 *511:12 21.485 
3 *511:12 *511:14 31.155 
4 *511:14 *511:22 14.185 
5 *511:22 *511:30 4.035 
6 *511:30 *511:40 11.795 
7 *511:40 *2559:A0 4.05 
8 *511:40 *511:55 8.82 
9 *511:55 *2549:A0 4.395 
10 *511:55 *2564:A0 15.435 
11 *511:30 *2554:A0 1.6 
12 *511:22 *2574:A0 1.6 
13 *511:14 *2579:A0 1.6 
14 *511:8 *511:102 41.965 
15 *511:102 *511:108 19.565 
16 *511:108 *511:126 42.275 
17 *511:126 *3120:A0 22.835 
18 *511:126 *3110:A0 1.6 
19 *511:108 *3125:A0 1.6 
20 *511:102 *2542:A0 4.05 
*END

*D_NET *512 0.00145221
*CONN
*I *3112:S I *D sky130_fd_sc_hd__mux2_1
*I *3110:S I *D sky130_fd_sc_hd__mux2_1
*I *3109:X O *D sky130_fd_sc_hd__or2_1
*CAP
1 *3112:S 0.000133584
2 *3110:S 9.73191e-06
3 *3109:X 6.86154e-05
4 *512:10 0.000211931
5 *3112:S *2703:A 4.82919e-05
6 *3112:S *2765:A 4.31066e-05
7 *3112:S *2766:A1 0.000152091
8 *3112:S *3431:A 8.34904e-06
9 *3112:S *834:14 0.000161529
10 *2722:A2 *512:10 4.90954e-05
11 *3008:A *512:10 9.50342e-06
12 *3023:A *3110:S 4.82863e-05
13 *3023:A *3112:S 8.87275e-05
14 *183:143 *3110:S 4.82863e-05
15 *183:143 *3112:S 0.000307043
16 *500:83 *512:10 6.40411e-05
*RES
1 *3109:X *512:10 7.235 
2 *512:10 *3110:S 2.05 
3 *512:10 *3112:S 10.355 
*END

*D_NET *513 0.000937117
*CONN
*I *3111:A I *D sky130_fd_sc_hd__clkbuf_1
*I *3110:X O *D sky130_fd_sc_hd__mux2_1
*CAP
1 *3111:A 0.000266189
2 *3110:X 0.000266189
3 *3111:A *3113:A 0
4 *3111:A *597:75 0
5 *3111:A *753:45 7.33283e-05
6 *3222:D *3111:A 7.33357e-05
7 *3223:D *3111:A 0.000258074
*RES
1 *3110:X *3111:A 12.915 
*END

*D_NET *514 0.00117635
*CONN
*I *3113:A I *D sky130_fd_sc_hd__clkbuf_1
*I *3112:X O *D sky130_fd_sc_hd__mux2_1
*CAP
1 *3113:A 0.000239741
2 *3112:X 0.000239741
3 *3113:A *2766:A1 0
4 *3113:A *834:14 7.03219e-05
5 *2995:A *3113:A 0.000278111
6 *3009:A1 *3113:A 0.000278111
7 *3013:A *3113:A 7.03219e-05
8 *3111:A *3113:A 0
*RES
1 *3112:X *3113:A 13.395 
*END

*D_NET *515 0.00181486
*CONN
*I *3117:S I *D sky130_fd_sc_hd__mux2_1
*I *3115:S I *D sky130_fd_sc_hd__mux2_1
*I *3114:Y O *D sky130_fd_sc_hd__nor2_1
*CAP
1 *3117:S 0.00029855
2 *3115:S 0
3 *3114:Y 0.000260964
4 *515:8 0.000559513
5 *3117:S *2743:A 5.39961e-05
6 *3117:S *3115:A0 9.99968e-05
7 *3117:S *3373:A 4.82863e-05
8 *3117:S *3374:A 2.49909e-05
9 *515:8 *3116:A 2.75229e-05
10 *2541:B *3117:S 3.09179e-05
11 *2544:A0 *3117:S 0.000116165
12 *2780:D *3117:S 3.4222e-05
13 *3114:B *3117:S 0.000159741
14 *3114:B *515:8 9.99942e-05
*RES
1 *3114:Y *515:8 5.08 
2 *515:8 *3115:S 1.6 
3 *515:8 *3117:S 11.945 
*END

*D_NET *516 0.000479144
*CONN
*I *3116:A I *D sky130_fd_sc_hd__clkbuf_1
*I *3115:X O *D sky130_fd_sc_hd__mux2_1
*CAP
1 *3116:A 0.000159933
2 *3115:X 0.000159933
3 *2892:A *3116:A 5.11358e-05
4 *3114:B *3116:A 4.82919e-05
5 *3224:D *3116:A 3.23284e-05
6 *515:8 *3116:A 2.75229e-05
*RES
1 *3115:X *3116:A 6.095 
*END

*D_NET *517 0.00240373
*CONN
*I *3118:A I *D sky130_fd_sc_hd__clkbuf_1
*I *3117:X O *D sky130_fd_sc_hd__mux2_1
*CAP
1 *3118:A 0.000664919
2 *3117:X 0.000664919
3 *3118:A *3224:CLK 9.36907e-05
4 *3118:A *3396:A 0.000197826
5 *2988:A1 *3118:A 0.00022214
6 *3224:D *3118:A 7.83494e-05
7 *355:98 *3118:A 0.000246368
8 *372:12 *3118:A 0.000111041
9 *372:16 *3118:A 0.000124473
*RES
1 *3117:X *3118:A 14.645 
*END

*D_NET *518 0.000864692
*CONN
*I *3120:S I *D sky130_fd_sc_hd__mux2_1
*I *3122:S I *D sky130_fd_sc_hd__mux2_1
*I *3119:X O *D sky130_fd_sc_hd__or2_1
*CAP
1 *3120:S 1.5809e-05
2 *3122:S 0.000160464
3 *3119:X 8.51267e-05
4 *518:12 0.0002614
5 *3120:S *3120:A1 4.99619e-05
6 *3122:S *3120:A1 1.16578e-05
7 *2690:C1 *3122:S 8.8266e-05
8 *3122:A0 *3122:S 0.000146226
9 *440:20 *518:12 0
10 *500:91 *518:12 4.57817e-05
*RES
1 *3119:X *518:12 7.085 
2 *518:12 *3122:S 4.81 
3 *518:12 *3120:S 2.05 
*END

*D_NET *519 0.00125214
*CONN
*I *3121:A I *D sky130_fd_sc_hd__clkbuf_1
*I *3120:X O *D sky130_fd_sc_hd__mux2_1
*CAP
1 *3121:A 0.000448762
2 *3120:X 0.000448762
3 *3121:A *594:67 0.000148465
4 *3121:A *742:45 5.84362e-05
5 *3217:D *3121:A 7.53592e-05
6 *440:20 *3121:A 7.23533e-05
7 *500:83 *3121:A 0
*RES
1 *3120:X *3121:A 13.83 
*END

*D_NET *520 0.0008809
*CONN
*I *3123:A I *D sky130_fd_sc_hd__clkbuf_1
*I *3122:X O *D sky130_fd_sc_hd__mux2_1
*CAP
1 *3123:A 0.000201006
2 *3122:X 0.000201006
3 *3123:A *3122:A1 4.66108e-05
4 *2690:C1 *3123:A 0.000275886
5 *3227:D *3123:A 0.00015639
*RES
1 *3122:X *3123:A 7.715 
*END

*D_NET *521 0.00192295
*CONN
*I *2539:S I *D sky130_fd_sc_hd__mux2_1
*I *3125:S I *D sky130_fd_sc_hd__mux2_1
*I *3124:X O *D sky130_fd_sc_hd__or2_1
*CAP
1 *2539:S 7.70991e-05
2 *3125:S 0.000269655
3 *3124:X 7.994e-05
4 *521:10 0.000426694
5 *2539:S *2695:C 7.67465e-05
6 *2539:S *2779:A 8.97564e-05
7 *2539:S *3406:A 2.42236e-05
8 *3125:S *2538:A 8.5841e-05
9 *3125:S *2700:C 0.000124007
10 *3125:S *3125:A1 3.06427e-05
11 *3125:S *3365:A 0.000221374
12 *3125:S *598:27 0.000122337
13 *3125:S *841:12 0.000163204
14 *521:10 *2695:C 3.39064e-05
15 *521:10 *2779:A 4.75576e-05
16 *430:40 *521:10 4.99619e-05
*RES
1 *3124:X *521:10 5.175 
2 *521:10 *3125:S 10.74 
3 *521:10 *2539:S 6 
*END

*D_NET *522 0.00138567
*CONN
*I *2538:A I *D sky130_fd_sc_hd__clkbuf_1
*I *3125:X O *D sky130_fd_sc_hd__mux2_1
*CAP
1 *2538:A 0.000519299
2 *3125:X 0.000519299
3 *2538:A *2701:A1 0
4 *2538:A *3228:CLK 0
5 *2538:A *598:27 0
6 *3125:S *2538:A 8.5841e-05
7 *3228:D *2538:A 7.47551e-05
8 *3229:D *2538:A 0
9 *355:188 *2538:A 9.32375e-05
10 *500:10 *2538:A 9.32375e-05
*RES
1 *3125:X *2538:A 16.23 
*END

*D_NET *523 0.000249658
*CONN
*I *2540:A I *D sky130_fd_sc_hd__clkbuf_1
*I *2539:X O *D sky130_fd_sc_hd__mux2_1
*CAP
1 *2540:A 4.69105e-05
2 *2539:X 4.69105e-05
3 *2540:A *2539:A1 2.87867e-05
4 *2979:A *2540:A 0
5 *500:10 *2540:A 8.53113e-06
6 *500:18 *2540:A 0.00011852
*RES
1 *2539:X *2540:A 8.58 
*END

*D_NET *524 0.00173501
*CONN
*I *2544:S I *D sky130_fd_sc_hd__mux2_1
*I *2542:S I *D sky130_fd_sc_hd__mux2_1
*I *2541:X O *D sky130_fd_sc_hd__or2_1
*CAP
1 *2544:S 0
2 *2542:S 0.000134824
3 *2541:X 0.000219809
4 *524:12 0.000354633
5 *2542:S *2741:A 8.46768e-05
6 *2542:S *2741:B 7.09204e-05
7 *2542:S *631:41 0.000161693
8 *524:12 *2544:A1 5.17834e-05
9 *524:12 *2772:A 2.75538e-05
10 *524:12 *3382:A 1.82476e-05
11 *524:12 *631:41 1.44259e-05
12 *2741:C *2542:S 4.03163e-05
13 *192:40 *2542:S 0.000164781
14 *193:132 *524:12 0.000391343
15 *511:108 *524:12 0
*RES
1 *2541:X *524:12 10.76 
2 *524:12 *2542:S 9.665 
3 *524:12 *2544:S 1.6 
*END

*D_NET *525 0.0012587
*CONN
*I *2543:A I *D sky130_fd_sc_hd__clkbuf_1
*I *2542:X O *D sky130_fd_sc_hd__mux2_1
*CAP
1 *2543:A 0.000256256
2 *2542:X 0.000256256
3 *2543:A *2741:A 4.76437e-05
4 *428:22 *2543:A 0.000418628
5 *511:108 *2543:A 0.000279914
*RES
1 *2542:X *2543:A 14.055 
*END

*D_NET *526 0.000785571
*CONN
*I *2545:A I *D sky130_fd_sc_hd__clkbuf_1
*I *2544:X O *D sky130_fd_sc_hd__mux2_1
*CAP
1 *2545:A 0.000346972
2 *2544:X 0.000346972
3 *2545:A *2544:A1 4.05674e-06
4 *3057:A0 *2545:A 0
5 *3231:D *2545:A 4.05358e-05
6 *193:132 *2545:A 0
7 *428:22 *2545:A 4.70343e-05
*RES
1 *2544:X *2545:A 12.78 
*END

*D_NET *527 0.0125109
*CONN
*I *2583:A I *D sky130_fd_sc_hd__inv_2
*I *2547:B I *D sky130_fd_sc_hd__or2_2
*I *2578:B I *D sky130_fd_sc_hd__or2_1
*I *2573:B I *D sky130_fd_sc_hd__or2_1
*I *2553:B I *D sky130_fd_sc_hd__or2_1
*I *2558:B I *D sky130_fd_sc_hd__or2_1
*I *2563:B I *D sky130_fd_sc_hd__or2_1
*I *2568:B I *D sky130_fd_sc_hd__nor2_1
*I *2546:X O *D sky130_fd_sc_hd__or3b_4
*CAP
1 *2583:A 0.000100455
2 *2547:B 0
3 *2578:B 4.77208e-05
4 *2573:B 2.35967e-05
5 *2553:B 0
6 *2558:B 0
7 *2563:B 0.000220942
8 *2568:B 7.95512e-05
9 *2546:X 0
10 *527:110 0.000379906
11 *527:50 0.000745245
12 *527:40 0.000454131
13 *527:38 0.000271136
14 *527:24 0.000492801
15 *527:16 0.00214975
16 *527:6 0.00217403
17 *2563:B *2564:A1 2.65814e-06
18 *2563:B *3241:CLK 0
19 *2573:B *544:12 0.000109618
20 *2578:B *2714:A1 0.000164686
21 *2578:B *2793:A1 7.21296e-06
22 *2583:A *528:10 4.23703e-05
23 *527:16 *2579:S 7.23635e-05
24 *527:16 *2864:B 4.82863e-05
25 *527:16 *3268:D 3.66913e-05
26 *527:16 *3429:A 3.83194e-05
27 *527:16 *642:26 0
28 *527:16 *780:69 6.55328e-05
29 *527:24 *2579:S 0.000160635
30 *527:24 *2581:S 0.000122331
31 *527:38 *2798:B2 3.11592e-05
32 *527:38 *544:12 4.85904e-05
33 *527:50 *2797:A1 0.000111453
34 *527:50 *2799:A1 0.000161029
35 *527:50 *3426:A 3.39944e-05
36 *527:110 *2711:B 0.000179915
37 *527:110 *780:69 1.89685e-05
38 *527:110 *780:77 0
39 *2553:A *527:40 4.77719e-05
40 *2553:A *527:50 0.000122801
41 *2558:A *527:40 1.53881e-05
42 *2558:A *527:50 3.51072e-05
43 *2563:A *2563:B 2.69272e-05
44 *2573:A *2573:B 8.41384e-05
45 *2573:A *527:24 0.000245412
46 *2581:A0 *527:24 0.000100061
47 *2720:A *527:50 0
48 *2720:B *2563:B 3.97171e-05
49 *2797:A2 *2578:B 3.31282e-05
50 *2797:A2 *527:24 0.000601942
51 *2797:A2 *527:38 2.03241e-05
52 *2798:A2 *527:38 2.8125e-05
53 *2798:B1 *527:24 3.116e-05
54 *2798:B1 *527:38 6.76263e-05
55 *2799:A2 *527:50 6.74079e-05
56 *2799:B1 *527:50 0
57 *2800:A3 *2578:B 7.63883e-05
58 *2824:A *527:16 2.49909e-05
59 *2864:A *527:16 1.1392e-05
60 *2864:C *527:16 7.31971e-05
61 *185:28 *2563:B 0.000122801
62 *211:32 *527:110 0.000271327
63 *211:65 *527:50 3.31204e-05
64 *211:122 *527:110 0.000216643
65 *218:36 *2568:B 0.000147009
66 *318:23 *527:16 1.39862e-05
67 *322:48 *2583:A 8.23457e-05
68 *343:32 *527:38 0.000110156
69 *343:32 *527:50 0
70 *352:94 *527:16 4.18603e-06
71 *352:94 *527:110 0.000213703
72 *369:18 *2563:B 5.53249e-06
73 *369:18 *527:50 0.000104406
74 *369:30 *2568:B 5.92666e-05
75 *500:115 *2563:B 0.000320279
76 *500:115 *527:50 0.000458026
*RES
1 *2546:X *527:6 3.6 
2 *527:6 *527:16 27.41 
3 *527:16 *527:24 7.395 
4 *527:24 *527:38 8.725 
5 *527:38 *527:40 0.45 
6 *527:40 *527:50 13.49 
7 *527:50 *2568:B 6.015 
8 *527:50 *2563:B 8.67 
9 *527:40 *2558:B 1.6 
10 *527:38 *2553:B 1.6 
11 *527:24 *2573:B 2.74 
12 *527:16 *2578:B 7.49 
13 *527:6 *527:110 10.52 
14 *527:110 *2547:B 1.6 
15 *527:110 *2583:A 3.43 
*END

*D_NET *528 0.0223734
*CONN
*I *2599:B I *D sky130_fd_sc_hd__or2_1
*I *2604:B I *D sky130_fd_sc_hd__or2_1
*I *2594:B I *D sky130_fd_sc_hd__or2_1
*I *2619:B I *D sky130_fd_sc_hd__or2_1
*I *2624:B I *D sky130_fd_sc_hd__or2_1
*I *2589:B I *D sky130_fd_sc_hd__nor2_1
*I *2548:B I *D sky130_fd_sc_hd__or2_1
*I *2609:B I *D sky130_fd_sc_hd__or2_1
*I *2614:B I *D sky130_fd_sc_hd__or2_1
*I *2547:X O *D sky130_fd_sc_hd__or2_2
*CAP
1 *2599:B 0.00018629
2 *2604:B 0.000109934
3 *2594:B 0
4 *2619:B 0.000361374
5 *2624:B 4.48678e-05
6 *2589:B 0.000193953
7 *2548:B 0
8 *2609:B 1.17533e-05
9 *2614:B 0.000203722
10 *2547:X 0.00140662
11 *528:125 0.000354195
12 *528:86 0.000875183
13 *528:72 0.00104167
14 *528:68 0.00109721
15 *528:43 0.000386684
16 *528:37 0.00177123
17 *528:27 0.00171653
18 *528:10 0.00165802
19 *2589:B *2566:S 4.82919e-05
20 *2589:B *2590:A0 8.73147e-06
21 *2589:B *2590:S 0.000196518
22 *2589:B *601:12 0.000120655
23 *2589:B *601:38 3.74161e-05
24 *2589:B *764:30 5.16479e-05
25 *2604:B *2608:A 3.37398e-05
26 *2609:B *566:10 4.82863e-05
27 *2619:B *2625:A1 1.97429e-05
28 *2619:B *2625:S 2.0794e-05
29 *2619:B *780:90 0.000597622
30 *2624:B *2628:A 2.36702e-05
31 *2624:B *604:60 4.66108e-05
32 *2624:B *631:20 7.23513e-05
33 *528:10 *2686:A 0.000273264
34 *528:10 *804:40 0.000355795
35 *528:43 *3390:A 8.8266e-05
36 *528:43 *566:10 4.66108e-05
37 *528:72 *2600:A1 4.66108e-05
38 *528:72 *2603:A 0.000157388
39 *528:72 *3423:A 0.000378923
40 *528:86 *2628:A 6.7063e-05
41 *528:86 *631:20 2.99921e-05
42 *2564:A0 *528:43 0.000305906
43 *2569:A1 *2589:B 6.84148e-05
44 *2569:A1 *528:43 4.43777e-05
45 *2583:A *528:10 4.23703e-05
46 *2594:A *528:72 0.000269309
47 *2599:A *2599:B 8.41384e-05
48 *2619:A *2619:B 1.08758e-05
49 *2685:A *528:68 8.26546e-05
50 *2708:A_N *528:68 5.45736e-05
51 *2713:A2 *2614:B 1.92979e-05
52 *2719:B1 *528:43 4.08514e-05
53 *2720:B *528:37 2.97339e-05
54 *2811:B1 *528:72 0.000411764
55 *2866:B *2589:B 0.000333447
56 *2866:B *528:43 0.000379661
57 *2918:C_N *528:10 1.80164e-05
58 *2948:B *528:10 9.14035e-05
59 *2948:C *528:10 0.000122331
60 *3252:D *2599:B 0.000157525
61 *3253:D *528:72 4.89362e-05
62 *3263:D *2619:B 6.90254e-05
63 *3273:D *528:86 0.000487928
64 *3469:A *528:86 4.63352e-05
65 *171:52 *528:68 0
66 *187:16 *528:37 0.000353764
67 *197:42 *528:37 0.00116394
68 *212:56 *2599:B 0.000117016
69 *212:56 *528:68 0
70 *215:16 *528:37 0
71 *218:20 *2614:B 0.000633345
72 *218:20 *528:37 0.000116533
73 *218:36 *528:43 0.000163109
74 *316:80 *2599:B 8.41384e-05
75 *316:82 *2614:B 1.17036e-05
76 *317:62 *528:10 1.58143e-05
77 *318:58 *528:10 4.88568e-05
78 *318:69 *528:10 9.27255e-06
79 *318:99 *528:10 3.17482e-05
80 *318:99 *528:27 0.000133495
81 *318:99 *528:68 3.85204e-05
82 *322:48 *528:10 6.07575e-06
83 *348:91 *2619:B 0.000185395
84 *355:40 *2619:B 0.000119246
85 *355:40 *2624:B 1.7635e-05
86 *393:12 *528:27 0.000122912
87 *393:12 *528:68 0.00089621
88 *393:12 *528:125 0.000105393
89 *401:22 *2609:B 2.75145e-05
90 *401:22 *528:43 5.74791e-05
91 *409:12 *528:10 0.000120102
92 *409:84 *2619:B 4.21973e-05
93 *413:72 *2624:B 2.75145e-05
94 *500:115 *528:37 0.000316372
*RES
1 *2547:X *528:10 21.2625 
2 *528:10 *2614:B 5.80277 
3 *528:10 *528:27 1.635 
4 *528:27 *528:37 4.5796 
5 *528:37 *528:43 11.1575 
6 *528:43 *2609:B 2.05 
7 *528:43 *2548:B 1.6 
8 *528:37 *2589:B 9.2325 
9 *528:27 *528:68 10.9425 
10 *528:68 *528:72 13.835 
11 *528:72 *528:86 12.9975 
12 *528:86 *2624:B 4.9575 
13 *528:86 *2619:B 16.78 
14 *528:72 *2594:B 1.6 
15 *528:68 *528:125 3.38 
16 *528:125 *2604:B 3.085 
17 *528:125 *2599:B 10.19 
*END

*D_NET *529 0.00189355
*CONN
*I *2551:S I *D sky130_fd_sc_hd__mux2_1
*I *2549:S I *D sky130_fd_sc_hd__mux2_1
*I *2548:X O *D sky130_fd_sc_hd__or2_1
*CAP
1 *2551:S 4.147e-05
2 *2549:S 0.000130367
3 *2548:X 0.000209718
4 *529:8 0.000381556
5 *2549:S *821:8 4.41506e-05
6 *2551:S *2612:A1 6.52265e-05
7 *2551:S *875:8 0.000197269
8 *529:8 *591:30 9.44791e-05
9 *2612:A0 *529:8 5.20968e-05
10 *2797:B1 *529:8 0
11 *3232:D *2549:S 0.000118527
12 *316:96 *529:8 5.21627e-05
13 *320:16 *2549:S 8.89673e-05
14 *320:16 *529:8 0.000200402
15 *401:22 *529:8 0.00010467
16 *500:115 *2551:S 8.49205e-05
17 *500:119 *2549:S 1.52945e-05
18 *500:119 *529:8 1.22762e-05
*RES
1 *2548:X *529:8 9.315 
2 *529:8 *2549:S 6.63 
3 *529:8 *2551:S 5.43 
*END

*D_NET *530 0.000353432
*CONN
*I *2550:A I *D sky130_fd_sc_hd__clkbuf_1
*I *2549:X O *D sky130_fd_sc_hd__mux2_1
*CAP
1 *2550:A 3.66377e-05
2 *2549:X 3.66377e-05
3 *2550:A *3440:A 0.000139245
4 *2553:A *2550:A 0.000140912
*RES
1 *2549:X *2550:A 8.835 
*END

*D_NET *531 0.00130753
*CONN
*I *2552:A I *D sky130_fd_sc_hd__clkbuf_1
*I *2551:X O *D sky130_fd_sc_hd__mux2_1
*CAP
1 *2552:A 0.000411726
2 *2551:X 0.000411726
3 *2552:A *3233:CLK 9.51579e-05
4 *2552:A *875:8 8.40269e-05
5 *3233:D *2552:A 0.000186378
6 *320:16 *2552:A 0.000118513
*RES
1 *2551:X *2552:A 15.015 
*END

*D_NET *532 0.00210601
*CONN
*I *2554:S I *D sky130_fd_sc_hd__mux2_1
*I *2556:S I *D sky130_fd_sc_hd__mux2_1
*I *2553:X O *D sky130_fd_sc_hd__or2_1
*CAP
1 *2554:S 2.48839e-05
2 *2556:S 0
3 *2553:X 0.00054919
4 *532:14 0.000574073
5 *2554:S *2576:S 7.37598e-05
6 *532:14 *2559:A1 0
7 *532:14 *2576:A1 0
8 *532:14 *2576:S 0.000160211
9 *532:14 *2797:A1 0
10 *532:14 *2798:A1 8.52362e-05
11 *532:14 *2799:A1 0
12 *532:14 *599:29 0
13 *532:14 *819:14 0.000204456
14 *2558:A *532:14 0.000156758
15 *343:32 *532:14 0.000131644
16 *511:40 *2554:S 5.57848e-05
17 *511:40 *532:14 9.00151e-05
*RES
1 *2553:X *532:14 16.325 
2 *532:14 *2556:S 1.6 
3 *532:14 *2554:S 2.74 
*END

*D_NET *533 0.000505457
*CONN
*I *2555:A I *D sky130_fd_sc_hd__clkbuf_1
*I *2554:X O *D sky130_fd_sc_hd__mux2_1
*CAP
1 *2555:A 9.21908e-05
2 *2554:X 9.21908e-05
3 *2555:A *2575:A 0.000116853
4 *2555:A *544:12 0.00011852
5 *511:30 *2555:A 8.57024e-05
*RES
1 *2554:X *2555:A 9.375 
*END

*D_NET *534 0.000967473
*CONN
*I *2557:A I *D sky130_fd_sc_hd__clkbuf_1
*I *2556:X O *D sky130_fd_sc_hd__mux2_1
*CAP
1 *2557:A 0.000240477
2 *2556:X 0.000240477
3 *2557:A *2576:A1 0.000320605
4 *2557:A *2576:S 8.4984e-05
5 *2557:A *3339:A 2.0514e-05
6 *2557:A *698:16 4.66826e-05
7 *2557:A *819:14 0
8 *3235:D *2557:A 1.37328e-05
*RES
1 *2556:X *2557:A 12.315 
*END

*D_NET *535 0.00182098
*CONN
*I *2561:S I *D sky130_fd_sc_hd__mux2_1
*I *2559:S I *D sky130_fd_sc_hd__mux2_1
*I *2558:X O *D sky130_fd_sc_hd__or2_1
*CAP
1 *2561:S 0.000215241
2 *2559:S 5.8992e-05
3 *2558:X 0.000208872
4 *535:10 0.000483105
5 *2559:S *2797:A1 0.000203755
6 *2559:S *817:18 1.1561e-05
7 *2559:S *818:14 0.000162318
8 *2561:S *2561:A1 8.65961e-05
9 *2561:S *817:18 8.49205e-05
10 *535:10 *2797:A1 9.42517e-05
11 *535:10 *2799:A1 9.38844e-05
12 *2553:A *535:10 1.16855e-05
13 *511:55 *2559:S 8.08153e-06
14 *511:55 *535:10 9.77135e-05
*RES
1 *2558:X *535:10 7.905 
2 *535:10 *2559:S 6 
3 *535:10 *2561:S 7.185 
*END

*D_NET *536 0.00128423
*CONN
*I *2560:A I *D sky130_fd_sc_hd__clkbuf_1
*I *2559:X O *D sky130_fd_sc_hd__mux2_1
*CAP
1 *2560:A 0.000556554
2 *2559:X 0.000556554
3 *2560:A *3237:CLK 2.16917e-05
4 *2560:A *592:52 0.000119631
5 *2560:A *817:18 1.4399e-05
6 *3237:D *2560:A 1.54049e-05
*RES
1 *2559:X *2560:A 11.615 
*END

*D_NET *537 0.000176582
*CONN
*I *2562:A I *D sky130_fd_sc_hd__clkbuf_1
*I *2561:X O *D sky130_fd_sc_hd__mux2_1
*CAP
1 *2562:A 8.8291e-05
2 *2561:X 8.8291e-05
*RES
1 *2561:X *2562:A 4.61 
*END

*D_NET *538 0.0016968
*CONN
*I *2566:S I *D sky130_fd_sc_hd__mux2_1
*I *2564:S I *D sky130_fd_sc_hd__mux2_1
*I *2563:X O *D sky130_fd_sc_hd__or2_1
*CAP
1 *2566:S 0.000370603
2 *2564:S 4.52655e-05
3 *2563:X 0
4 *538:4 0.000415868
5 *2564:S *2564:A1 0.000100734
6 *2566:S *2564:A1 9.76003e-05
7 *2566:S *2566:A1 3.44539e-05
8 *2566:S *2592:S 9.02464e-05
9 *2566:S *764:30 0.000162769
10 *2566:A0 *2566:S 2.68526e-05
11 *2589:B *2566:S 4.82919e-05
12 *185:28 *2564:S 2.31229e-05
13 *343:32 *2566:S 0
14 *369:30 *2566:S 0.000280988
*RES
1 *2563:X *538:4 1.6 
2 *538:4 *2564:S 2.755 
3 *538:4 *2566:S 13.745 
*END

*D_NET *539 0.00119286
*CONN
*I *2565:A I *D sky130_fd_sc_hd__clkbuf_1
*I *2564:X O *D sky130_fd_sc_hd__mux2_1
*CAP
1 *2565:A 0.000368899
2 *2564:X 0.000368899
3 *2565:A *2717:A1 0
4 *2565:A *601:12 4.80285e-05
5 *185:28 *2565:A 0.000105664
6 *187:57 *2565:A 0.000151624
7 *218:63 *2565:A 0.000149749
*RES
1 *2564:X *2565:A 14.04 
*END

*D_NET *540 0.00105192
*CONN
*I *2567:A I *D sky130_fd_sc_hd__clkbuf_1
*I *2566:X O *D sky130_fd_sc_hd__mux2_1
*CAP
1 *2567:A 0.00029203
2 *2566:X 0.00029203
3 *2567:A *2590:A0 0.000134477
4 *2567:A *2590:S 0.000157172
5 *2567:A *2592:S 0.000160213
6 *2866:B *2567:A 8.02938e-06
7 *353:22 *2567:A 7.9642e-06
*RES
1 *2566:X *2567:A 11.7 
*END

*D_NET *541 0.00169994
*CONN
*I *2571:S I *D sky130_fd_sc_hd__mux2_1
*I *2569:S I *D sky130_fd_sc_hd__mux2_1
*I *2568:Y O *D sky130_fd_sc_hd__nor2_1
*CAP
1 *2571:S 0
2 *2569:S 0.000328767
3 *2568:Y 0.00013111
4 *541:12 0.000459878
5 *2569:S *2570:A 0
6 *2720:A *2569:S 0.000158532
7 *2720:A *541:12 0.000114492
8 *2720:B *2569:S 2.49909e-05
9 *2720:C *2569:S 0.000134516
10 *2721:A2 *2569:S 6.47753e-05
11 *218:36 *541:12 0.000119242
12 *343:32 *541:12 0.00011099
13 *405:35 *2569:S 5.26447e-05
*RES
1 *2568:Y *541:12 8.12 
2 *541:12 *2569:S 7.525 
3 *541:12 *2571:S 1.6 
*END

*D_NET *542 0.00090317
*CONN
*I *2570:A I *D sky130_fd_sc_hd__clkbuf_1
*I *2569:X O *D sky130_fd_sc_hd__mux2_1
*CAP
1 *2570:A 0.000236558
2 *2569:X 0.000236558
3 *2570:A *2719:B2 5.95312e-05
4 *2569:S *2570:A 0
5 *2719:B1 *2570:A 4.66108e-05
6 *2720:C *2570:A 6.71882e-05
7 *187:33 *2570:A 0.00019637
8 *405:35 *2570:A 6.03532e-05
*RES
1 *2569:X *2570:A 8.165 
*END

*D_NET *543 0.0007287
*CONN
*I *2572:A I *D sky130_fd_sc_hd__clkbuf_1
*I *2571:X O *D sky130_fd_sc_hd__mux2_1
*CAP
1 *2572:A 0.00013985
2 *2571:X 0.00013985
3 *2572:A *742:10 0.000134134
4 *2572:A *813:12 0
5 *2571:A1 *2572:A 0.000305518
6 *215:54 *2572:A 0
7 *362:35 *2572:A 9.34773e-06
*RES
1 *2571:X *2572:A 10.875 
*END

*D_NET *544 0.00417521
*CONN
*I *2574:S I *D sky130_fd_sc_hd__mux2_1
*I *2576:S I *D sky130_fd_sc_hd__mux2_1
*I *2573:X O *D sky130_fd_sc_hd__or2_1
*CAP
1 *2574:S 6.05811e-05
2 *2576:S 0.000457406
3 *2573:X 0.000659006
4 *544:12 0.00117699
5 *2574:S *2554:A1 0.000138175
6 *2574:S *2574:A1 4.99619e-05
7 *2574:S *2575:A 9.36815e-05
8 *2576:S *2554:A1 8.12958e-05
9 *2576:S *2575:A 4.60584e-05
10 *2576:S *2576:A1 4.66742e-05
11 *544:12 *2575:A 2.15594e-05
12 *544:12 *2580:A 0
13 *544:12 *2716:A1 0.000145924
14 *544:12 *599:29 0
15 *2554:S *2576:S 7.37598e-05
16 *2555:A *544:12 0.00011852
17 *2557:A *2576:S 8.4984e-05
18 *2573:A *544:12 6.04372e-05
19 *2573:B *544:12 0.000109618
20 *3245:D *544:12 9.24825e-05
21 *358:37 *544:12 6.7922e-05
22 *511:22 *2574:S 1.12578e-05
23 *511:30 *2574:S 0.000138175
24 *511:30 *2576:S 9.8249e-05
25 *511:40 *2576:S 0.000133685
26 *527:38 *544:12 4.85904e-05
27 *532:14 *2576:S 0.000160211
*RES
1 *2573:X *544:12 17.66 
2 *544:12 *2576:S 10.75 
3 *544:12 *2574:S 4.825 
*END

*D_NET *545 0.00095896
*CONN
*I *2575:A I *D sky130_fd_sc_hd__clkbuf_1
*I *2574:X O *D sky130_fd_sc_hd__mux2_1
*CAP
1 *2575:A 0.000166756
2 *2574:X 0.000166756
3 *2575:A *2554:A1 0.000183442
4 *2575:A *599:29 1.94723e-05
5 *2555:A *2575:A 0.000116853
6 *2574:S *2575:A 9.36815e-05
7 *2576:S *2575:A 4.60584e-05
8 *3234:D *2575:A 0.000138551
9 *3242:D *2575:A 5.83121e-06
10 *544:12 *2575:A 2.15594e-05
*RES
1 *2574:X *2575:A 11.985 
*END

*D_NET *546 0.00051047
*CONN
*I *2577:A I *D sky130_fd_sc_hd__clkbuf_1
*I *2576:X O *D sky130_fd_sc_hd__mux2_1
*CAP
1 *2577:A 0.000240216
2 *2576:X 0.000240216
3 *2577:A *2797:A1 0
4 *2577:A *3339:A 0
5 *2577:A *698:16 3.00381e-05
6 *3235:D *2577:A 0
7 *3243:D *2577:A 0
*RES
1 *2576:X *2577:A 11.175 
*END

*D_NET *547 0.00153231
*CONN
*I *2579:S I *D sky130_fd_sc_hd__mux2_1
*I *2581:S I *D sky130_fd_sc_hd__mux2_1
*I *2578:X O *D sky130_fd_sc_hd__or2_1
*CAP
1 *2579:S 0.00011865
2 *2581:S 2.39036e-05
3 *2578:X 4.62018e-05
4 *547:10 0.000188756
5 *2579:S *2714:A1 0.000195672
6 *2579:S *2714:B2 7.93757e-05
7 *2579:S *3429:A 0.000194914
8 *547:10 *2793:A1 0.000113797
9 *2573:A *2579:S 6.35017e-05
10 *2573:A *2581:S 4.42148e-05
11 *2581:A0 *2581:S 4.77769e-05
12 *2581:A0 *547:10 6.02202e-05
13 *527:16 *2579:S 7.23635e-05
14 *527:24 *2579:S 0.000160635
15 *527:24 *2581:S 0.000122331
*RES
1 *2578:X *547:10 6.98 
2 *547:10 *2581:S 2.74 
3 *547:10 *2579:S 10.175 
*END

*D_NET *548 0.000951295
*CONN
*I *2580:A I *D sky130_fd_sc_hd__clkbuf_1
*I *2579:X O *D sky130_fd_sc_hd__mux2_1
*CAP
1 *2580:A 0.000475648
2 *2579:X 0.000475648
3 *511:22 *2580:A 0
4 *544:12 *2580:A 0
*RES
1 *2579:X *2580:A 14.28 
*END

*D_NET *549 0.000566898
*CONN
*I *2582:A I *D sky130_fd_sc_hd__clkbuf_1
*I *2581:X O *D sky130_fd_sc_hd__mux2_1
*CAP
1 *2582:A 0.000156648
2 *2581:X 0.000156648
3 *2582:A *2716:A1 0
4 *2582:A *2716:B2 0
5 *2797:A2 *2582:A 0.000124007
6 *3245:D *2582:A 3.86607e-05
7 *215:24 *2582:A 4.13879e-05
8 *358:37 *2582:A 4.95463e-05
*RES
1 *2581:X *2582:A 9.975 
*END

*D_NET *550 0.000595295
*CONN
*I *2584:B I *D sky130_fd_sc_hd__nand2_1
*I *2583:Y O *D sky130_fd_sc_hd__inv_2
*CAP
1 *2584:B 0.000181482
2 *2583:Y 0.000181482
3 *2584:B *2810:B1 0.000116165
4 *2584:B *591:90 0.000116165
*RES
1 *2583:Y *2584:B 10.065 
*END

*D_NET *551 0.00578216
*CONN
*I *2585:S I *D sky130_fd_sc_hd__mux2_1
*I *2587:S I *D sky130_fd_sc_hd__mux2_1
*I *2584:Y O *D sky130_fd_sc_hd__nand2_1
*CAP
1 *2585:S 4.27918e-05
2 *2587:S 0.000255923
3 *2584:Y 0.00109941
4 *551:16 0.00139813
5 *2587:S *3269:D 0.000313743
6 *2587:S *609:53 0.000239646
7 *2587:S *831:8 8.49205e-05
8 *551:16 *3270:D 0.000311974
9 *551:16 *3310:A 2.87133e-05
10 *551:16 *605:35 0.000268548
11 *551:16 *605:45 9.00874e-05
12 *551:16 *605:109 0.000235572
13 *551:16 *609:12 9.79922e-05
14 *551:16 *720:18 2.75229e-05
15 *2631:A *551:16 0
16 *2632:A0 *551:16 0.000512724
17 *2675:B *2585:S 4.66826e-05
18 *2675:B *2587:S 7.8889e-05
19 *3275:D *551:16 0.000175773
20 *316:37 *551:16 8.59296e-05
21 *316:166 *551:16 0
22 *511:102 *551:16 0.00038719
*RES
1 *2584:Y *551:16 28.385 
2 *551:16 *2587:S 12.17 
3 *551:16 *2585:S 2.395 
*END

*D_NET *552 0.00115206
*CONN
*I *2586:A I *D sky130_fd_sc_hd__clkbuf_1
*I *2585:X O *D sky130_fd_sc_hd__mux2_1
*CAP
1 *2586:A 0.000433075
2 *2585:X 0.000433075
3 *2586:A *2585:A1 3.00381e-05
4 *2586:A *2748:A 0
5 *2586:A *2776:A 0
6 *2586:A *3318:A 0.000116165
7 *2586:A *3414:A 0
8 *2586:A *684:90 0
9 *2586:A *933:10 0
10 *2620:A0 *2586:A 9.91714e-05
11 *3246:D *2586:A 4.05358e-05
12 *3247:D *2586:A 0
13 *511:102 *2586:A 0
*RES
1 *2585:X *2586:A 15.15 
*END

*D_NET *553 0.000547879
*CONN
*I *2588:A I *D sky130_fd_sc_hd__clkbuf_1
*I *2587:X O *D sky130_fd_sc_hd__mux2_1
*CAP
1 *2588:A 0.000131553
2 *2587:X 0.000131553
3 *2588:A *2620:A1 6.25365e-05
4 *2588:A *2771:A 0.000143266
5 *511:102 *2588:A 7.89689e-05
*RES
1 *2587:X *2588:A 9.975 
*END

*D_NET *554 0.00277297
*CONN
*I *2592:S I *D sky130_fd_sc_hd__mux2_1
*I *2590:S I *D sky130_fd_sc_hd__mux2_1
*I *2589:Y O *D sky130_fd_sc_hd__nor2_1
*CAP
1 *2592:S 0.000433988
2 *2590:S 0.000248843
3 *2589:Y 0
4 *554:4 0.000682831
5 *2590:S *2590:A0 1.07563e-05
6 *2590:S *2591:A 2.88785e-05
7 *2590:S *3311:A 4.66742e-05
8 *2590:S *601:12 0.00015896
9 *2590:S *601:38 4.66108e-05
10 *2592:S *2566:A1 0
11 *2592:S *2592:A0 1.42598e-05
12 *2592:S *2593:A 0
13 *2592:S *601:38 0
14 *2592:S *601:53 0
15 *2566:S *2592:S 9.02464e-05
16 *2567:A *2590:S 0.000157172
17 *2567:A *2592:S 0.000160213
18 *2569:A1 *2590:S 9.92613e-05
19 *2589:B *2590:S 0.000196518
20 *2592:A1 *2592:S 2.68526e-05
21 *2720:B *2590:S 0
22 *2866:B *2590:S 3.36967e-05
23 *3249:D *2592:S 7.21654e-05
24 *348:44 *2590:S 3.57349e-05
25 *500:93 *2592:S 0.000229305
*RES
1 *2589:Y *554:4 1.6 
2 *554:4 *2590:S 11.945 
3 *554:4 *2592:S 14.39 
*END

*D_NET *555 0.00115101
*CONN
*I *2591:A I *D sky130_fd_sc_hd__clkbuf_1
*I *2590:X O *D sky130_fd_sc_hd__mux2_1
*CAP
1 *2591:A 0.000219473
2 *2590:X 0.000219473
3 *2591:A *3311:A 1.4389e-05
4 *2590:S *2591:A 2.88785e-05
5 *2720:B *2591:A 7.01753e-05
6 *2866:B *2591:A 0.000283129
7 *343:51 *2591:A 0.000315491
*RES
1 *2590:X *2591:A 13.11 
*END

*D_NET *556 0.000810282
*CONN
*I *2593:A I *D sky130_fd_sc_hd__clkbuf_1
*I *2592:X O *D sky130_fd_sc_hd__mux2_1
*CAP
1 *2593:A 0.000208708
2 *2592:X 0.000208708
3 *2593:A *601:53 0.000153217
4 *2592:S *2593:A 0
5 *2833:A1 *2593:A 9.044e-05
6 *369:30 *2593:A 0.000149208
*RES
1 *2592:X *2593:A 11.415 
*END

*D_NET *557 0.00204164
*CONN
*I *2597:S I *D sky130_fd_sc_hd__mux2_1
*I *2595:S I *D sky130_fd_sc_hd__mux2_1
*I *2594:X O *D sky130_fd_sc_hd__or2_1
*CAP
1 *2597:S 9.86877e-05
2 *2595:S 0.000344725
3 *2594:X 0.000149311
4 *557:10 0.000592723
5 *2595:S *2596:A 1.16855e-05
6 *2597:S *2596:A 0.000131046
7 *2597:S *2789:B2 2.49909e-05
8 *2595:A0 *2595:S 8.97053e-06
9 *2811:B1 *2595:S 1.08758e-05
10 *2811:B1 *557:10 2.01737e-05
11 *3250:D *2597:S 5.47313e-05
12 *3250:D *557:10 7.09363e-05
13 *183:10 *2597:S 0.000237879
14 *183:10 *557:10 0.000238292
15 *327:64 *2597:S 4.66108e-05
*RES
1 *2594:X *557:10 6.96 
2 *557:10 *2595:S 7.635 
3 *557:10 *2597:S 6.96 
*END

*D_NET *558 0.00101036
*CONN
*I *2596:A I *D sky130_fd_sc_hd__clkbuf_1
*I *2595:X O *D sky130_fd_sc_hd__mux2_1
*CAP
1 *2596:A 0.000253692
2 *2595:X 0.000253692
3 *2596:A *2789:B2 2.62303e-05
4 *2595:S *2596:A 1.16855e-05
5 *2597:S *2596:A 0.000131046
6 *3250:D *2596:A 0.000235263
7 *183:10 *2596:A 9.87538e-05
*RES
1 *2595:X *2596:A 12.36 
*END

*D_NET *559 0.00194726
*CONN
*I *2598:A I *D sky130_fd_sc_hd__clkbuf_1
*I *2597:X O *D sky130_fd_sc_hd__mux2_1
*CAP
1 *2598:A 0.00026493
2 *2597:X 0.00026493
3 *2598:A *2600:A1 0.000343641
4 *2598:A *2600:S 0.00012182
5 *2598:A *2738:A1 3.52649e-05
6 *2598:A *920:8 1.56428e-05
7 *2755:B2 *2598:A 0.000195437
8 *2790:B1 *2598:A 5.33085e-05
9 *3251:D *2598:A 3.51072e-05
10 *316:60 *2598:A 5.83278e-05
11 *316:80 *2598:A 0.000111607
12 *327:81 *2598:A 0.000270617
13 *356:49 *2598:A 0.000176629
*RES
1 *2597:X *2598:A 16.245 
*END

*D_NET *560 0.00193896
*CONN
*I *2600:S I *D sky130_fd_sc_hd__mux2_1
*I *2602:S I *D sky130_fd_sc_hd__mux2_1
*I *2599:X O *D sky130_fd_sc_hd__or2_1
*CAP
1 *2600:S 0.000100766
2 *2602:S 0
3 *2599:X 0.000285077
4 *560:22 0.000385843
5 *2600:S *2600:A1 4.66108e-05
6 *2600:S *2602:A1 0.000120921
7 *560:22 *2601:A 4.66108e-05
8 *560:22 *2602:A1 3.95826e-05
9 *2598:A *2600:S 0.00012182
10 *2790:A2 *560:22 0
11 *2790:B1 *2600:S 0.000102529
12 *2790:B1 *560:22 0.000220015
13 *2902:A *560:22 4.66108e-05
14 *174:92 *560:22 9.11179e-05
15 *174:102 *560:22 6.58995e-05
16 *316:60 *2600:S 2.10214e-05
17 *316:80 *2600:S 2.03356e-05
18 *316:80 *560:22 2.69153e-05
19 *327:81 *2600:S 5.26385e-05
20 *327:81 *560:22 1.4174e-05
21 *378:35 *560:22 0.000130472
*RES
1 *2599:X *560:22 12.425 
2 *560:22 *2602:S 1.6 
3 *560:22 *2600:S 4.81 
*END

*D_NET *561 0.00203166
*CONN
*I *2601:A I *D sky130_fd_sc_hd__clkbuf_1
*I *2600:X O *D sky130_fd_sc_hd__mux2_1
*CAP
1 *2601:A 0.000681491
2 *2600:X 0.000681491
3 *2601:A *2738:A1 7.03276e-05
4 *2601:A *898:8 0
5 *2599:A *2601:A 0.000194299
6 *2755:B2 *2601:A 7.03276e-05
7 *3253:D *2601:A 1.43717e-05
8 *316:80 *2601:A 0.000272739
9 *560:22 *2601:A 4.66108e-05
*RES
1 *2600:X *2601:A 16.38 
*END

*D_NET *562 0.00150517
*CONN
*I *2603:A I *D sky130_fd_sc_hd__clkbuf_1
*I *2602:X O *D sky130_fd_sc_hd__mux2_1
*CAP
1 *2603:A 0.00018851
2 *2602:X 0.00018851
3 *2603:A *682:12 3.96269e-05
4 *2811:B1 *2603:A 0.000158541
5 *3253:D *2603:A 0.000325615
6 *197:70 *2603:A 0.000446983
7 *528:72 *2603:A 0.000157388
*RES
1 *2602:X *2603:A 14.145 
*END

*D_NET *563 0.00193296
*CONN
*I *2605:S I *D sky130_fd_sc_hd__mux2_1
*I *2607:S I *D sky130_fd_sc_hd__mux2_1
*I *2604:X O *D sky130_fd_sc_hd__or2_1
*CAP
1 *2605:S 0
2 *2607:S 0.00019963
3 *2604:X 0.000103319
4 *563:6 0.000302949
5 *2607:S *2606:A 0.000166956
6 *2607:S *2607:A1 0.000523692
7 *2607:S *2608:A 9.54149e-05
8 *563:6 *2607:A1 1.33285e-05
9 *563:6 *2608:A 0.000214118
10 *563:6 *3317:A 0.000265768
11 *397:18 *563:6 4.77807e-05
*RES
1 *2604:X *563:6 5.155 
2 *563:6 *2607:S 7.6 
3 *563:6 *2605:S 1.6 
*END

*D_NET *564 0.00102091
*CONN
*I *2606:A I *D sky130_fd_sc_hd__clkbuf_1
*I *2605:X O *D sky130_fd_sc_hd__mux2_1
*CAP
1 *2606:A 0.000233882
2 *2605:X 0.000233882
3 *2606:A *2608:A 8.35157e-05
4 *2607:S *2606:A 0.000166956
5 *3254:D *2606:A 0.000302669
*RES
1 *2605:X *2606:A 8.405 
*END

*D_NET *565 0.00203926
*CONN
*I *2608:A I *D sky130_fd_sc_hd__clkbuf_1
*I *2607:X O *D sky130_fd_sc_hd__mux2_1
*CAP
1 *2608:A 0.0007919
2 *2607:X 0.0007919
3 *2604:B *2608:A 3.37398e-05
4 *2606:A *2608:A 8.35157e-05
5 *2607:S *2608:A 9.54149e-05
6 *397:18 *2608:A 2.86691e-05
7 *563:6 *2608:A 0.000214118
*RES
1 *2607:X *2608:A 13.145 
*END

*D_NET *566 0.00175477
*CONN
*I *2610:S I *D sky130_fd_sc_hd__mux2_1
*I *2612:S I *D sky130_fd_sc_hd__mux2_1
*I *2609:X O *D sky130_fd_sc_hd__or2_1
*CAP
1 *2610:S 0
2 *2612:S 0.000102636
3 *2609:X 0.000183707
4 *566:10 0.000286342
5 *2612:S *2610:A1 5.53249e-06
6 *566:10 *2610:A1 5.7344e-05
7 *566:10 *2719:A1 0.000227536
8 *2609:B *566:10 4.82863e-05
9 *2719:B1 *566:10 0.000122325
10 *2830:A1 *2612:S 0
11 *2830:A1 *566:10 0
12 *320:16 *2612:S 0.000205428
13 *320:16 *566:10 0.00031375
14 *320:51 *566:10 4.21314e-05
15 *401:22 *566:10 2.7441e-05
16 *401:34 *566:10 8.57024e-05
17 *528:43 *566:10 4.66108e-05
*RES
1 *2609:X *566:10 9.96 
2 *566:10 *2612:S 6 
3 *566:10 *2610:S 3.6 
*END

*D_NET *567 0.000592628
*CONN
*I *2611:A I *D sky130_fd_sc_hd__clkbuf_1
*I *2610:X O *D sky130_fd_sc_hd__mux2_1
*CAP
1 *2611:A 0.000223118
2 *2610:X 0.000223118
3 *211:65 *2611:A 0.000146392
*RES
1 *2610:X *2611:A 7.13 
*END

*D_NET *568 0.0006039
*CONN
*I *2613:A I *D sky130_fd_sc_hd__clkbuf_1
*I *2612:X O *D sky130_fd_sc_hd__mux2_1
*CAP
1 *2613:A 0.000272989
2 *2612:X 0.000272989
3 *2613:A *592:36 0
4 *2613:A *875:8 1.7386e-05
5 *2830:A1 *2613:A 0
6 *3257:D *2613:A 4.05358e-05
*RES
1 *2612:X *2613:A 10.755 
*END

*D_NET *569 0.00156354
*CONN
*I *2615:S I *D sky130_fd_sc_hd__mux2_1
*I *2617:S I *D sky130_fd_sc_hd__mux2_1
*I *2614:X O *D sky130_fd_sc_hd__or2_1
*CAP
1 *2615:S 0
2 *2617:S 0.000166108
3 *2614:X 9.78949e-05
4 *569:10 0.000264003
5 *2617:S *2615:A1 8.40213e-05
6 *2617:S *2617:A1 0.000111135
7 *2617:S *854:16 8.40269e-05
8 *2615:A0 *2617:S 1.34594e-05
9 *2617:A0 *2617:S 5.83121e-06
10 *207:42 *569:10 0.000306308
11 *316:96 *2617:S 0.000124448
12 *374:45 *569:10 0.000306308
*RES
1 *2614:X *569:10 9.275 
2 *569:10 *2617:S 6.25 
3 *569:10 *2615:S 1.6 
*END

*D_NET *570 0.0014318
*CONN
*I *2616:A I *D sky130_fd_sc_hd__clkbuf_1
*I *2615:X O *D sky130_fd_sc_hd__mux2_1
*CAP
1 *2616:A 0.0002875
2 *2615:X 0.0002875
3 *2616:A *2716:B2 5.13081e-06
4 *2616:A *2793:A1 0.000263871
5 *2581:A0 *2616:A 5.13155e-05
6 *2800:A3 *2616:A 0.000154213
7 *197:42 *2616:A 0.000284188
8 *327:101 *2616:A 9.80854e-05
*RES
1 *2615:X *2616:A 14.64 
*END

*D_NET *571 0.000233889
*CONN
*I *2618:A I *D sky130_fd_sc_hd__clkbuf_1
*I *2617:X O *D sky130_fd_sc_hd__mux2_1
*CAP
1 *2618:A 8.67026e-05
2 *2617:X 8.67026e-05
3 *3259:D *2618:A 7.00889e-06
4 *316:96 *2618:A 5.34747e-05
*RES
1 *2617:X *2618:A 4.955 
*END

*D_NET *572 0.00194145
*CONN
*I *2620:S I *D sky130_fd_sc_hd__mux2_1
*I *2622:S I *D sky130_fd_sc_hd__mux2_1
*I *2619:X O *D sky130_fd_sc_hd__or2_1
*CAP
1 *2620:S 0.00014812
2 *2622:S 0.000145799
3 *2619:X 0.000111606
4 *572:8 0.000405524
5 *2620:S *2742:A1 0.000136884
6 *2620:S *779:74 0
7 *2622:S *2622:A1 2.88357e-05
8 *2622:S *2810:A1 2.98587e-05
9 *2622:S *605:33 8.46818e-05
10 *2587:A0 *2622:S 6.23738e-06
11 *2675:B *2620:S 0.000406771
12 *2675:B *2622:S 8.53113e-06
13 *2810:A2 *2622:S 4.06592e-05
14 *3261:D *572:8 0.000138547
15 *327:44 *2622:S 3.54721e-05
16 *327:64 *2620:S 3.47668e-05
17 *327:64 *2622:S 9.72118e-06
18 *327:64 *572:8 0.000121659
19 *355:82 *572:8 4.77769e-05
*RES
1 *2619:X *572:8 6.12 
2 *572:8 *2622:S 6.9 
3 *572:8 *2620:S 8.295 
*END

*D_NET *573 0.00181136
*CONN
*I *2621:A I *D sky130_fd_sc_hd__clkbuf_1
*I *2620:X O *D sky130_fd_sc_hd__mux2_1
*CAP
1 *2621:A 0.000593628
2 *2620:X 0.000593628
3 *2621:A *2738:B2 0.000341552
4 *2621:A *631:20 0.000159528
5 *2619:A *2621:A 4.00541e-06
6 *327:64 *2621:A 2.32241e-05
7 *409:84 *2621:A 9.57924e-05
*RES
1 *2620:X *2621:A 16.53 
*END

*D_NET *574 0.00110878
*CONN
*I *2623:A I *D sky130_fd_sc_hd__clkbuf_1
*I *2622:X O *D sky130_fd_sc_hd__mux2_1
*CAP
1 *2623:A 0.00026943
2 *2622:X 0.00026943
3 *2623:A *2810:B1 5.83121e-06
4 *2623:A *3260:CLK 0
5 *2623:A *604:72 0
6 *2810:A2 *2623:A 8.73421e-05
7 *3260:D *2623:A 0.000141599
8 *3261:D *2623:A 2.34345e-05
9 *348:91 *2623:A 4.21598e-05
10 *355:82 *2623:A 0.00026955
*RES
1 *2622:X *2623:A 12.705 
*END

*D_NET *575 0.00183584
*CONN
*I *2625:S I *D sky130_fd_sc_hd__mux2_1
*I *2627:S I *D sky130_fd_sc_hd__mux2_1
*I *2624:X O *D sky130_fd_sc_hd__or2_1
*CAP
1 *2625:S 9.23604e-05
2 *2627:S 0.00033603
3 *2624:X 0
4 *575:6 0.000428391
5 *2627:S *2627:A1 4.99619e-05
6 *2627:S *2628:A 0.000229541
7 *2627:S *780:90 3.90266e-05
8 *2619:B *2625:S 2.0794e-05
9 *2627:A0 *2627:S 9.8834e-05
10 *3263:D *2625:S 6.1197e-05
11 *3263:D *2627:S 9.37579e-05
12 *3273:D *2625:S 4.77807e-05
13 *316:43 *2625:S 2.69217e-05
14 *348:91 *2625:S 0.000113891
15 *348:91 *2627:S 0.00019735
*RES
1 *2624:X *575:6 3.6 
2 *575:6 *2627:S 10.86 
3 *575:6 *2625:S 5.88 
*END

*D_NET *576 0.00206148
*CONN
*I *2626:A I *D sky130_fd_sc_hd__clkbuf_1
*I *2625:X O *D sky130_fd_sc_hd__mux2_1
*CAP
1 *2626:A 0.000392022
2 *2625:X 0.000392022
3 *2626:A *2755:C1 4.6075e-05
4 *2626:A *3320:A 0.000270415
5 *2626:A *605:33 0.000156338
6 *2626:A *605:45 0.000124007
7 *2626:A *638:8 4.79712e-05
8 *3273:D *2626:A 0.000227078
9 *316:37 *2626:A 0.000405551
*RES
1 *2625:X *2626:A 17.235 
*END

*D_NET *577 0.00180849
*CONN
*I *2628:A I *D sky130_fd_sc_hd__clkbuf_1
*I *2627:X O *D sky130_fd_sc_hd__mux2_1
*CAP
1 *2628:A 0.0005173
2 *2627:X 0.0005173
3 *2628:A *591:80 1.05827e-05
4 *2628:A *591:86 9.17274e-05
5 *2628:A *631:20 2.46631e-05
6 *2624:B *2628:A 2.36702e-05
7 *2627:S *2628:A 0.000229541
8 *211:122 *2628:A 5.83121e-06
9 *352:100 *2628:A 0.000301944
10 *355:40 *2628:A 1.88656e-05
11 *528:86 *2628:A 6.7063e-05
*RES
1 *2627:X *2628:A 15.465 
*END

*D_NET *578 0.00129868
*CONN
*I *2630:A I *D sky130_fd_sc_hd__clkbuf_1
*I *2629:X O *D sky130_fd_sc_hd__clkbuf_1
*CAP
1 *2630:A 0.000453081
2 *2629:X 0.000453081
3 *2630:A *2638:A1 9.37731e-05
4 *2630:A *2638:B2 9.54399e-05
5 *2630:A *2638:C1 0.000153344
6 *2630:A *3378:A 4.99619e-05
*RES
1 *2629:X *2630:A 14.445 
*END

*D_NET *579 0.00124528
*CONN
*I *2633:A I *D sky130_fd_sc_hd__clkbuf_1
*I *2632:X O *D sky130_fd_sc_hd__mux2_1
*CAP
1 *2633:A 0.000318461
2 *2632:X 0.000318461
3 *2633:A *2632:A1 0
4 *2633:A *3305:A 7.33465e-05
5 *2633:A *653:22 4.70256e-05
6 *2633:A *653:24 5.72004e-05
7 *2633:A *801:10 0.000117825
8 *322:24 *2633:A 0.000312958
*RES
1 *2632:X *2633:A 13.485 
*END

*D_NET *580 0.00146835
*CONN
*I *2635:B1 I *D sky130_fd_sc_hd__a22o_1
*I *2634:Y O *D sky130_fd_sc_hd__o21ai_1
*CAP
1 *2635:B1 0.000431607
2 *2634:Y 0.000431607
3 *2635:B1 *2635:A1 8.35021e-05
4 *2635:B1 *3277:RESET_B 2.91561e-06
5 *2635:B1 *653:26 0.000104086
6 *2635:B1 *653:40 5.23362e-05
7 *2635:A2 *2635:B1 0
8 *2635:B2 *2635:B1 2.69153e-05
9 *2816:B1 *2635:B1 0.000209355
10 *3277:D *2635:B1 0.000126028
11 *159:36 *2635:B1 0
*RES
1 *2634:Y *2635:B1 16.32 
*END

*D_NET *581 0.000862675
*CONN
*I *2638:A2 I *D sky130_fd_sc_hd__a221o_1
*I *2636:Y O *D sky130_fd_sc_hd__inv_2
*CAP
1 *2638:A2 0.000201399
2 *2636:Y 0.000201399
3 *2638:A2 *2636:A 0.000163204
4 *2638:A2 *2638:B1 8.50875e-05
5 *2638:A2 *2638:C1 2.42747e-05
6 *2638:A2 *2639:A 1.19928e-05
7 *3389:A *2638:A2 0.000175318
*RES
1 *2636:Y *2638:A2 7.7375 
*END

*D_NET *582 0.00173527
*CONN
*I *2638:B2 I *D sky130_fd_sc_hd__a221o_1
*I *2637:Y O *D sky130_fd_sc_hd__inv_2
*CAP
1 *2638:B2 0.000352528
2 *2637:Y 0.000352528
3 *2638:B2 *2638:A1 0.000212441
4 *2638:B2 *2638:C1 2.49708e-05
5 *2638:B2 *3279:RESET_B 0.000181376
6 *2638:B2 *3332:A 0.000100536
7 *2638:B2 *664:54 0.000116853
8 *2630:A *2638:B2 9.54399e-05
9 *2637:A *2638:B2 9.13951e-05
10 *2640:S *2638:B2 0.000207201
*RES
1 *2637:Y *2638:B2 16.68 
*END

*D_NET *583 0.00125524
*CONN
*I *2640:A1 I *D sky130_fd_sc_hd__mux2_1
*I *2639:Y O *D sky130_fd_sc_hd__inv_2
*CAP
1 *2640:A1 0.000525001
2 *2639:Y 0.000525001
3 *2640:A1 *2640:A0 9.91257e-05
4 *2640:A1 *3360:A 7.73272e-05
5 *2640:A1 *3378:A 0
6 *2640:A1 *688:8 2.87867e-05
*RES
1 *2639:Y *2640:A1 14.94 
*END

*D_NET *584 0.00015793
*CONN
*I *2641:A I *D sky130_fd_sc_hd__clkbuf_1
*I *2640:X O *D sky130_fd_sc_hd__mux2_1
*CAP
1 *2641:A 5.3984e-05
2 *2640:X 5.3984e-05
3 *2640:S *2641:A 4.99619e-05
*RES
1 *2640:X *2641:A 4.265 
*END

*D_NET *585 0.000854778
*CONN
*I *2645:A1 I *D sky130_fd_sc_hd__a21oi_1
*I *2644:A1 I *D sky130_fd_sc_hd__o21ai_1
*I *2642:Y O *D sky130_fd_sc_hd__inv_2
*CAP
1 *2645:A1 0
2 *2644:A1 7.0472e-05
3 *2642:Y 0.000256816
4 *585:12 0.000327288
5 *2644:A1 *2645:B1 4.92062e-05
6 *585:12 *2645:B1 3.08001e-05
7 *585:12 *2646:A1 1.51467e-05
8 *585:12 *3280:CLK 7.23602e-05
9 *2644:A2 *2644:A1 3.26889e-05
*RES
1 *2642:Y *585:12 8.99 
2 *585:12 *2644:A1 3.115 
3 *585:12 *2645:A1 1.6 
*END

*D_NET *586 0.000116249
*CONN
*I *2644:B1 I *D sky130_fd_sc_hd__o21ai_1
*I *2643:Y O *D sky130_fd_sc_hd__xnor2_1
*CAP
1 *2644:B1 3.38218e-05
2 *2643:Y 3.38218e-05
3 *2644:B1 *2645:B1 1.85674e-05
4 *2644:A2 *2644:B1 3.00381e-05
5 *327:14 *2644:B1 0
*RES
1 *2643:Y *2644:B1 4.01 
*END

*D_NET *587 0.00041713
*CONN
*I *2645:B1 I *D sky130_fd_sc_hd__a21oi_1
*I *2644:Y O *D sky130_fd_sc_hd__o21ai_1
*CAP
1 *2645:B1 0.000141002
2 *2644:Y 0.000141002
3 *2645:B1 *2646:A1 6.5132e-06
4 *2644:A1 *2645:B1 4.92062e-05
5 *2644:A2 *2645:B1 3.00381e-05
6 *2644:B1 *2645:B1 1.85674e-05
7 *585:12 *2645:B1 3.08001e-05
*RES
1 *2644:Y *2645:B1 6.095 
*END

*D_NET *588 0.000909774
*CONN
*I *2646:A1 I *D sky130_fd_sc_hd__mux2_1
*I *2645:Y O *D sky130_fd_sc_hd__a21oi_1
*CAP
1 *2646:A1 0.000357318
2 *2645:Y 0.000357318
3 *2646:A1 *2646:A0 4.82863e-05
4 *2646:A1 *2647:A 0
5 *2646:A1 *3264:CLK 6.97358e-05
6 *2646:A1 *3280:CLK 5.54551e-05
7 *2645:A2 *2646:A1 0
8 *2645:B1 *2646:A1 6.5132e-06
9 *585:12 *2646:A1 1.51467e-05
*RES
1 *2645:Y *2646:A1 12.39 
*END

*D_NET *589 0.000470051
*CONN
*I *2647:A I *D sky130_fd_sc_hd__clkbuf_1
*I *2646:X O *D sky130_fd_sc_hd__mux2_1
*CAP
1 *2647:A 0.000235026
2 *2646:X 0.000235026
3 *2647:A *2643:A 0
4 *2647:A *801:25 0
5 *2646:A1 *2647:A 0
*RES
1 *2646:X *2647:A 10.065 
*END

*D_NET *590 0.000906396
*CONN
*I *3136:D I *D sky130_fd_sc_hd__dfrtp_1
*I *2816:X O *D sky130_fd_sc_hd__a32o_1
*CAP
1 *3136:D 0.000223528
2 *2816:X 0.000223528
3 *3136:D *2660:B 0.000199833
4 *3136:D *2816:B2 2.75229e-05
5 *3136:D *3354:A 0.000201508
6 *3136:D *653:40 1.08758e-05
7 *310:6 *3136:D 1.96006e-05
*RES
1 *2816:X *3136:D 11.955 
*END

*D_NET *591 0.0454013
*CONN
*I *3303:A I *D sky130_fd_sc_hd__clkbuf_8
*I *3302:A I *D sky130_fd_sc_hd__clkbuf_8
*I *3290:A I *D sky130_fd_sc_hd__clkbuf_8
*I *3289:A I *D sky130_fd_sc_hd__clkbuf_8
*I *3294:A I *D sky130_fd_sc_hd__clkbuf_8
*I *3293:A I *D sky130_fd_sc_hd__clkbuf_8
*I *3292:A I *D sky130_fd_sc_hd__clkbuf_8
*I *3291:A I *D sky130_fd_sc_hd__clkbuf_8
*I *3300:A I *D sky130_fd_sc_hd__clkbuf_8
*I *3301:A I *D sky130_fd_sc_hd__clkbuf_8
*I *3299:A I *D sky130_fd_sc_hd__clkbuf_8
*I *3298:A I *D sky130_fd_sc_hd__clkbuf_8
*I *3296:A I *D sky130_fd_sc_hd__clkbuf_8
*I *3297:A I *D sky130_fd_sc_hd__clkbuf_8
*I *3295:A I *D sky130_fd_sc_hd__clkbuf_8
*I *3288:A I *D sky130_fd_sc_hd__clkbuf_8
*I *3287:X O *D sky130_fd_sc_hd__clkbuf_16
*CAP
1 *3303:A 0
2 *3302:A 0
3 *3290:A 0.000146821
4 *3289:A 9.33444e-05
5 *3294:A 0.000107674
6 *3293:A 0.00120702
7 *3292:A 8.25131e-06
8 *3291:A 6.9012e-05
9 *3300:A 0
10 *3301:A 3.8198e-05
11 *3299:A 0
12 *3298:A 0.000108095
13 *3296:A 0.000235647
14 *3297:A 3.55205e-05
15 *3295:A 0.000745074
16 *3288:A 2.60093e-05
17 *3287:X 8.75297e-05
18 *591:220 0.000794474
19 *591:216 0.000947
20 *591:210 0.00238061
21 *591:162 0.00180485
22 *591:149 0.00170086
23 *591:132 0.00434786
24 *591:90 0.000360728
25 *591:86 0.000462637
26 *591:80 0.00128649
27 *591:52 0.000276566
28 *591:30 0.0011151
29 *591:26 0.00214018
30 *591:18 0.0043326
31 *591:16 0.00260315
32 *3288:A *3430:A 1.83847e-05
33 *3291:A *595:10 4.77769e-05
34 *3292:A *596:12 8.7152e-06
35 *3292:A *596:110 1.88602e-05
36 *3293:A *2966:A0 4.13769e-05
37 *3295:A *3430:A 7.53903e-05
38 *3295:A *599:6 8.52845e-05
39 *3295:A *599:10 7.36214e-05
40 *3295:A *599:25 2.68526e-05
41 *3296:A *764:30 0.000379633
42 *3297:A *601:12 8.23457e-05
43 *3297:A *764:30 2.49909e-05
44 *3298:A *2810:B1 7.89767e-05
45 *3298:A *806:8 0.00011686
46 *3298:A *806:58 3.09233e-05
47 *591:16 *681:18 1.00909e-05
48 *591:16 *682:22 1.77595e-05
49 *591:30 *2717:A1 0.000164686
50 *591:30 *3390:A 0.0002014
51 *591:30 *764:30 4.13769e-05
52 *591:30 *814:10 8.28738e-05
53 *591:52 *764:30 1.79483e-05
54 *591:80 *631:20 1.00941e-05
55 *591:86 *631:20 0.000160742
56 *591:86 *780:90 1.44259e-05
57 *591:90 *2810:B1 0.000333593
58 *591:90 *780:90 0
59 *591:90 *806:58 0.000526307
60 *591:149 *595:27 9.50291e-05
61 *591:162 *2966:A0 0
62 *591:162 *3224:CLK 0.00013375
63 *591:162 *596:110 0.000175986
64 *591:210 *595:27 2.9937e-05
65 *591:210 *607:10 0.000132526
66 *591:216 *607:10 4.77807e-05
67 *591:220 *3077:A0 7.03276e-05
68 *2584:B *591:90 0.000116165
69 *2628:A *591:80 1.05827e-05
70 *2628:A *591:86 9.17274e-05
71 *2705:C *3293:A 7.10593e-06
72 *2705:C *3294:A 6.33103e-05
73 *2717:A2 *3296:A 0.000191757
74 *2717:A2 *591:52 9.50342e-06
75 *2720:B *591:30 0.000187444
76 *2735:C1 *591:210 2.69153e-05
77 *2735:C1 *591:216 0.000279573
78 *2735:C1 *591:220 0.000411455
79 *2750:A *591:16 1.22505e-05
80 *2755:B1 *591:18 0.00110449
81 *2755:B1 *591:132 0.000924512
82 *2769:A2 *3293:A 4.17687e-05
83 *2786:C1 *591:220 0.000263631
84 *2792:A2 *3290:A 0
85 *2792:A2 *591:210 0.00226202
86 *2792:A2 *591:220 0
87 *2797:B1 *591:30 0
88 *2973:A *591:132 0.000366315
89 *2985:A *591:132 7.07073e-05
90 *2988:A1 *3292:A 1.88602e-05
91 *2988:A1 *591:162 0.000403717
92 *3053:A *3290:A 4.80285e-05
93 *3055:A *3289:A 1.08758e-05
94 *3055:A *3290:A 0.000112105
95 *3062:A0 *591:220 0
96 *3084:A1 *591:132 9.61257e-05
97 *3084:A1 *591:149 5.46347e-05
98 *3114:A *591:18 0
99 *3114:A *591:26 0
100 *3200:D *3290:A 0.000175207
101 *3200:D *591:220 9.54469e-05
102 *3201:D *3289:A 1.85674e-05
103 *3204:D *591:216 1.43717e-05
104 *3287:A *591:132 0
105 *172:27 *591:26 3.43021e-05
106 *176:101 *3294:A 5.83121e-06
107 *176:101 *591:162 5.12017e-06
108 *177:135 *591:162 0
109 *183:110 *3293:A 0
110 *183:110 *591:162 7.23533e-05
111 *187:16 *591:26 0.000582958
112 *193:40 *3293:A 0.000187133
113 *197:84 *591:132 1.19759e-05
114 *197:84 *591:210 2.09267e-05
115 *211:122 *591:86 0.000206123
116 *218:63 *591:30 0.000260638
117 *218:63 *591:52 1.18553e-06
118 *316:96 *3295:A 3.89731e-05
119 *320:16 *591:30 9.3062e-06
120 *320:51 *591:30 2.66852e-05
121 *343:51 *3296:A 2.02312e-05
122 *343:51 *591:26 0.000472268
123 *348:6 *3301:A 6.1357e-05
124 *348:28 *3301:A 5.83121e-06
125 *348:28 *591:86 0.000210455
126 *349:12 *591:16 1.79483e-05
127 *352:100 *591:86 2.05661e-05
128 *353:22 *3296:A 0.000645754
129 *355:40 *591:80 0.00192069
130 *355:98 *591:162 0.000132741
131 *355:125 *591:162 0.000247522
132 *356:49 *3301:A 6.1357e-05
133 *356:49 *591:86 0.000160803
134 *366:125 *591:132 0
135 *366:125 *591:149 3.92878e-05
136 *378:56 *591:132 0.000119684
137 *405:68 *591:220 0
138 *409:34 *591:26 0.000522499
139 *409:34 *591:80 0.000208201
140 *417:73 *591:132 0.00024725
141 *417:73 *591:149 0.000134583
142 *419:85 *3289:A 3.0807e-05
143 *428:99 *591:210 1.84465e-05
144 *430:68 *3293:A 3.82741e-05
145 *430:86 *591:220 0
146 *443:52 *3290:A 2.75538e-05
147 *443:52 *591:220 2.46007e-05
148 *473:43 *3291:A 8.83862e-05
149 *473:68 *591:210 3.90739e-05
150 *482:10 *591:210 0
151 *529:8 *591:30 9.44791e-05
*RES
1 *3287:X *591:16 5.34963 
2 *591:16 *591:18 2.8804 
3 *591:18 *591:26 5.40673 
4 *591:26 *591:30 11.6675 
5 *591:30 *3288:A 2.05 
6 *591:30 *3295:A 10.81 
7 *591:26 *591:52 0.2325 
8 *591:52 *3297:A 4.395 
9 *591:52 *3296:A 11.97 
10 *591:18 *591:80 4.21297 
11 *591:80 *591:86 8.45 
12 *591:86 *591:90 10.265 
13 *591:90 *3298:A 6.03 
14 *591:90 *3299:A 3.6 
15 *591:86 *3301:A 2.74 
16 *591:80 *3300:A 3.6 
17 *591:16 *591:132 7.4097 
18 *591:132 *3291:A 5.085 
19 *591:132 *591:149 4.66503 
20 *591:149 *3292:A 3.8325 
21 *591:149 *591:162 13.9625 
22 *591:162 *3293:A 12.4579 
23 *591:162 *3294:A 3.355 
24 *591:132 *591:210 10.0942 
25 *591:210 *591:216 7.47 
26 *591:216 *591:220 14.09 
27 *591:220 *3289:A 5.1 
28 *591:220 *3290:A 7.305 
29 *591:216 *3302:A 1.6 
30 *591:210 *3303:A 1.6 
*END

*D_NET *592 0.00720121
*CONN
*I *3256:CLK I *D sky130_fd_sc_hd__dfxtp_1
*I *3257:CLK I *D sky130_fd_sc_hd__dfxtp_1
*I *3233:CLK I *D sky130_fd_sc_hd__dfxtp_1
*I *3232:CLK I *D sky130_fd_sc_hd__dfxtp_1
*I *3237:CLK I *D sky130_fd_sc_hd__dfxtp_1
*I *3236:CLK I *D sky130_fd_sc_hd__dfxtp_1
*I *3243:CLK I *D sky130_fd_sc_hd__dfxtp_1
*I *3165:CLK I *D sky130_fd_sc_hd__dfxtp_1
*I *3163:CLK I *D sky130_fd_sc_hd__dfxtp_1
*I *3288:X O *D sky130_fd_sc_hd__clkbuf_8
*CAP
1 *3256:CLK 0
2 *3257:CLK 0
3 *3233:CLK 0.000122525
4 *3232:CLK 0
5 *3237:CLK 2.20267e-05
6 *3236:CLK 0
7 *3243:CLK 0.000253777
8 *3165:CLK 0.000299304
9 *3163:CLK 3.04263e-05
10 *3288:X 0.000389463
11 *592:56 0.000375505
12 *592:52 0.000622418
13 *592:46 0.000627273
14 *592:42 0.000570294
15 *592:36 0.000558511
16 *592:32 0.000280161
17 *592:10 0.00101992
18 *592:6 0.00110047
19 *592:6 *876:6 3.72916e-05
20 *592:10 *899:10 0.000471307
21 *592:36 *895:10 0
22 *2552:A *3233:CLK 9.51579e-05
23 *2560:A *3237:CLK 2.16917e-05
24 *2560:A *592:52 0.000119631
25 *2613:A *592:36 0
26 *3163:D *3165:CLK 4.1652e-06
27 *3163:D *592:10 1.43717e-05
28 *3236:D *592:56 3.68769e-05
29 *3237:D *592:52 0
30 *3237:D *592:56 0
31 *3256:D *592:6 0.000128642
32 *3256:D *592:36 0
33 *3257:D *592:36 0
*RES
1 *3288:X *592:6 7.57 
2 *592:6 *592:10 11.505 
3 *592:10 *3163:CLK 2.05 
4 *592:10 *3165:CLK 9.92 
5 *592:6 *592:32 0.36 
6 *592:32 *592:36 6.185 
7 *592:36 *592:42 6.41 
8 *592:42 *592:46 4.4 
9 *592:46 *592:52 10.4 
10 *592:52 *592:56 4.145 
11 *592:56 *3243:CLK 7.575 
12 *592:56 *3236:CLK 3.6 
13 *592:52 *3237:CLK 2.05 
14 *592:46 *3232:CLK 3.6 
15 *592:42 *3233:CLK 3.79 
16 *592:36 *3257:CLK 3.6 
17 *592:32 *3256:CLK 1.6 
*END

*D_NET *593 0.00992297
*CONN
*I *3200:CLK I *D sky130_fd_sc_hd__dfxtp_1
*I *3193:CLK I *D sky130_fd_sc_hd__dfxtp_1
*I *3190:CLK I *D sky130_fd_sc_hd__dfxtp_1
*I *3191:CLK I *D sky130_fd_sc_hd__dfxtp_1
*I *3199:CLK I *D sky130_fd_sc_hd__dfxtp_1
*I *3195:CLK I *D sky130_fd_sc_hd__dfxtp_1
*I *3198:CLK I *D sky130_fd_sc_hd__dfxtp_1
*I *3194:CLK I *D sky130_fd_sc_hd__dfxtp_1
*I *3192:CLK I *D sky130_fd_sc_hd__dfxtp_1
*I *3196:CLK I *D sky130_fd_sc_hd__dfxtp_1
*I *3197:CLK I *D sky130_fd_sc_hd__dfxtp_1
*I *3289:X O *D sky130_fd_sc_hd__clkbuf_8
*CAP
1 *3200:CLK 0.000244869
2 *3193:CLK 0
3 *3190:CLK 0.000176804
4 *3191:CLK 0
5 *3199:CLK 0
6 *3195:CLK 6.06489e-05
7 *3198:CLK 3.55506e-05
8 *3194:CLK 0.000209046
9 *3192:CLK 0
10 *3196:CLK 0
11 *3197:CLK 0.000390485
12 *3289:X 0
13 *593:121 0.000571176
14 *593:106 0.000536032
15 *593:67 0.000392491
16 *593:65 0.000366311
17 *593:63 0.000952738
18 *593:26 0.000411252
19 *593:24 0.000255923
20 *593:14 0.000997909
21 *593:8 0.000469491
22 *593:4 0.000604917
23 *3200:CLK *3405:A 0.000119756
24 *3200:CLK *620:46 6.81237e-05
25 *593:8 *865:12 8.51632e-05
26 *593:24 *862:14 0
27 *593:63 *3034:A1 0
28 *593:63 *3323:A 0
29 *593:63 *862:14 0
30 *593:63 *864:10 0
31 *593:106 *860:10 4.92714e-05
32 *593:121 *3438:A 0.000160174
33 *593:121 *859:8 4.23612e-05
34 *593:121 *860:10 0.000255264
35 *3028:B *3200:CLK 0.00020951
36 *3035:A *3194:CLK 0.000104395
37 *3035:A *593:63 0
38 *3038:B *3200:CLK 3.83194e-05
39 *3040:A *593:14 4.66108e-05
40 *3040:A *593:24 7.47215e-05
41 *3040:A *593:63 7.4027e-05
42 *3041:S *593:24 0
43 *3041:S *593:63 0
44 *3042:A *593:24 1.74869e-05
45 *3045:A *593:63 0
46 *3191:D *3190:CLK 1.28874e-05
47 *3191:D *593:121 6.21368e-05
48 *3192:D *593:24 5.17877e-05
49 *3193:D *593:8 0.000762832
50 *3194:D *593:63 0
51 *3196:D *593:24 0.000130038
52 *3196:D *593:26 2.52012e-05
53 *3197:D *3197:CLK 0.000271475
54 *3198:D *593:65 0.000136036
55 *3198:D *593:67 5.1771e-05
56 *3198:D *593:106 0.000120872
57 *3199:D *593:121 5.20335e-05
58 *187:83 *3200:CLK 0
59 *443:52 *3200:CLK 0.000205909
60 *467:14 *3200:CLK 1.91597e-05
*RES
1 *3289:X *593:4 1.6 
2 *593:4 *593:8 8.4 
3 *593:8 *593:14 3.755 
4 *593:14 *593:24 6.35 
5 *593:24 *593:26 0.45 
6 *593:26 *3197:CLK 13.25 
7 *593:26 *3196:CLK 1.6 
8 *593:24 *3192:CLK 1.6 
9 *593:14 *593:63 13.07 
10 *593:63 *593:65 2.175 
11 *593:65 *593:67 1.83 
12 *593:67 *3194:CLK 9.47 
13 *593:67 *3198:CLK 2.215 
14 *593:65 *3195:CLK 6.98 
15 *593:63 *593:106 2.655 
16 *593:106 *3199:CLK 1.6 
17 *593:106 *593:121 10.67 
18 *593:121 *3191:CLK 3.6 
19 *593:121 *3190:CLK 6.54 
20 *593:8 *3193:CLK 1.6 
21 *593:4 *3200:CLK 11.51 
*END

*D_NET *594 0.00858191
*CONN
*I *3188:CLK I *D sky130_fd_sc_hd__dfxtp_1
*I *3186:CLK I *D sky130_fd_sc_hd__dfxtp_1
*I *3187:CLK I *D sky130_fd_sc_hd__dfxtp_1
*I *3189:CLK I *D sky130_fd_sc_hd__dfxtp_1
*I *3216:CLK I *D sky130_fd_sc_hd__dfxtp_1
*I *3217:CLK I *D sky130_fd_sc_hd__dfxtp_1
*I *3226:CLK I *D sky130_fd_sc_hd__dfxtp_1
*I *3227:CLK I *D sky130_fd_sc_hd__dfxtp_1
*I *3201:CLK I *D sky130_fd_sc_hd__dfxtp_1
*I *3207:CLK I *D sky130_fd_sc_hd__dfxtp_1
*I *3290:X O *D sky130_fd_sc_hd__clkbuf_8
*CAP
1 *3188:CLK 0
2 *3186:CLK 0
3 *3187:CLK 0.000130496
4 *3189:CLK 0.000199932
5 *3216:CLK 0
6 *3217:CLK 0
7 *3226:CLK 0
8 *3227:CLK 2.08101e-05
9 *3201:CLK 9.72036e-05
10 *3207:CLK 0.000294145
11 *3290:X 0
12 *594:92 0.000478496
13 *594:86 0.000657591
14 *594:78 0.000878738
15 *594:67 0.000649879
16 *594:56 0.000467994
17 *594:45 0.000413632
18 *594:32 0.000295865
19 *594:8 0.000518505
20 *594:4 0.00017591
21 *3207:CLK *2733:B2 0.000168745
22 *3207:CLK *2786:A1 0.000241299
23 *594:45 *3329:A 6.54674e-05
24 *594:45 *3451:A 0.000267846
25 *594:67 *742:45 0.000124744
26 *594:78 *2756:A1 0.000396441
27 *594:78 *3014:A0 0
28 *594:78 *871:14 0
29 *594:86 *2684:B2 2.76356e-05
30 *594:86 *3377:A 1.68183e-05
31 *2690:C1 *594:56 0
32 *2690:C1 *594:67 0.000370903
33 *2690:C1 *594:78 0.000178148
34 *2759:B1 *594:67 0
35 *2759:B1 *594:78 0
36 *2792:A2 *3207:CLK 7.18452e-06
37 *2792:A2 *594:8 8.90058e-05
38 *3014:S *594:78 0
39 *3017:A *3187:CLK 0
40 *3017:A *594:92 0
41 *3020:A *594:78 4.70343e-05
42 *3053:A *3207:CLK 0.000192222
43 *3053:A *594:8 0
44 *3053:A *594:32 2.77283e-05
45 *3053:A *594:45 2.88829e-05
46 *3095:A *594:67 5.83373e-05
47 *3121:A *594:67 0.000148465
48 *3186:D *594:86 9.03376e-05
49 *3187:D *3187:CLK 0
50 *3188:D *594:86 2.75145e-05
51 *3201:D *3201:CLK 0.000113663
52 *3217:D *594:56 2.92496e-05
53 *3217:D *594:67 7.36892e-05
54 *3226:D *594:45 3.09233e-05
55 *3226:D *594:56 0.000283528
56 *3227:D *594:45 1.43717e-05
57 *419:85 *3201:CLK 0.000111293
58 *419:85 *594:8 0
59 *419:85 *594:56 0
60 *440:18 *594:78 6.19385e-05
61 *440:20 *594:45 0
62 *440:20 *594:56 0
63 *440:42 *3207:CLK 9.29751e-06
64 *443:26 *594:67 0
*RES
1 *3290:X *594:4 1.6 
2 *594:4 *594:8 4.655 
3 *594:8 *3207:CLK 11.16 
4 *594:8 *3201:CLK 6.12 
5 *594:4 *594:32 0.795 
6 *594:32 *3227:CLK 1.96 
7 *594:32 *594:45 6.755 
8 *594:45 *3226:CLK 3.6 
9 *594:45 *594:56 5.93 
10 *594:56 *3217:CLK 1.6 
11 *594:56 *594:67 9.305 
12 *594:67 *3216:CLK 3.6 
13 *594:67 *594:78 10.265 
14 *594:78 *594:86 8.175 
15 *594:86 *594:92 4.34 
16 *594:92 *3189:CLK 6.465 
17 *594:92 *3187:CLK 5.745 
18 *594:86 *3186:CLK 1.6 
19 *594:78 *3188:CLK 1.6 
*END

*D_NET *595 0.00807464
*CONN
*I *3173:CLK I *D sky130_fd_sc_hd__dfxtp_1
*I *3212:CLK I *D sky130_fd_sc_hd__dfxtp_1
*I *3181:CLK I *D sky130_fd_sc_hd__dfxtp_1
*I *3172:CLK I *D sky130_fd_sc_hd__dfxtp_1
*I *3170:CLK I *D sky130_fd_sc_hd__dfxtp_1
*I *3171:CLK I *D sky130_fd_sc_hd__dfxtp_1
*I *3213:CLK I *D sky130_fd_sc_hd__dfxtp_1
*I *3291:X O *D sky130_fd_sc_hd__clkbuf_8
*CAP
1 *3173:CLK 0.000122731
2 *3212:CLK 6.78988e-05
3 *3181:CLK 0.000244801
4 *3172:CLK 8.28839e-05
5 *3170:CLK 2.8043e-05
6 *3171:CLK 0.000266648
7 *3213:CLK 0
8 *3291:X 0
9 *595:35 0.000494504
10 *595:33 0.000561012
11 *595:31 0.0006609
12 *595:27 0.000474673
13 *595:10 0.000536413
14 *595:4 0.000390155
15 *3171:CLK *2969:A1 0.000198149
16 *3173:CLK *2749:A1 0.000258682
17 *3173:CLK *3435:A 4.38051e-05
18 *3173:CLK *844:8 2.49909e-05
19 *3181:CLK *880:8 5.83121e-06
20 *595:10 *3082:A0 3.05887e-05
21 *595:27 *3082:A0 2.02052e-05
22 *2740:C1 *3171:CLK 0.000139238
23 *2740:C1 *595:35 0.000168435
24 *2753:D *3170:CLK 2.49909e-05
25 *2754:B *3172:CLK 5.79373e-05
26 *2762:A2 *3212:CLK 0.000144233
27 *2762:A2 *595:31 0.000123504
28 *2762:A2 *595:33 0.000107277
29 *2791:C1 *595:33 0.000112412
30 *2791:C1 *595:35 7.66377e-05
31 *2792:A1 *3181:CLK 2.76356e-05
32 *2792:B1 *3212:CLK 1.14359e-05
33 *2792:B1 *595:31 0.000240142
34 *2792:B1 *595:33 6.90254e-05
35 *2969:A0 *3171:CLK 8.23457e-05
36 *2969:S *3171:CLK 7.66163e-05
37 *2970:A *3171:CLK 4.99619e-05
38 *2972:A *3171:CLK 8.65905e-05
39 *3049:A *3212:CLK 0.000116158
40 *3081:A *3181:CLK 4.29749e-05
41 *3081:B *3181:CLK 1.08758e-05
42 *3084:A1 *595:10 0.000132666
43 *3170:D *3171:CLK 5.13155e-05
44 *3171:D *3171:CLK 5.94962e-05
45 *3172:D *3172:CLK 0.000108016
46 *3212:D *3212:CLK 3.83526e-05
47 *3291:A *595:10 4.77769e-05
48 *174:80 *3171:CLK 2.45801e-05
49 *174:150 *3171:CLK 0.000361833
50 *197:152 *595:10 1.50288e-05
51 *322:104 *595:33 3.4107e-05
52 *349:160 *3171:CLK 6.35575e-05
53 *366:125 *595:10 0.000102132
54 *366:125 *595:27 5.02126e-06
55 *378:56 *3171:CLK 0
56 *378:56 *595:33 4.00178e-05
57 *378:56 *595:35 0
58 *417:98 *3212:CLK 2.49909e-05
59 *428:57 *3173:CLK 0.000306515
60 *428:57 *595:10 4.77807e-05
61 *473:43 *595:10 9.17195e-05
62 *473:68 *595:31 8.33066e-06
63 *473:68 *595:33 0.000101936
64 *494:8 *3181:CLK 3.1562e-06
65 *591:149 *595:27 9.50291e-05
66 *591:210 *595:27 2.9937e-05
*RES
1 *3291:X *595:4 1.6 
2 *595:4 *595:10 7.1 
3 *595:10 *3213:CLK 3.6 
4 *595:10 *595:27 2.0701 
5 *595:27 *595:31 3.4875 
6 *595:31 *595:33 5.97 
7 *595:33 *595:35 3.93 
8 *595:35 *3171:CLK 11.565 
9 *595:35 *3170:CLK 4.05 
10 *595:33 *3172:CLK 5.445 
11 *595:31 *3181:CLK 6.84 
12 *595:27 *3212:CLK 5.8125 
13 *595:4 *3173:CLK 9.725 
*END

*D_NET *596 0.011659
*CONN
*I *3224:CLK I *D sky130_fd_sc_hd__dfxtp_1
*I *3225:CLK I *D sky130_fd_sc_hd__dfxtp_1
*I *3177:CLK I *D sky130_fd_sc_hd__dfxtp_1
*I *3270:CLK I *D sky130_fd_sc_hd__dfrtp_1
*I *3230:CLK I *D sky130_fd_sc_hd__dfxtp_1
*I *3231:CLK I *D sky130_fd_sc_hd__dfxtp_1
*I *3203:CLK I *D sky130_fd_sc_hd__dfxtp_1
*I *3202:CLK I *D sky130_fd_sc_hd__dfxtp_1
*I *3269:CLK I *D sky130_fd_sc_hd__dfrtp_1
*I *3176:CLK I *D sky130_fd_sc_hd__dfxtp_1
*I *3292:X O *D sky130_fd_sc_hd__clkbuf_8
*CAP
1 *3224:CLK 0.0001839
2 *3225:CLK 0
3 *3177:CLK 2.11528e-05
4 *3270:CLK 9.92746e-05
5 *3230:CLK 3.37454e-05
6 *3231:CLK 0
7 *3203:CLK 0.000104074
8 *3202:CLK 4.76177e-05
9 *3269:CLK 0
10 *3176:CLK 2.11528e-05
11 *3292:X 0.000178177
12 *596:110 0.000298521
13 *596:80 0.000286236
14 *596:65 0.00062266
15 *596:54 0.000918162
16 *596:43 0.000781376
17 *596:33 0.000670487
18 *596:16 0.000666302
19 *596:12 0.000550989
20 *596:10 0.000571771
21 *3202:CLK *2745:A 0.0001249
22 *3203:CLK *3059:A1 0
23 *3224:CLK *2777:A 0
24 *3224:CLK *3396:A 1.14169e-05
25 *596:12 *2977:A1 0
26 *596:33 *2960:A_N 0.000119866
27 *596:33 *631:20 2.01565e-05
28 *596:33 *884:10 1.47256e-05
29 *596:43 *2742:A1 0.000183043
30 *596:43 *631:33 3.24463e-05
31 *596:54 *2673:A 2.0514e-05
32 *596:54 *2673:B 0.000158066
33 *596:54 *3269:D 2.75145e-05
34 *596:54 *3269:RESET_B 2.40101e-05
35 *596:110 *2777:A 0
36 *2674:A *596:54 0.000112594
37 *2742:B1 *596:43 8.80711e-05
38 *2744:B1 *596:33 0.000264756
39 *2753:A *3176:CLK 2.49909e-05
40 *2753:A *596:33 0.000164124
41 *2753:A *596:43 1.59137e-05
42 *2771:C *596:54 6.10014e-05
43 *2783:D *596:12 0.000154433
44 *2783:D *596:16 0.000366478
45 *2968:A *3176:CLK 1.56428e-05
46 *2968:A *596:16 0
47 *2968:A *596:33 9.59984e-05
48 *2968:B *596:16 8.30853e-06
49 *2986:A1 *596:16 3.39498e-05
50 *2988:A1 *596:12 0.000163211
51 *3002:A *3177:CLK 2.49909e-05
52 *3049:A *596:10 0.000340809
53 *3056:A *596:33 0.000416033
54 *3057:A0 *596:65 9.66249e-05
55 *3057:A0 *596:80 0.000252633
56 *3118:A *3224:CLK 9.36907e-05
57 *3176:D *596:33 1.43717e-05
58 *3202:D *596:65 0
59 *3203:D *3203:CLK 2.33079e-05
60 *3203:D *596:65 4.75977e-05
61 *3292:A *596:12 8.7152e-06
62 *3292:A *596:110 1.88602e-05
63 *174:10 *596:43 6.07575e-06
64 *174:10 *596:54 0.00027268
65 *174:25 *596:43 0.000183043
66 *174:80 *3270:CLK 3.66286e-05
67 *174:80 *596:33 0.000268737
68 *176:16 *596:54 0
69 *176:16 *596:65 0
70 *176:20 *3177:CLK 1.56428e-05
71 *355:82 *596:33 0.000181376
72 *409:115 *596:33 0.000183043
73 *417:39 *596:16 0.000264167
74 *417:50 *596:12 4.02728e-05
75 *417:50 *596:16 0.000198242
76 *591:162 *3224:CLK 0.00013375
77 *591:162 *596:110 0.000175986
*RES
1 *3292:X *596:10 7.17 
2 *596:10 *596:12 5.715 
3 *596:12 *596:16 8.48 
4 *596:16 *3176:CLK 2.05 
5 *596:16 *596:33 15.67 
6 *596:33 *596:43 8.32 
7 *596:43 *3269:CLK 1.6 
8 *596:43 *596:54 13.97 
9 *596:54 *3202:CLK 4.74 
10 *596:54 *596:65 4.95 
11 *596:65 *3203:CLK 5.01 
12 *596:65 *596:80 7.46 
13 *596:80 *3231:CLK 1.6 
14 *596:80 *3230:CLK 2.05 
15 *596:33 *3270:CLK 3.085 
16 *596:12 *3177:CLK 4.05 
17 *596:10 *596:110 2.4 
18 *596:110 *3225:CLK 3.6 
19 *596:110 *3224:CLK 7.095 
*END

*D_NET *597 0.0115551
*CONN
*I *3168:CLK I *D sky130_fd_sc_hd__dfxtp_1
*I *3221:CLK I *D sky130_fd_sc_hd__dfxtp_1
*I *3220:CLK I *D sky130_fd_sc_hd__dfxtp_1
*I *3169:CLK I *D sky130_fd_sc_hd__dfxtp_1
*I *3174:CLK I *D sky130_fd_sc_hd__dfxtp_1
*I *3185:CLK I *D sky130_fd_sc_hd__dfxtp_1
*I *3184:CLK I *D sky130_fd_sc_hd__dfxtp_1
*I *3222:CLK I *D sky130_fd_sc_hd__dfxtp_1
*I *3223:CLK I *D sky130_fd_sc_hd__dfxtp_1
*I *3175:CLK I *D sky130_fd_sc_hd__dfxtp_1
*I *3179:CLK I *D sky130_fd_sc_hd__dfxtp_1
*I *3178:CLK I *D sky130_fd_sc_hd__dfxtp_1
*I *3293:X O *D sky130_fd_sc_hd__clkbuf_8
*CAP
1 *3168:CLK 0
2 *3221:CLK 0.000123346
3 *3220:CLK 2.09972e-05
4 *3169:CLK 6.79127e-05
5 *3174:CLK 0
6 *3185:CLK 0
7 *3184:CLK 0.000121455
8 *3222:CLK 1.76077e-05
9 *3223:CLK 1.19353e-05
10 *3175:CLK 0.000163215
11 *3179:CLK 0.000146726
12 *3178:CLK 0.000195415
13 *3293:X 0
14 *597:113 0.000733941
15 *597:102 0.00065751
16 *597:100 0.000111694
17 *597:75 0.000621516
18 *597:60 0.000664083
19 *597:49 0.000677385
20 *597:36 0.00075389
21 *597:16 0.000590759
22 *597:12 0.000320256
23 *597:10 0.00032093
24 *597:4 0.000432623
25 *3179:CLK *882:10 4.66108e-05
26 *3221:CLK *2704:A1 0
27 *3221:CLK *3009:A0 0
28 *3223:CLK *753:45 4.77807e-05
29 *597:10 *2767:B2 0.000159741
30 *597:10 *886:10 9.80943e-06
31 *597:100 *2767:B2 8.40213e-05
32 *597:113 *753:29 0.000166197
33 *2710:A2 *597:10 0.00045762
34 *2710:A2 *597:49 0
35 *2722:A2 *3223:CLK 2.69217e-05
36 *2722:D1 *597:16 6.2957e-05
37 *2762:A2 *3169:CLK 0.000174971
38 *2762:A2 *597:113 0.000345684
39 *2769:B1 *3175:CLK 1.85099e-05
40 *2770:B *597:100 9.41656e-05
41 *2982:A *597:16 0
42 *2984:A *597:16 6.10014e-05
43 *2984:A *597:36 7.70938e-05
44 *2984:A *597:49 0.000127408
45 *2994:A *3178:CLK 0.000138633
46 *2995:A *3220:CLK 4.82863e-05
47 *2999:A *3222:CLK 4.90291e-05
48 *3010:A *3184:CLK 4.82919e-05
49 *3103:A *3221:CLK 0
50 *3105:A *597:113 4.41857e-05
51 *3107:A *597:113 0
52 *3111:A *597:75 0
53 *3120:A0 *597:49 0
54 *3168:D *3169:CLK 9.40887e-05
55 *3174:D *597:10 0.000108614
56 *3175:D *3175:CLK 5.36069e-06
57 *3175:D *597:49 9.14049e-05
58 *3178:D *3178:CLK 1.43717e-05
59 *3179:D *3178:CLK 0.000117084
60 *3179:D *3179:CLK 9.62981e-05
61 *3185:D *3184:CLK 0.000105501
62 *3220:D *3221:CLK 4.43871e-06
63 *3220:D *597:113 7.72135e-05
64 *3221:D *3221:CLK 0.000100383
65 *193:40 *597:10 0.000147953
66 *193:40 *597:100 0.000237868
67 *193:54 *597:10 0.000283181
68 *197:152 *3169:CLK 4.30126e-05
69 *197:152 *597:113 0.000157107
70 *221:12 *597:16 0.000214829
71 *343:66 *597:16 0
72 *343:66 *597:36 0
73 *343:66 *597:49 0
74 *419:39 *597:100 0.000122337
75 *419:39 *597:113 0.000345651
76 *419:45 *3222:CLK 8.53011e-05
77 *440:90 *597:16 6.10014e-05
78 *443:12 *597:49 0
79 *443:122 *597:49 0
80 *443:148 *597:75 0
*RES
1 *3293:X *597:4 1.6 
2 *597:4 *597:10 8.85 
3 *597:10 *597:12 2 
4 *597:12 *597:16 7.715 
5 *597:16 *3178:CLK 5.515 
6 *597:16 *3179:CLK 4.135 
7 *597:12 *597:36 1.635 
8 *597:36 *3175:CLK 5.7 
9 *597:36 *597:49 8.775 
10 *597:49 *3223:CLK 4.05 
11 *597:49 *597:60 2.145 
12 *597:60 *3222:CLK 4.395 
13 *597:60 *597:75 9.74 
14 *597:75 *3184:CLK 8.195 
15 *597:75 *3185:CLK 1.6 
16 *597:10 *3174:CLK 1.6 
17 *597:4 *597:100 3.555 
18 *597:100 *597:102 2 
19 *597:102 *3169:CLK 5.745 
20 *597:102 *597:113 14.385 
21 *597:113 *3220:CLK 4.05 
22 *597:113 *3221:CLK 5.94 
23 *597:100 *3168:CLK 1.6 
*END

*D_NET *598 0.00847764
*CONN
*I *3218:CLK I *D sky130_fd_sc_hd__dfxtp_1
*I *3219:CLK I *D sky130_fd_sc_hd__dfxtp_1
*I *3214:CLK I *D sky130_fd_sc_hd__dfxtp_1
*I *3228:CLK I *D sky130_fd_sc_hd__dfxtp_1
*I *3182:CLK I *D sky130_fd_sc_hd__dfxtp_1
*I *3183:CLK I *D sky130_fd_sc_hd__dfxtp_1
*I *3229:CLK I *D sky130_fd_sc_hd__dfxtp_1
*I *3215:CLK I *D sky130_fd_sc_hd__dfxtp_1
*I *3294:X O *D sky130_fd_sc_hd__clkbuf_8
*CAP
1 *3218:CLK 0
2 *3219:CLK 0.000157123
3 *3214:CLK 0
4 *3228:CLK 9.59225e-05
5 *3182:CLK 4.0513e-05
6 *3183:CLK 0.000146516
7 *3229:CLK 0
8 *3215:CLK 0
9 *3294:X 0.000223116
10 *598:86 0.000645088
11 *598:44 0.000417742
12 *598:33 0.000378972
13 *598:27 0.000483649
14 *598:16 0.000492652
15 *598:12 0.000331041
16 *598:8 0.000788937
17 *3219:CLK *2698:A 9.12494e-06
18 *3219:CLK *3106:A0 3.7918e-05
19 *3219:CLK *3371:A 0.000157924
20 *3219:CLK *836:8 0.000112087
21 *3228:CLK *3406:A 0.000131401
22 *598:8 *2966:A0 0.00011379
23 *598:16 *3365:A 3.7712e-05
24 *598:16 *842:8 0.000102922
25 *598:27 *2779:A 0.000139933
26 *598:27 *3365:A 2.24342e-05
27 *598:27 *3406:A 9.78012e-05
28 *598:33 *3432:A 0
29 *598:44 *2701:A1 0
30 *598:44 *3125:A1 3.86607e-05
31 *598:44 *3432:A 8.65905e-05
32 *598:86 *3106:A0 2.69153e-05
33 *2538:A *3228:CLK 0
34 *2538:A *598:27 0
35 *2699:B1 *598:8 4.43871e-06
36 *2699:B1 *598:86 0.000158754
37 *2700:B *3183:CLK 3.62583e-06
38 *2700:B *598:44 9.3062e-06
39 *2701:B1 *3183:CLK 0.000186099
40 *2701:B1 *598:44 0.000204463
41 *2979:A *598:33 0.000576859
42 *2979:A *598:44 1.60203e-05
43 *3102:A *598:86 6.05046e-05
44 *3103:B *3219:CLK 2.67159e-05
45 *3125:S *598:27 0.000122337
46 *3183:D *3183:CLK 9.30787e-05
47 *3214:D *598:16 0.000269018
48 *3215:D *598:16 0.00015896
49 *3215:D *598:27 9.85483e-05
50 *3218:D *598:86 4.1652e-06
51 *3228:D *3228:CLK 4.43871e-06
52 *3229:D *3228:CLK 1.83847e-05
53 *3229:D *598:33 0.000164388
54 *177:16 *598:12 5.58369e-05
55 *177:16 *598:16 6.07588e-05
56 *177:135 *598:8 9.23395e-05
57 *183:143 *598:86 7.01303e-05
58 *355:145 *3219:CLK 3.0584e-05
59 *428:12 *598:44 0
60 *428:22 *3183:CLK 8.32488e-05
61 *430:40 *3182:CLK 8.40269e-05
62 *475:35 *598:8 0
63 *475:91 *598:86 0
64 *508:14 *3219:CLK 0.000184232
65 *511:108 *3183:CLK 0.000146191
66 *511:108 *598:44 5.7344e-05
67 *511:126 *598:33 0.000116357
68 *511:126 *598:44 0
*RES
1 *3294:X *598:8 7.785 
2 *598:8 *598:12 3.485 
3 *598:12 *598:16 5.985 
4 *598:16 *3215:CLK 1.6 
5 *598:16 *598:27 7.175 
6 *598:27 *598:33 7.64 
7 *598:33 *3229:CLK 1.6 
8 *598:33 *598:44 7.325 
9 *598:44 *3183:CLK 7.785 
10 *598:44 *3182:CLK 4.395 
11 *598:27 *3228:CLK 5.685 
12 *598:12 *3214:CLK 1.6 
13 *598:8 *598:86 10.82 
14 *598:86 *3219:CLK 10.01 
15 *598:86 *3218:CLK 1.6 
*END

*D_NET *599 0.00765689
*CONN
*I *3241:CLK I *D sky130_fd_sc_hd__dfxtp_1
*I *3259:CLK I *D sky130_fd_sc_hd__dfxtp_1
*I *3245:CLK I *D sky130_fd_sc_hd__dfxtp_1
*I *3244:CLK I *D sky130_fd_sc_hd__dfxtp_1
*I *3242:CLK I *D sky130_fd_sc_hd__dfxtp_1
*I *3235:CLK I *D sky130_fd_sc_hd__dfxtp_1
*I *3234:CLK I *D sky130_fd_sc_hd__dfxtp_1
*I *3258:CLK I *D sky130_fd_sc_hd__dfxtp_1
*I *3295:X O *D sky130_fd_sc_hd__clkbuf_8
*CAP
1 *3241:CLK 0.000292778
2 *3259:CLK 0.000166019
3 *3245:CLK 0
4 *3244:CLK 8.71469e-05
5 *3242:CLK 0
6 *3235:CLK 0.00037481
7 *3234:CLK 0.000211148
8 *3258:CLK 6.75692e-05
9 *3295:X 1.99383e-05
10 *599:78 0.000193707
11 *599:52 0.000515136
12 *599:29 0.000873809
13 *599:27 0.00102176
14 *599:25 0.000597301
15 *599:10 0.000206597
16 *599:6 0.000413324
17 *3234:CLK *698:16 5.06989e-05
18 *3235:CLK *811:8 6.6925e-05
19 *3235:CLK *819:14 7.33706e-05
20 *3244:CLK *2798:A1 6.09636e-05
21 *599:27 *2716:A1 4.72014e-05
22 *599:27 *2716:B2 0.000205101
23 *599:27 *2798:A1 0
24 *599:29 *2716:A1 0.000174814
25 *599:29 *819:14 0
26 *2553:A *599:78 3.50152e-06
27 *2558:A *599:78 3.22557e-05
28 *2563:A *3241:CLK 1.77595e-05
29 *2563:B *3241:CLK 0
30 *2575:A *599:29 1.94723e-05
31 *2720:A *3241:CLK 0.000324671
32 *2720:B *3241:CLK 0
33 *2798:B1 *599:27 9.9599e-05
34 *3234:D *3234:CLK 6.25957e-05
35 *3235:D *3235:CLK 1.43717e-05
36 *3242:D *3234:CLK 9.84957e-05
37 *3242:D *599:29 0.000243532
38 *3242:D *599:52 3.51254e-06
39 *3244:D *599:29 9.35656e-05
40 *3245:D *599:78 1.43717e-05
41 *3258:D *599:27 9.14049e-05
42 *3259:D *3259:CLK 0.00011852
43 *3259:D *599:25 1.77595e-05
44 *3295:A *599:6 8.52845e-05
45 *3295:A *599:10 7.36214e-05
46 *3295:A *599:25 2.68526e-05
47 *185:28 *3241:CLK 2.68464e-05
48 *197:42 *599:27 2.7639e-05
49 *215:24 *3259:CLK 0
50 *215:24 *599:27 0
51 *218:36 *3259:CLK 1.9872e-05
52 *316:96 *599:6 2.14569e-05
53 *316:96 *599:10 0.000109709
54 *316:96 *599:25 6.31732e-05
55 *343:32 *3241:CLK 0.000131326
56 *343:32 *3258:CLK 5.06699e-05
57 *343:32 *3259:CLK 0
58 *369:18 *3241:CLK 4.49377e-05
59 *369:30 *3241:CLK 0
60 *532:14 *599:29 0
61 *544:12 *599:29 0
*RES
1 *3295:X *599:6 2.395 
2 *599:6 *599:10 2.445 
3 *599:10 *3258:CLK 7.49 
4 *599:10 *599:25 3.14 
5 *599:25 *599:27 7.5 
6 *599:27 *599:29 10.305 
7 *599:29 *3234:CLK 7.71 
8 *599:29 *599:52 3.755 
9 *599:52 *3235:CLK 8.05 
10 *599:52 *3242:CLK 1.6 
11 *599:27 *599:78 3.86 
12 *599:78 *3244:CLK 7.745 
13 *599:78 *3245:CLK 1.6 
14 *599:25 *3259:CLK 6.645 
15 *599:6 *3241:CLK 11.765 
*END

*D_NET *600 0.0128082
*CONN
*I *3126:CLK I *D sky130_fd_sc_hd__dfxtp_1
*I *3160:CLK I *D sky130_fd_sc_hd__dfxtp_1
*I *3161:CLK I *D sky130_fd_sc_hd__dfxtp_1
*I *3145:CLK I *D sky130_fd_sc_hd__dfxtp_1
*I *3143:CLK I *D sky130_fd_sc_hd__dfxtp_1
*I *3142:CLK I *D sky130_fd_sc_hd__dfxtp_1
*I *3166:CLK I *D sky130_fd_sc_hd__dfxtp_1
*I *3138:CLK I *D sky130_fd_sc_hd__dfxtp_1
*I *3139:CLK I *D sky130_fd_sc_hd__dfxtp_1
*I *3162:CLK I *D sky130_fd_sc_hd__dfxtp_1
*I *3167:CLK I *D sky130_fd_sc_hd__dfxtp_1
*I *3144:CLK I *D sky130_fd_sc_hd__dfxtp_1
*I *3127:CLK I *D sky130_fd_sc_hd__dfxtp_1
*I *3164:CLK I *D sky130_fd_sc_hd__dfxtp_1
*I *3296:X O *D sky130_fd_sc_hd__clkbuf_8
*CAP
1 *3126:CLK 0.00011744
2 *3160:CLK 2.09808e-05
3 *3161:CLK 0.000191129
4 *3145:CLK 1.71961e-05
5 *3143:CLK 3.43921e-05
6 *3142:CLK 0.000172965
7 *3166:CLK 3.37454e-05
8 *3138:CLK 0
9 *3139:CLK 0
10 *3162:CLK 0.000322258
11 *3167:CLK 0.000151551
12 *3144:CLK 0.000239904
13 *3127:CLK 1.65033e-05
14 *3164:CLK 0.000289414
15 *3296:X 0.000174579
16 *600:96 0.000348416
17 *600:83 0.000453538
18 *600:79 0.000511936
19 *600:73 0.000757087
20 *600:71 0.0006602
21 *600:69 0.000561283
22 *600:61 0.000848045
23 *600:55 0.000669387
24 *600:42 0.000565825
25 *600:40 0.000610752
26 *600:36 0.000639979
27 *600:23 0.000163825
28 *600:8 0.000526926
29 *3126:CLK *2729:A2 0.000193667
30 *3127:CLK *764:38 4.66108e-05
31 *3161:CLK *2728:B2 1.55649e-05
32 *3161:CLK *921:16 0
33 *3164:CLK *2729:A1 8.34426e-05
34 *600:36 *2729:A1 3.80124e-05
35 *600:40 *902:8 0.000156268
36 *600:40 *918:8 0.000346114
37 *600:42 *918:8 4.89295e-05
38 *600:61 *921:16 0.000126244
39 *600:69 *921:16 3.93309e-05
40 *2872:A *3162:CLK 0.000143198
41 *2872:A *600:83 0
42 *2872:A *600:96 5.05521e-05
43 *2894:A *3161:CLK 4.82919e-05
44 *2943:A *3164:CLK 0
45 *2955:B *3164:CLK 0.000193338
46 *2955:B *600:23 0.000136079
47 *2957:A *600:73 0
48 *2959:A *3167:CLK 0
49 *3138:D *600:83 0
50 *3139:D *3162:CLK 0.000113663
51 *3139:D *600:96 2.30292e-05
52 *3143:D *600:69 5.03559e-05
53 *3144:D *3144:CLK 0.000237271
54 *3144:D *600:55 9.23635e-05
55 *3145:D *3161:CLK 2.59285e-05
56 *3160:D *600:40 0.000201499
57 *3164:D *3164:CLK 0.000128555
58 *3166:D *600:73 0
59 *3167:D *3167:CLK 4.94404e-05
60 *187:57 *3126:CLK 0.000147585
61 *187:57 *600:36 5.20193e-05
62 *218:63 *3164:CLK 0.000164679
63 *218:63 *600:23 0.000114492
64 *218:92 *3127:CLK 2.49909e-05
65 *218:92 *600:23 3.90951e-05
66 *218:92 *600:36 0.000136204
67 *353:22 *600:8 0.000378513
68 *356:103 *3161:CLK 0
69 *410:10 *3164:CLK 6.36656e-05
*RES
1 *3296:X *600:8 7.155 
2 *600:8 *3164:CLK 10.41 
3 *600:8 *600:23 1.89 
4 *600:23 *3127:CLK 4.05 
5 *600:23 *600:36 4.145 
6 *600:36 *600:40 9 
7 *600:40 *600:42 2.175 
8 *600:42 *3144:CLK 5.515 
9 *600:42 *600:55 5.165 
10 *600:55 *600:61 5.915 
11 *600:61 *600:69 7.14 
12 *600:69 *600:71 2 
13 *600:71 *600:73 7.755 
14 *600:73 *600:79 5.63 
15 *600:79 *600:83 6.185 
16 *600:83 *3167:CLK 5.745 
17 *600:83 *600:96 2.795 
18 *600:96 *3162:CLK 7.93 
19 *600:96 *3139:CLK 1.6 
20 *600:79 *3138:CLK 1.6 
21 *600:73 *3166:CLK 4.05 
22 *600:71 *3142:CLK 6.105 
23 *600:69 *3143:CLK 2.215 
24 *600:61 *3145:CLK 1.96 
25 *600:55 *3161:CLK 7.05 
26 *600:40 *3160:CLK 1.96 
27 *600:36 *3126:CLK 4.465 
*END

*D_NET *601 0.0111338
*CONN
*I *3239:CLK I *D sky130_fd_sc_hd__dfxtp_1
*I *3149:CLK I *D sky130_fd_sc_hd__dfxtp_1
*I *3148:CLK I *D sky130_fd_sc_hd__dfxtp_1
*I *3154:CLK I *D sky130_fd_sc_hd__dfxtp_1
*I *3254:CLK I *D sky130_fd_sc_hd__dfxtp_1
*I *3255:CLK I *D sky130_fd_sc_hd__dfxtp_1
*I *3249:CLK I *D sky130_fd_sc_hd__dfxtp_1
*I *3248:CLK I *D sky130_fd_sc_hd__dfxtp_1
*I *3238:CLK I *D sky130_fd_sc_hd__dfxtp_1
*I *3240:CLK I *D sky130_fd_sc_hd__dfxtp_1
*I *3297:X O *D sky130_fd_sc_hd__clkbuf_8
*CAP
1 *3239:CLK 4.32596e-05
2 *3149:CLK 0.000149862
3 *3148:CLK 0
4 *3154:CLK 0.000671231
5 *3254:CLK 0
6 *3255:CLK 0
7 *3249:CLK 0
8 *3248:CLK 0.00013925
9 *3238:CLK 3.73411e-05
10 *3240:CLK 0.000119423
11 *3297:X 0
12 *601:109 0.000438545
13 *601:87 0.000671231
14 *601:85 0.000530194
15 *601:70 0.000863394
16 *601:53 0.000727772
17 *601:47 0.000187986
18 *601:38 0.000282594
19 *601:12 0.000707224
20 *601:4 0.000654966
21 *3154:CLK *2727:A1 0.000560597
22 *3154:CLK *3379:A 0.000259065
23 *3238:CLK *620:12 5.05521e-05
24 *601:12 *2717:A1 2.75229e-05
25 *601:12 *764:30 3.79945e-05
26 *601:70 *2795:B2 0
27 *601:109 *2908:B_N 0.000133125
28 *2565:A *601:12 4.80285e-05
29 *2571:A1 *601:70 1.1477e-05
30 *2589:B *601:12 0.000120655
31 *2589:B *601:38 3.74161e-05
32 *2590:S *601:12 0.00015896
33 *2590:S *601:38 4.66108e-05
34 *2592:A1 *601:70 0.000171753
35 *2592:S *601:38 0
36 *2592:S *601:53 0
37 *2593:A *601:53 0.000153217
38 *2720:B *601:12 4.66108e-05
39 *2811:A3 *3154:CLK 0.000351527
40 *2830:A1 *3240:CLK 0
41 *2830:A1 *601:12 0
42 *2866:B *601:12 6.1357e-05
43 *2889:A *3154:CLK 8.52845e-05
44 *2889:B *3154:CLK 4.77807e-05
45 *2896:A *3149:CLK 5.23362e-05
46 *3154:D *3154:CLK 1.43717e-05
47 *3239:D *3239:CLK 0.000121031
48 *3239:D *3248:CLK 2.49909e-05
49 *3239:D *601:47 5.30732e-05
50 *3249:D *3239:CLK 4.77719e-05
51 *3249:D *601:53 6.28423e-05
52 *3249:D *601:70 3.30908e-05
53 *3254:D *601:85 0.00013488
54 *3254:D *601:109 9.12494e-06
55 *3255:D *601:85 4.63813e-05
56 *3297:A *601:12 8.23457e-05
57 *207:80 *3149:CLK 0.000116158
58 *208:104 *601:109 4.2858e-05
59 *215:54 *601:85 8.97727e-05
60 *215:54 *601:109 1.74182e-05
61 *218:63 *601:12 0.000495101
62 *327:91 *601:85 0.000129552
63 *327:91 *601:109 2.69981e-05
64 *327:97 *601:85 3.89366e-05
65 *343:51 *601:38 4.61701e-06
66 *353:22 *3248:CLK 8.65961e-05
67 *362:60 *3149:CLK 2.96334e-05
68 *362:60 *601:109 0.000456803
69 *369:30 *601:38 0.000153004
70 *369:30 *601:53 3.61388e-06
71 *370:30 *3154:CLK 0.000126703
72 *374:45 *3149:CLK 0
73 *401:34 *3240:CLK 0
74 *401:34 *601:12 0
75 *500:93 *601:38 0
*RES
1 *3297:X *601:4 1.6 
2 *601:4 *601:12 13.58 
3 *601:12 *3240:CLK 5.49 
4 *601:12 *3238:CLK 4.395 
5 *601:4 *601:38 6.34 
6 *601:38 *3248:CLK 3.775 
7 *601:38 *601:47 0.795 
8 *601:47 *601:53 6.145 
9 *601:53 *3249:CLK 1.6 
10 *601:53 *601:70 13.615 
11 *601:70 *3255:CLK 1.6 
12 *601:70 *601:85 7.535 
13 *601:85 *601:87 2 
14 *601:87 *3254:CLK 1.6 
15 *601:87 *3154:CLK 16.57 
16 *601:85 *601:109 8.39 
17 *601:109 *3148:CLK 1.6 
18 *601:109 *3149:CLK 8.39 
19 *601:47 *3239:CLK 2.74 
*END

*D_NET *602 0.00888897
*CONN
*I *3265:CLK I *D sky130_fd_sc_hd__dfrtp_2
*I *3266:CLK I *D sky130_fd_sc_hd__dfrtp_2
*I *3267:CLK I *D sky130_fd_sc_hd__dfrtp_2
*I *3268:CLK I *D sky130_fd_sc_hd__dfrtp_4
*I *3134:CLK I *D sky130_fd_sc_hd__dfrtp_4
*I *3135:CLK I *D sky130_fd_sc_hd__dfrtp_4
*I *3131:CLK I *D sky130_fd_sc_hd__dfrtp_1
*I *3133:CLK I *D sky130_fd_sc_hd__dfrtp_1
*I *3130:CLK I *D sky130_fd_sc_hd__dfrtp_2
*I *3132:CLK I *D sky130_fd_sc_hd__dfrtp_1
*I *3298:X O *D sky130_fd_sc_hd__clkbuf_8
*CAP
1 *3265:CLK 3.55506e-05
2 *3266:CLK 0.00020058
3 *3267:CLK 0
4 *3268:CLK 0
5 *3134:CLK 0.000138759
6 *3135:CLK 0
7 *3131:CLK 0
8 *3133:CLK 0.000265839
9 *3130:CLK 0.000200907
10 *3132:CLK 0.000192042
11 *3298:X 0.000306595
12 *602:110 0.000572223
13 *602:38 0.000475902
14 *602:36 0.000382946
15 *602:32 0.000739811
16 *602:18 0.000828102
17 *602:16 0.000903813
18 *602:14 0.000882751
19 *602:12 0.000301154
20 *602:10 0.000703699
21 *3132:CLK *3132:RESET_B 0
22 *3132:CLK *642:53 0
23 *3134:CLK *3135:RESET_B 0
24 *3134:CLK *642:34 0
25 *3134:CLK *777:8 0
26 *3266:CLK *2886:A 0
27 *3266:CLK *2887:B_N 5.4155e-06
28 *3266:CLK *3265:D 0.000104317
29 *3266:CLK *675:12 0.000139245
30 *602:10 *3265:D 0
31 *602:10 *803:10 3.72916e-05
32 *602:10 *804:10 5.23362e-05
33 *602:12 *3265:D 0
34 *602:12 *804:10 0.000116151
35 *602:14 *3265:D 0
36 *602:14 *3267:D 0
37 *602:14 *642:12 0
38 *602:14 *804:10 0.000138544
39 *602:16 *2859:B2 0
40 *602:16 *3135:RESET_B 0
41 *602:16 *3265:D 0
42 *602:16 *3267:D 0
43 *602:16 *642:26 0
44 *602:16 *777:8 0
45 *602:16 *777:17 0
46 *602:16 *778:21 0
47 *602:32 *776:14 1.4389e-05
48 *602:32 *777:8 0
49 *602:38 *642:53 0
50 *2842:A1 *3133:CLK 0
51 *2842:A1 *602:38 0
52 *2842:B1 *3133:CLK 2.34345e-05
53 *2847:B2 *3133:CLK 9.27326e-05
54 *2848:A2 *602:38 0
55 *2850:A *3133:CLK 5.83121e-06
56 *2851:A *602:32 3.35323e-05
57 *2857:A *602:32 0.000124105
58 *2888:C *3266:CLK 0
59 *3130:D *3130:CLK 2.75145e-05
60 *3130:D *3132:CLK 5.23362e-05
61 *3130:D *602:36 5.83121e-06
62 *3130:D *602:38 6.21553e-05
63 *3131:D *3133:CLK 3.74359e-05
64 *3132:D *3132:CLK 8.65961e-05
65 *3133:D *3133:CLK 6.57549e-05
66 *3134:D *3134:CLK 0
67 *3134:D *602:32 4.75991e-05
68 *3135:D *602:16 0.000153741
69 *312:10 *602:16 0
70 *312:25 *602:16 0
71 *334:18 *602:16 0
72 *334:40 *3133:CLK 0
73 *334:40 *602:32 7.46749e-05
74 *334:40 *602:36 8.65961e-05
75 *338:21 *602:16 6.16226e-06
76 *340:10 *3133:CLK 0.000133857
77 *352:94 *3266:CLK 3.07153e-05
*RES
1 *3298:X *602:10 8.46 
2 *602:10 *602:12 1.38 
3 *602:12 *602:14 4.185 
4 *602:14 *602:16 10.305 
5 *602:16 *602:18 1.485 
6 *602:18 *602:32 12.185 
7 *602:32 *602:36 2.795 
8 *602:36 *602:38 1.38 
9 *602:38 *3132:CLK 7.05 
10 *602:38 *3130:CLK 6.045 
11 *602:36 *3133:CLK 8.52 
12 *602:32 *3131:CLK 1.6 
13 *602:18 *3135:CLK 3.6 
14 *602:16 *3134:CLK 5.745 
15 *602:14 *3268:CLK 3.6 
16 *602:12 *3267:CLK 3.6 
17 *602:10 *602:110 5.555 
18 *602:110 *3266:CLK 9.92 
19 *602:110 *3265:CLK 2.215 
*END

*D_NET *603 0.014798
*CONN
*I *3274:CLK I *D sky130_fd_sc_hd__dfrtp_2
*I *3276:CLK I *D sky130_fd_sc_hd__dfrtp_1
*I *3271:CLK I *D sky130_fd_sc_hd__dfrtp_1
*I *3282:CLK I *D sky130_fd_sc_hd__dfrtp_2
*I *3277:CLK I *D sky130_fd_sc_hd__dfrtp_1
*I *3136:CLK I *D sky130_fd_sc_hd__dfrtp_1
*I *3128:CLK I *D sky130_fd_sc_hd__dfstp_1
*I *3137:CLK I *D sky130_fd_sc_hd__dfrtp_1
*I *3279:CLK I *D sky130_fd_sc_hd__dfrtp_1
*I *3278:CLK I *D sky130_fd_sc_hd__dfrtp_1
*I *3281:CLK I *D sky130_fd_sc_hd__dfrtp_2
*I *3283:CLK I *D sky130_fd_sc_hd__dfrtp_4
*I *3284:CLK I *D sky130_fd_sc_hd__dfrtp_1
*I *3286:CLK I *D sky130_fd_sc_hd__dfrtp_1
*I *3129:CLK I *D sky130_fd_sc_hd__dfrtp_1
*I *3299:X O *D sky130_fd_sc_hd__clkbuf_8
*CAP
1 *3274:CLK 0.000100223
2 *3276:CLK 5.10799e-05
3 *3271:CLK 0.000104938
4 *3282:CLK 7.99291e-05
5 *3277:CLK 0
6 *3136:CLK 2.62298e-05
7 *3128:CLK 0
8 *3137:CLK 0
9 *3279:CLK 0.000378704
10 *3278:CLK 0.00044661
11 *3281:CLK 0
12 *3283:CLK 0.000287814
13 *3284:CLK 9.42828e-05
14 *3286:CLK 0.000202779
15 *3129:CLK 0
16 *3299:X 4.60017e-05
17 *603:126 0.000113224
18 *603:95 0.000996369
19 *603:86 0.000515143
20 *603:69 0.0010824
21 *603:54 0.000818986
22 *603:41 0.000476989
23 *603:39 0.000487207
24 *603:30 0.000704967
25 *603:22 0.00068239
26 *603:16 0.000841158
27 *603:14 0.000629687
28 *603:12 0.000272111
29 *603:10 0.000208212
30 *603:8 0.00022242
31 *3271:CLK *3271:D 7.15908e-05
32 *3271:CLK *675:31 1.82499e-06
33 *3271:CLK *675:39 0.000164352
34 *3274:CLK *2755:C1 0.000204463
35 *3274:CLK *779:59 0
36 *3276:CLK *3276:D 2.75145e-05
37 *3278:CLK *3278:RESET_B 4.11729e-05
38 *3278:CLK *786:8 2.49909e-05
39 *3278:CLK *787:8 7.08493e-05
40 *3279:CLK *2638:A1 7.06865e-05
41 *3279:CLK *3279:D 8.73389e-06
42 *3279:CLK *3279:RESET_B 8.63479e-05
43 *3279:CLK *3332:A 6.52181e-05
44 *3282:CLK *779:59 5.4155e-06
45 *3283:CLK *2649:B 0.000154216
46 *3283:CLK *3283:D 6.34699e-05
47 *603:10 *2755:C1 9.54399e-05
48 *603:10 *779:59 0
49 *603:12 *779:59 0
50 *603:14 *779:59 0
51 *603:16 *2634:A1 0
52 *603:16 *779:59 0
53 *603:22 *2813:B 6.33103e-05
54 *603:22 *2816:A2 0
55 *603:22 *784:6 2.75145e-05
56 *603:22 *784:16 0.000139245
57 *603:30 *3129:RESET_B 0.000150377
58 *603:30 *3354:A 0.000108322
59 *603:30 *785:26 2.49909e-05
60 *603:30 *785:32 5.23362e-05
61 *603:39 *2664:A 0.000231427
62 *603:39 *3129:RESET_B 0.000139265
63 *603:39 *3137:D 4.63943e-05
64 *603:39 *3137:RESET_B 0.000227561
65 *603:39 *791:8 7.35729e-05
66 *603:54 *3137:D 6.88421e-05
67 *603:86 *2666:A2 0.000164686
68 *603:86 *3283:RESET_B 1.87432e-05
69 *603:86 *800:12 0.000163071
70 *603:95 *2666:A2 0.000133763
71 *603:95 *3332:A 0.000164686
72 *2631:A *3274:CLK 4.41506e-05
73 *2631:B *3274:CLK 0.000160658
74 *2631:B *603:8 2.75145e-05
75 *2634:B1 *603:22 0.000134516
76 *2635:B2 *603:16 0
77 *2635:B2 *603:22 0
78 *2637:A *603:86 8.6099e-05
79 *2637:A *603:95 3.39944e-05
80 *2655:A2 *3283:CLK 5.83121e-06
81 *2665:A1 *603:54 0
82 *2665:A1 *603:69 0
83 *2666:B1 *603:69 0.000285085
84 *2815:D *603:16 0
85 *2816:B1 *603:22 0
86 *2840:B1_N *603:22 3.96284e-05
87 *3274:D *3274:CLK 4.66108e-05
88 *3284:D *3284:CLK 1.83847e-05
89 *3286:D *3286:CLK 0
90 *3286:D *603:54 0
91 *8:27 *603:22 0.000107652
92 *167:12 *603:54 5.64507e-05
93 *310:23 *603:22 0.000226841
94 *311:8 *603:22 0
95 *311:8 *603:30 6.44134e-05
96 *322:24 *603:8 1.61831e-05
97 *511:12 *603:10 3.84409e-05
98 *511:12 *603:12 9.05377e-05
99 *511:12 *603:14 8.78813e-05
100 *511:12 *603:16 0.000202863
*RES
1 *3299:X *603:8 4.395 
2 *603:8 *603:10 1.89 
3 *603:10 *603:12 1.89 
4 *603:12 *603:14 1.89 
5 *603:14 *603:16 8.775 
6 *603:16 *603:22 10.085 
7 *603:22 *603:30 9.1 
8 *603:30 *3129:CLK 1.6 
9 *603:30 *603:39 10.815 
10 *603:39 *603:41 2 
11 *603:41 *3286:CLK 6.285 
12 *603:41 *603:54 4.44 
13 *603:54 *3284:CLK 5.085 
14 *603:54 *603:69 10.37 
15 *603:69 *3283:CLK 6.535 
16 *603:69 *603:86 9.005 
17 *603:86 *3281:CLK 3.6 
18 *603:86 *603:95 4.185 
19 *603:95 *3278:CLK 10.275 
20 *603:95 *3279:CLK 8.715 
21 *603:39 *3137:CLK 1.6 
22 *603:22 *603:126 1.14 
23 *603:126 *3128:CLK 1.6 
24 *603:126 *3136:CLK 2.05 
25 *603:16 *3277:CLK 3.6 
26 *603:14 *3282:CLK 4.755 
27 *603:12 *3271:CLK 6.465 
28 *603:10 *3276:CLK 4.395 
29 *603:8 *3274:CLK 6.795 
*END

*D_NET *604 0.00748005
*CONN
*I *3263:CLK I *D sky130_fd_sc_hd__dfxtp_1
*I *3260:CLK I *D sky130_fd_sc_hd__dfxtp_1
*I *3261:CLK I *D sky130_fd_sc_hd__dfxtp_1
*I *3251:CLK I *D sky130_fd_sc_hd__dfxtp_1
*I *3253:CLK I *D sky130_fd_sc_hd__dfxtp_1
*I *3252:CLK I *D sky130_fd_sc_hd__dfxtp_1
*I *3250:CLK I *D sky130_fd_sc_hd__dfxtp_1
*I *3300:X O *D sky130_fd_sc_hd__clkbuf_8
*CAP
1 *3263:CLK 0
2 *3260:CLK 5.92236e-05
3 *3261:CLK 0
4 *3251:CLK 0
5 *3253:CLK 1.77004e-05
6 *3252:CLK 3.51318e-05
7 *3250:CLK 0
8 *3300:X 0
9 *604:72 0.000458794
10 *604:60 0.000662932
11 *604:35 0.000529487
12 *604:25 0.000675307
13 *604:10 0.000524097
14 *604:4 0.000588806
15 *3260:CLK *779:74 0.00018471
16 *604:25 *2600:A1 0
17 *604:25 *919:14 0.00016032
18 *604:35 *919:14 1.19928e-05
19 *604:72 *779:74 0.000674656
20 *2541:A *604:60 1.5567e-05
21 *2623:A *3260:CLK 0
22 *2623:A *604:72 0
23 *2624:B *604:60 4.66108e-05
24 *3251:D *604:25 0.000151196
25 *3260:D *3260:CLK 2.03321e-05
26 *3261:D *3260:CLK 6.02202e-05
27 *3263:D *604:60 3.83194e-05
28 *3263:D *604:72 0.00010604
29 *3469:A *604:10 0.000318834
30 *3469:A *604:25 0.000221722
31 *197:70 *3252:CLK 0.000112951
32 *197:70 *3253:CLK 7.21318e-05
33 *316:80 *604:35 0.000234051
34 *355:22 *604:72 5.736e-05
35 *355:40 *604:60 0.000263971
36 *355:40 *604:72 4.79712e-05
37 *355:82 *604:72 0.000569434
38 *356:49 *604:35 0.000118081
39 *378:35 *3252:CLK 0.000114253
40 *378:35 *3253:CLK 6.4428e-05
41 *389:12 *604:10 0
42 *389:22 *604:10 0
43 *413:72 *604:10 0.000105515
44 *413:72 *604:60 0.000157901
*RES
1 *3300:X *604:4 1.6 
2 *604:4 *604:10 8.45 
3 *604:10 *3250:CLK 3.6 
4 *604:10 *604:25 6.845 
5 *604:25 *604:35 8.705 
6 *604:35 *3252:CLK 4.98 
7 *604:35 *3253:CLK 4.47 
8 *604:25 *3251:CLK 1.6 
9 *604:4 *604:60 5.625 
10 *604:60 *604:72 13.355 
11 *604:72 *3261:CLK 3.6 
12 *604:72 *3260:CLK 5.745 
13 *604:60 *3263:CLK 1.6 
*END

*D_NET *605 0.0115121
*CONN
*I *3246:CLK I *D sky130_fd_sc_hd__dfxtp_1
*I *3247:CLK I *D sky130_fd_sc_hd__dfxtp_1
*I *3273:CLK I *D sky130_fd_sc_hd__dfrtp_1
*I *3262:CLK I *D sky130_fd_sc_hd__dfxtp_1
*I *3272:CLK I *D sky130_fd_sc_hd__dfrtp_1
*I *3280:CLK I *D sky130_fd_sc_hd__dfrtp_1
*I *3264:CLK I *D sky130_fd_sc_hd__dfrtp_1
*I *3285:CLK I *D sky130_fd_sc_hd__dfstp_1
*I *3275:CLK I *D sky130_fd_sc_hd__dfrtp_1
*I *3301:X O *D sky130_fd_sc_hd__clkbuf_8
*CAP
1 *3246:CLK 0.000115779
2 *3247:CLK 2.32329e-05
3 *3273:CLK 1.01769e-05
4 *3262:CLK 2.03663e-05
5 *3272:CLK 0
6 *3280:CLK 0.000369167
7 *3264:CLK 0.000262731
8 *3285:CLK 0
9 *3275:CLK 0.000172039
10 *3301:X 2.24758e-05
11 *605:109 0.000297156
12 *605:93 3.05431e-05
13 *605:62 0.000749953
14 *605:53 0.000581283
15 *605:45 0.000741728
16 *605:35 0.000450282
17 *605:33 0.00118184
18 *605:8 0.00104643
19 *3246:CLK *2776:A 0.000138544
20 *3247:CLK *3318:A 2.75145e-05
21 *3264:CLK *2646:A0 0
22 *3264:CLK *2646:S 0.000141599
23 *3264:CLK *3264:RESET_B 5.13692e-05
24 *3275:CLK *2755:C1 0
25 *3275:CLK *779:59 0.00033683
26 *3280:CLK *3280:RESET_B 0.000185262
27 *605:8 *3321:A 0.0001249
28 *605:33 *2622:A1 4.9181e-05
29 *605:33 *2625:A1 8.13101e-05
30 *605:33 *2627:A1 2.46007e-05
31 *605:33 *2755:C1 6.19247e-05
32 *605:33 *2810:A1 9.89939e-05
33 *605:33 *3312:A 5.73619e-05
34 *605:33 *779:59 2.14129e-05
35 *605:33 *779:74 0.000554357
36 *605:53 *2643:B 0
37 *605:53 *2869:A 8.88715e-05
38 *2620:A0 *3246:CLK 8.09021e-06
39 *2620:A0 *605:109 8.47542e-05
40 *2622:S *605:33 8.46818e-05
41 *2626:A *605:33 0.000156338
42 *2626:A *605:45 0.000124007
43 *2640:S *3264:CLK 0
44 *2640:S *3280:CLK 0
45 *2645:A2 *3280:CLK 0
46 *2645:A2 *605:53 0.000379584
47 *2646:A1 *3264:CLK 6.97358e-05
48 *2646:A1 *3280:CLK 5.54551e-05
49 *2675:B *605:35 4.37539e-05
50 *2675:B *605:109 6.70964e-05
51 *2810:A2 *605:33 7.18795e-06
52 *3247:D *3246:CLK 9.15582e-05
53 *3262:D *3262:CLK 8.35118e-05
54 *3262:D *3273:CLK 4.77807e-05
55 *3262:D *605:35 9.23804e-06
56 *3262:D *605:45 9.44635e-05
57 *3264:D *3264:CLK 0
58 *3272:D *605:45 0.000140145
59 *3272:D *605:53 0
60 *3273:D *3262:CLK 8.35118e-05
61 *3273:D *3273:CLK 3.57349e-05
62 *3285:D *605:53 4.89295e-05
63 *3285:D *605:62 0.000148893
64 *315:19 *605:53 0.000204463
65 *316:37 *605:33 6.64033e-05
66 *316:166 *605:45 1.98983e-05
67 *316:166 *605:53 0
68 *316:166 *605:109 0
69 *348:6 *605:53 0.000120655
70 *356:49 *605:8 7.35813e-05
71 *511:102 *3246:CLK 0.000279986
72 *511:102 *605:109 9.68709e-05
73 *551:16 *605:35 0.000268548
74 *551:16 *605:45 9.00874e-05
75 *551:16 *605:109 0.000235572
76 *585:12 *3280:CLK 7.23602e-05
*RES
1 *3301:X *605:8 4.74 
2 *605:8 *3275:CLK 7.53 
3 *605:8 *605:33 19.84 
4 *605:33 *605:35 3.42 
5 *605:35 *605:45 8.255 
6 *605:45 *605:53 13.81 
7 *605:53 *3285:CLK 1.6 
8 *605:53 *605:62 4.175 
9 *605:62 *3264:CLK 8.58 
10 *605:62 *3280:CLK 10.755 
11 *605:45 *3272:CLK 1.6 
12 *605:35 *605:93 2 
13 *605:93 *3262:CLK 2.395 
14 *605:93 *3273:CLK 2.05 
15 *605:33 *605:109 4.95 
16 *605:109 *3247:CLK 4.05 
17 *605:109 *3246:CLK 7.53 
*END

*D_NET *606 0.0115232
*CONN
*I *3211:CLK I *D sky130_fd_sc_hd__dfxtp_1
*I *3209:CLK I *D sky130_fd_sc_hd__dfxtp_1
*I *3152:CLK I *D sky130_fd_sc_hd__dfxtp_1
*I *3158:CLK I *D sky130_fd_sc_hd__dfxtp_1
*I *3156:CLK I *D sky130_fd_sc_hd__dfxtp_1
*I *3157:CLK I *D sky130_fd_sc_hd__dfxtp_1
*I *3150:CLK I *D sky130_fd_sc_hd__dfxtp_1
*I *3151:CLK I *D sky130_fd_sc_hd__dfxtp_1
*I *3159:CLK I *D sky130_fd_sc_hd__dfxtp_1
*I *3210:CLK I *D sky130_fd_sc_hd__dfxtp_1
*I *3208:CLK I *D sky130_fd_sc_hd__dfxtp_1
*I *3302:X O *D sky130_fd_sc_hd__clkbuf_8
*CAP
1 *3211:CLK 1.5099e-05
2 *3209:CLK 0.000361844
3 *3152:CLK 0
4 *3158:CLK 0.000222998
5 *3156:CLK 0
6 *3157:CLK 6.50086e-05
7 *3150:CLK 0.000117957
8 *3151:CLK 5.47511e-05
9 *3159:CLK 8.2861e-05
10 *3210:CLK 0
11 *3208:CLK 0.000304588
12 *3302:X 0.000172502
13 *606:117 0.000462768
14 *606:77 8.58187e-05
15 *606:53 0.000662422
16 *606:51 0.000985879
17 *606:49 0.000935804
18 *606:34 0.000427155
19 *606:30 0.000425628
20 *606:24 0.000461118
21 *606:8 0.000450121
22 *606:6 0.000374543
23 *3158:CLK *3394:A 7.5416e-05
24 *3208:CLK *848:10 2.88357e-05
25 *3209:CLK *2785:B2 7.38779e-05
26 *3209:CLK *3453:A 0.000234763
27 *606:6 *846:10 2.76356e-05
28 *606:6 *848:10 0.000145603
29 *606:8 *848:10 0.00013731
30 *606:49 *2725:A1 6.27529e-05
31 *606:49 *906:6 1.19928e-05
32 *606:51 *2926:A0 8.8266e-05
33 *606:51 *906:6 0.00011952
34 *606:117 *2785:B2 0.00026194
35 *2725:A2 *606:49 4.82863e-05
36 *2726:B1 *606:49 0.000197358
37 *2909:A0 *3157:CLK 7.53115e-05
38 *2911:S *3157:CLK 0.00019911
39 *2926:A1 *606:51 2.75145e-05
40 *2926:S *3158:CLK 0.000155234
41 *2927:A *606:51 4.94474e-05
42 *3043:A *606:30 0.000124887
43 *3072:A1 *606:30 0
44 *3074:S *606:24 0.000143928
45 *3074:S *606:30 0.000160733
46 *3151:D *606:53 1.43717e-05
47 *3156:D *606:51 0.00024039
48 *3208:D *3208:CLK 0.000310497
49 *3209:D *3209:CLK 1.43717e-05
50 *3210:D *606:8 5.01066e-05
51 *3211:D *606:117 7.71445e-05
52 *187:83 *3159:CLK 5.39961e-05
53 *187:83 *606:24 0.000153053
54 *187:83 *606:30 0.000538949
55 *187:83 *606:34 0
56 *218:109 *3159:CLK 0.00018471
57 *218:109 *606:34 0.000180682
58 *349:77 *3157:CLK 5.53249e-06
59 *366:51 *3158:CLK 0.000193757
60 *372:61 *606:49 9.61151e-05
61 *372:78 *3158:CLK 0.000177225
62 *383:12 *606:30 0.000113717
*RES
1 *3302:X *606:6 4.81 
2 *606:6 *606:8 2.865 
3 *606:8 *3208:CLK 7.225 
4 *606:8 *3210:CLK 1.6 
5 *606:6 *606:24 3.89 
6 *606:24 *606:30 10.055 
7 *606:30 *606:34 4.145 
8 *606:34 *3159:CLK 5.745 
9 *606:34 *606:49 6.95 
10 *606:49 *606:51 8.385 
11 *606:51 *606:53 6.66 
12 *606:53 *3151:CLK 2.41 
13 *606:53 *3150:CLK 7.34 
14 *606:51 *606:77 0.36 
15 *606:77 *3157:CLK 7.85 
16 *606:77 *3156:CLK 1.6 
17 *606:49 *3158:CLK 12.08 
18 *606:30 *3152:CLK 1.6 
19 *606:24 *606:117 4.535 
20 *606:117 *3209:CLK 7.93 
21 *606:117 *3211:CLK 1.96 
*END

*D_NET *607 0.010766
*CONN
*I *3180:CLK I *D sky130_fd_sc_hd__dfxtp_1
*I *3147:CLK I *D sky130_fd_sc_hd__dfxtp_1
*I *3146:CLK I *D sky130_fd_sc_hd__dfxtp_1
*I *3140:CLK I *D sky130_fd_sc_hd__dfxtp_1
*I *3141:CLK I *D sky130_fd_sc_hd__dfxtp_1
*I *3155:CLK I *D sky130_fd_sc_hd__dfxtp_1
*I *3206:CLK I *D sky130_fd_sc_hd__dfxtp_1
*I *3205:CLK I *D sky130_fd_sc_hd__dfxtp_1
*I *3204:CLK I *D sky130_fd_sc_hd__dfxtp_1
*I *3153:CLK I *D sky130_fd_sc_hd__dfxtp_1
*I *3303:X O *D sky130_fd_sc_hd__clkbuf_8
*CAP
1 *3180:CLK 0.000369456
2 *3147:CLK 3.75023e-05
3 *3146:CLK 2.10014e-05
4 *3140:CLK 4.30763e-05
5 *3141:CLK 0
6 *3155:CLK 0.000319879
7 *3206:CLK 0.000100238
8 *3205:CLK 0
9 *3204:CLK 0
10 *3153:CLK 0.000482406
11 *3303:X 0
12 *607:84 0.00062668
13 *607:70 0.000578085
14 *607:66 0.000383689
15 *607:64 0.000451577
16 *607:62 0.000967094
17 *607:24 0.000587544
18 *607:20 0.000379292
19 *607:10 0.000704525
20 *607:4 0.000648176
21 *3140:CLK *682:22 8.62313e-05
22 *3146:CLK *2908:B_N 8.52883e-05
23 *3153:CLK *2914:A0 6.47516e-05
24 *3153:CLK *3397:A 0
25 *3155:CLK *2803:A1 7.05462e-05
26 *3180:CLK *2784:B2 1.19079e-05
27 *3206:CLK *2733:B2 7.76471e-05
28 *607:10 *2733:B2 0.000115681
29 *607:20 *851:12 2.00026e-05
30 *607:62 *2735:A1 2.86975e-05
31 *607:70 *2877:A1 7.23533e-05
32 *607:70 *3424:A 0
33 *607:84 *682:22 2.25595e-05
34 *2727:A2 *3155:CLK 0.000119485
35 *2735:A2 *3180:CLK 0.000133977
36 *2735:A2 *607:62 1.41095e-05
37 *2735:C1 *607:10 0.000109859
38 *2735:C1 *607:24 3.98029e-05
39 *2735:C1 *607:62 2.1742e-05
40 *2740:A2 *607:62 8.41384e-05
41 *2784:B1 *3180:CLK 5.83121e-06
42 *2877:S *3140:CLK 6.2551e-05
43 *2898:A *3147:CLK 8.52883e-05
44 *2908:A *3146:CLK 3.30017e-05
45 *2915:A *3153:CLK 0
46 *2922:S *3155:CLK 1.39525e-05
47 *2985:A *607:64 1.1477e-05
48 *3062:S *3206:CLK 4.66108e-05
49 *3065:A *607:20 7.34196e-05
50 *3076:A *3180:CLK 0.000175699
51 *3141:D *607:84 0.000154221
52 *3153:D *3153:CLK 0
53 *3155:D *3155:CLK 1.43717e-05
54 *3204:D *3153:CLK 3.14077e-05
55 *3205:D *607:20 1.43717e-05
56 *197:84 *607:10 5.96623e-06
57 *197:94 *3153:CLK 0
58 *202:83 *3180:CLK 0.000153655
59 *208:104 *3180:CLK 0.000119251
60 *215:100 *607:64 0
61 *215:100 *607:66 0
62 *215:119 *3180:CLK 0.000153655
63 *215:148 *3180:CLK 1.91597e-05
64 *356:67 *607:70 3.91191e-05
65 *356:67 *607:84 4.66108e-05
66 *356:79 *607:84 8.23457e-05
67 *369:47 *3155:CLK 0.000174919
68 *369:47 *607:84 0
69 *372:40 *3155:CLK 6.97202e-05
70 *405:68 *3153:CLK 0
71 *428:99 *3206:CLK 0.000176747
72 *428:99 *607:10 8.33066e-06
73 *440:42 *607:20 0.000304455
74 *473:68 *3180:CLK 7.14892e-06
75 *473:74 *607:62 1.91597e-05
76 *491:14 *607:20 0.000117775
77 *500:91 *3180:CLK 0
78 *500:91 *607:64 0.000233668
79 *500:91 *607:66 0.000102757
80 *500:91 *607:70 0.000130994
81 *500:91 *607:84 1.90818e-05
82 *500:93 *3155:CLK 0
83 *591:210 *607:10 0.000132526
84 *591:216 *607:10 4.77807e-05
*RES
1 *3303:X *607:4 1.6 
2 *607:4 *607:10 8.21 
3 *607:10 *607:20 8.36 
4 *607:20 *607:24 3.89 
5 *607:24 *3153:CLK 11.865 
6 *607:24 *3204:CLK 3.6 
7 *607:20 *3205:CLK 1.6 
8 *607:10 *3206:CLK 5.94 
9 *607:4 *607:62 5.915 
10 *607:62 *607:64 5.46 
11 *607:64 *607:66 2.4 
12 *607:66 *607:70 6.185 
13 *607:70 *607:84 7.115 
14 *607:84 *3155:CLK 9.99 
15 *607:84 *3141:CLK 3.6 
16 *607:70 *3140:CLK 3.085 
17 *607:66 *3146:CLK 4.395 
18 *607:64 *3147:CLK 4.395 
19 *607:62 *3180:CLK 15.295 
*END

*D_NET *608 0.0132311
*CONN
*I *3308:A I *D sky130_fd_sc_hd__buf_4
*I *3455:X O *D sky130_fd_sc_hd__buf_1
*CAP
1 *3308:A 0.00474495
2 *3455:X 0.00474495
3 *3308:A *681:18 0.0001458
4 *3308:A *684:29 0.000145901
5 *231:14 *3308:A 0
6 *352:100 *3308:A 0.000145901
7 *389:63 *3308:A 0.00330358
*RES
1 *3455:X *3308:A 24.2017 
*END

*D_NET *609 0.0114258
*CONN
*I *2741:B I *D sky130_fd_sc_hd__and3_1
*I *2772:B I *D sky130_fd_sc_hd__and3_1
*I *2675:A I *D sky130_fd_sc_hd__nand2_1
*I *3458:X O *D sky130_fd_sc_hd__buf_1
*CAP
1 *2741:B 0.00026164
2 *2772:B 3.58256e-05
3 *2675:A 0.000355922
4 *3458:X 0.000756767
5 *609:53 0.00142788
6 *609:12 0.0022431
7 *2741:B *2772:A 0.000107263
8 *2741:B *631:41 0
9 *609:12 *2810:A1 2.02163e-05
10 *609:12 *3269:D 4.49939e-05
11 *609:12 *3270:D 3.98869e-05
12 *609:12 *720:18 0.000150229
13 *609:53 *2771:A 0
14 *609:53 *3269:D 0.000145401
15 *609:53 *631:41 0.000243999
16 *2541:A *609:12 0.000102833
17 *2541:A *609:53 0.000104423
18 *2542:S *2741:B 7.09204e-05
19 *2587:A0 *609:53 0.000249037
20 *2587:S *609:53 0.000239646
21 *2631:A *609:12 0.000270653
22 *2675:B *609:53 0.000123874
23 *2742:B1 *609:53 3.47757e-05
24 *2745:C *609:53 0.000198804
25 *2753:A *609:53 0.000354901
26 *2775:B *609:53 0.000241576
27 *2775:C *609:53 5.69075e-05
28 *2775:D *609:53 0.000111641
29 *2810:A2 *609:12 2.98644e-05
30 *2810:A2 *609:53 0.000145857
31 *3272:D *2675:A 8.22347e-05
32 *3275:D *609:12 6.58339e-05
33 *174:25 *609:53 0.000131366
34 *174:27 *609:53 0.000136877
35 *174:29 *609:53 0.000249935
36 *175:6 *2675:A 0.000423698
37 *218:10 *609:12 0
38 *327:33 *609:12 0.000601207
39 *327:33 *609:53 0.000175721
40 *327:44 *609:53 3.54721e-05
41 *356:49 *609:12 6.28498e-05
42 *428:45 *2772:B 2.69217e-05
43 *511:12 *609:12 0.000506349
44 *511:102 *2741:B 3.20393e-05
45 *511:102 *609:12 0.000540999
46 *511:102 *609:53 8.75068e-05
47 *551:16 *609:12 9.79922e-05
*RES
1 *3458:X *609:12 23.64 
2 *609:12 *2675:A 9.27 
3 *609:12 *609:53 33.16 
4 *609:53 *2772:B 4.05 
5 *609:53 *2741:B 8.16 
*END

*D_NET *610 0.000660542
*CONN
*I *2830:A0 I *D sky130_fd_sc_hd__mux2_1
*I *3437:X O *D sky130_fd_sc_hd__dlygate4sd3_1
*CAP
1 *2830:A0 0.000155612
2 *3437:X 0.000155612
3 *2717:B1 *2830:A0 7.03276e-05
4 *2732:A1 *2830:A0 7.03276e-05
5 *324:30 *2830:A0 1.14192e-05
6 *324:34 *2830:A0 0.000197243
*RES
1 *3437:X *2830:A0 9.9 
*END

*D_NET *611 0.00070523
*CONN
*I *3046:A1 I *D sky130_fd_sc_hd__mux2_1
*I *3438:X O *D sky130_fd_sc_hd__dlygate4sd3_1
*CAP
1 *3046:A1 0.000307716
2 *3438:X 0.000307716
3 *3046:A1 *3337:A 0
4 *3046:A1 *3438:A 0
5 *3037:A *3046:A1 1.17309e-05
6 *3047:A *3046:A1 0
7 *428:114 *3046:A1 5.05521e-05
8 *428:121 *3046:A1 2.75145e-05
*RES
1 *3438:X *3046:A1 11.595 
*END

*D_NET *612 0.000302185
*CONN
*I *3120:A1 I *D sky130_fd_sc_hd__mux2_1
*I *3439:X O *D sky130_fd_sc_hd__dlygate4sd3_1
*CAP
1 *3120:A1 5.54762e-05
2 *3439:X 5.54762e-05
3 *3120:A0 *3120:A1 4.30228e-05
4 *3120:S *3120:A1 4.99619e-05
5 *3122:A0 *3120:A1 8.65905e-05
6 *3122:S *3120:A1 1.16578e-05
*RES
1 *3439:X *3120:A1 4.685 
*END

*D_NET *613 0.00028031
*CONN
*I *2551:A1 I *D sky130_fd_sc_hd__mux2_1
*I *3440:X O *D sky130_fd_sc_hd__dlygate4sd3_1
*CAP
1 *2551:A1 5.96637e-05
2 *3440:X 5.96637e-05
3 *2551:A1 *2612:A1 4.99619e-05
4 *2612:A0 *2551:A1 7.23602e-05
5 *2797:B1 *2551:A1 3.86607e-05
*RES
1 *3440:X *2551:A1 8.52 
*END

*D_NET *614 0.00113701
*CONN
*I *3064:A1 I *D sky130_fd_sc_hd__mux2_1
*I *3441:X O *D sky130_fd_sc_hd__dlygate4sd3_1
*CAP
1 *3064:A1 0.000276974
2 *3441:X 0.000276974
3 *3064:A1 *851:12 0.000122817
4 *2786:B1 *3064:A1 0
5 *3206:D *3064:A1 0.000309838
6 *320:64 *3064:A1 0
7 *428:83 *3064:A1 9.66977e-05
8 *428:99 *3064:A1 5.37136e-05
*RES
1 *3441:X *3064:A1 13.29 
*END

*D_NET *615 0.00106183
*CONN
*I *2966:A0 I *D sky130_fd_sc_hd__mux2_1
*I *3442:X O *D sky130_fd_sc_hd__dlygate4sd3_1
*CAP
1 *2966:A0 0.000260867
2 *3442:X 0.000260867
3 *2705:A *2966:A0 0.000121023
4 *2966:S *2966:A0 2.20544e-05
5 *3293:A *2966:A0 4.13769e-05
6 *177:135 *2966:A0 0.000241856
7 *193:40 *2966:A0 0
8 *591:162 *2966:A0 0
9 *598:8 *2966:A0 0.00011379
*RES
1 *3442:X *2966:A0 12.045 
*END

*D_NET *616 0.000267074
*CONN
*I *2561:A1 I *D sky130_fd_sc_hd__mux2_1
*I *3443:X O *D sky130_fd_sc_hd__dlygate4sd3_1
*CAP
1 *2561:A1 6.49672e-05
2 *3443:X 6.49672e-05
3 *2561:A0 *2561:A1 5.05437e-05
4 *2561:S *2561:A1 8.65961e-05
*RES
1 *3443:X *2561:A1 4.685 
*END

*D_NET *617 0.00032546
*CONN
*I *2964:A0 I *D sky130_fd_sc_hd__mux2_1
*I *3445:X O *D sky130_fd_sc_hd__dlygate4sd3_1
*CAP
1 *2964:A0 0.000138587
2 *3445:X 0.000138587
3 *2964:A1 *2964:A0 4.82863e-05
*RES
1 *3445:X *2964:A0 5.03 
*END

*D_NET *618 0.000396527
*CONN
*I *3016:A0 I *D sky130_fd_sc_hd__mux2_1
*I *3446:X O *D sky130_fd_sc_hd__dlygate4sd3_1
*CAP
1 *3016:A0 6.97342e-05
2 *3446:X 6.97342e-05
3 *3016:A0 *871:14 0.00012398
4 *2759:B1 *3016:A0 8.53011e-05
5 *3016:A1 *3016:A0 4.77769e-05
*RES
1 *3446:X *3016:A0 5.03 
*END

*D_NET *619 0.000676767
*CONN
*I *2602:A1 I *D sky130_fd_sc_hd__mux2_1
*I *3447:X O *D sky130_fd_sc_hd__dlygate4sd3_1
*CAP
1 *2602:A1 8.68577e-05
2 *3447:X 8.68577e-05
3 *2602:A1 *2738:A1 9.30787e-05
4 *2600:S *2602:A1 0.000120921
5 *2755:B2 *2602:A1 9.30787e-05
6 *174:92 *2602:A1 0
7 *327:81 *2602:A1 0.00015639
8 *560:22 *2602:A1 3.95826e-05
*RES
1 *3447:X *2602:A1 10.17 
*END

*D_NET *620 0.0175722
*CONN
*I *2688:A2 I *D sky130_fd_sc_hd__a22o_1
*I *2757:A2 I *D sky130_fd_sc_hd__a22o_1
*I *2729:A2 I *D sky130_fd_sc_hd__a22o_1
*I *2802:A2 I *D sky130_fd_sc_hd__a221o_1
*I *3468:X O *D sky130_fd_sc_hd__clkbuf_2
*CAP
1 *2688:A2 0.000393278
2 *2757:A2 0
3 *2729:A2 9.57311e-05
4 *2802:A2 0.000158471
5 *3468:X 0.0018266
6 *620:46 0.00197499
7 *620:29 0.00201895
8 *620:12 0.00232658
9 *2688:A2 *2688:A1 2.75229e-05
10 *2688:A2 *2757:A1 9.50342e-06
11 *2688:A2 *764:64 0
12 *2802:A2 *2950:A1 0.000133407
13 *620:12 *2717:A1 0.000122331
14 *620:12 *3311:A 0.000633038
15 *620:12 *3342:A 7.62032e-05
16 *620:12 *764:30 3.66529e-05
17 *620:29 *764:30 0.000205151
18 *620:29 *764:64 0.00021189
19 *620:46 *2734:A1 0.000111857
20 *620:46 *2734:B2 0.000566903
21 *620:46 *2757:A1 0.00056919
22 *620:46 *3335:A 0.000306188
23 *620:46 *3416:A 0.000452655
24 *620:46 *764:64 0.000961218
25 *620:46 *865:12 0
26 *2688:B1 *2688:A2 6.97034e-05
27 *2758:C1 *2688:A2 4.76581e-05
28 *2809:A1 *2802:A2 2.46089e-05
29 *2809:A1 *620:29 0.000108213
30 *2931:B *620:46 4.41011e-05
31 *2937:B *620:46 5.05066e-06
32 *3028:A *620:46 0.000325595
33 *3028:B *620:46 0.000203829
34 *3033:B *2688:A2 3.09233e-05
35 *3043:A *2688:A2 0
36 *3043:A *620:46 0.000158665
37 *3043:B *2688:A2 4.66742e-05
38 *3126:CLK *2729:A2 0.000193667
39 *3127:D *620:29 6.82393e-05
40 *3127:D *620:46 3.45235e-05
41 *3200:CLK *620:46 6.81237e-05
42 *3238:CLK *620:12 5.05521e-05
43 *3238:D *620:12 2.74339e-05
44 *3470:A *620:12 0.000969538
45 *185:28 *2802:A2 1.54111e-05
46 *187:57 *2729:A2 1.54665e-05
47 *187:83 *620:46 0
48 *218:109 *620:46 0.000524676
49 *322:85 *620:12 0.000341896
50 *324:34 *2729:A2 0.000194291
51 *348:44 *620:12 2.51391e-05
52 *401:34 *2802:A2 0
53 *405:66 *2802:A2 2.70233e-05
54 *405:66 *620:29 0.000104507
55 *405:66 *620:46 0.000560173
56 *409:34 *620:29 4.31921e-05
57 *419:121 *2688:A2 2.49909e-05
*RES
1 *3468:X *620:12 30.045 
2 *620:12 *2802:A2 6.6675 
3 *620:12 *620:29 9.03 
4 *620:29 *2729:A2 6.225 
5 *620:29 *620:46 42.15 
6 *620:46 *2757:A2 3.6 
7 *620:46 *2688:A2 10.455 
*END

*D_NET *621 0.000542403
*CONN
*I *3031:A0 I *D sky130_fd_sc_hd__mux2_1
*I *3448:X O *D sky130_fd_sc_hd__dlygate4sd3_1
*CAP
1 *3031:A0 7.90581e-05
2 *3448:X 7.90581e-05
3 *428:114 *3031:A0 0.000137414
4 *467:14 *3031:A0 0.000246872
*RES
1 *3448:X *3031:A0 10.11 
*END

*D_NET *622 0.000402647
*CONN
*I *2946:A1 I *D sky130_fd_sc_hd__mux2_1
*I *3449:X O *D sky130_fd_sc_hd__dlygate4sd3_1
*CAP
1 *2946:A1 0.00012791
2 *3449:X 0.00012791
3 *2946:A1 *2952:A1 0
4 *2944:S *2946:A1 5.53249e-06
5 *2953:A *2946:A1 2.11084e-05
6 *211:65 *2946:A1 0.000120186
*RES
1 *3449:X *2946:A1 9.375 
*END

*D_NET *623 0.000490194
*CONN
*I *2932:A1 I *D sky130_fd_sc_hd__mux2_1
*I *3450:X O *D sky130_fd_sc_hd__dlygate4sd3_1
*CAP
1 *2932:A1 0.000143227
2 *3450:X 0.000143227
3 *2932:A1 *2728:A2 7.23533e-05
4 *2732:A3 *2932:A1 3.86529e-05
5 *2932:A0 *2932:A1 9.27326e-05
*RES
1 *3450:X *2932:A1 9.555 
*END

*D_NET *624 0.00045656
*CONN
*I *3122:A1 I *D sky130_fd_sc_hd__mux2_1
*I *3451:X O *D sky130_fd_sc_hd__dlygate4sd3_1
*CAP
1 *3122:A1 8.63528e-05
2 *3451:X 8.63528e-05
3 *2690:C1 *3122:A1 0.000237243
4 *3123:A *3122:A1 4.66108e-05
*RES
1 *3451:X *3122:A1 5.375 
*END

*D_NET *625 0.000882324
*CONN
*I *2981:A1 I *D sky130_fd_sc_hd__mux2_1
*I *3452:X O *D sky130_fd_sc_hd__dlygate4sd3_1
*CAP
1 *2981:A1 0.000185076
2 *3452:X 0.000185076
3 *2981:A1 *2983:A1 8.8266e-05
4 *2792:A1 *2981:A1 5.83121e-06
5 *2981:S *2981:A1 0.000203358
6 *2984:A *2981:A1 0.000163293
7 *430:68 *2981:A1 5.14242e-05
*RES
1 *3452:X *2981:A1 7.79 
*END

*D_NET *626 0.000539179
*CONN
*I *3074:A0 I *D sky130_fd_sc_hd__mux2_1
*I *3453:X O *D sky130_fd_sc_hd__dlygate4sd3_1
*CAP
1 *3074:A0 0.000135961
2 *3453:X 0.000135961
3 *3029:A1 *3074:A0 3.72081e-05
4 *3079:A1 *3074:A0 7.03276e-05
5 *3080:A *3074:A0 0.000159722
*RES
1 *3453:X *3074:A0 9.555 
*END

*D_NET *627 0.000691828
*CONN
*I *2993:A0 I *D sky130_fd_sc_hd__mux2_1
*I *3454:X O *D sky130_fd_sc_hd__dlygate4sd3_1
*CAP
1 *2993:A0 0.000171071
2 *3454:X 0.000171071
3 *2963:A *2993:A0 0.000349686
*RES
1 *3454:X *2993:A0 6.41 
*END

*D_NET *628 0.00107832
*CONN
*I *2564:A1 I *D sky130_fd_sc_hd__mux2_1
*I *3311:X O *D sky130_fd_sc_hd__dlygate4sd3_1
*CAP
1 *2564:A1 0.000384442
2 *3311:X 0.000384442
3 *2564:A1 *764:30 4.9968e-05
4 *2563:A *2564:A1 0
5 *2563:B *2564:A1 2.65814e-06
6 *2564:S *2564:A1 0.000100734
7 *2566:S *2564:A1 9.76003e-05
8 *185:28 *2564:A1 1.18644e-05
9 *343:32 *2564:A1 0
10 *348:44 *2564:A1 4.66108e-05
*RES
1 *3311:X *2564:A1 12.795 
*END

*D_NET *629 0.000351264
*CONN
*I *2622:A1 I *D sky130_fd_sc_hd__mux2_1
*I *3312:X O *D sky130_fd_sc_hd__dlygate4sd3_1
*CAP
1 *2622:A1 7.48151e-05
2 *3312:X 7.48151e-05
3 *2622:S *2622:A1 2.88357e-05
4 *2810:A2 *2622:A1 8.52972e-05
5 *327:33 *2622:A1 3.83194e-05
6 *605:33 *2622:A1 4.9181e-05
*RES
1 *3312:X *2622:A1 5.03 
*END

*D_NET *630 0.00118761
*CONN
*I *2542:A1 I *D sky130_fd_sc_hd__mux2_1
*I *3313:X O *D sky130_fd_sc_hd__dlygate4sd3_1
*CAP
1 *2542:A1 0.00029087
2 *3313:X 0.00029087
3 *2542:A1 *2741:A 0.000605867
*RES
1 *3313:X *2542:A1 8.825 
*END

*D_NET *631 0.0118946
*CONN
*I *2771:B I *D sky130_fd_sc_hd__and3_1
*I *2701:A2 I *D sky130_fd_sc_hd__a31o_1
*I *2779:B I *D sky130_fd_sc_hd__and3_1
*I *2742:A2 I *D sky130_fd_sc_hd__a31o_1
*I *3459:X O *D sky130_fd_sc_hd__clkbuf_2
*CAP
1 *2771:B 3.00804e-05
2 *2701:A2 0.000150012
3 *2779:B 0.000203949
4 *2742:A2 0
5 *3459:X 0.00113286
6 *631:41 0.00111137
7 *631:33 0.00109878
8 *631:20 0.00144415
9 *2771:B *2771:A 1.77665e-05
10 *2779:B *731:56 9.02259e-05
11 *631:20 *2595:A1 2.3228e-05
12 *631:20 *2738:B2 2.6712e-05
13 *631:20 *2960:B 0.00021665
14 *631:20 *2960:C 8.18184e-05
15 *631:20 *684:29 8.69295e-05
16 *631:20 *780:90 0.00169153
17 *631:20 *884:10 8.40213e-05
18 *631:33 *2742:A1 8.53113e-06
19 *631:33 *2771:A 1.83756e-05
20 *631:41 *2771:A 3.05238e-05
21 *631:41 *2772:A 0
22 *2541:A *631:41 8.98033e-05
23 *2542:S *631:41 0.000161693
24 *2544:A0 *2701:A2 0
25 *2621:A *631:20 0.000159528
26 *2624:B *631:20 7.23513e-05
27 *2628:A *631:20 2.46631e-05
28 *2705:C *2701:A2 1.76403e-05
29 *2741:B *631:41 0
30 *2742:A3 *631:20 6.79825e-05
31 *2742:B1 *631:20 1.00762e-05
32 *2742:B1 *631:33 2.25075e-05
33 *2744:B1 *631:20 0.00034752
34 *2745:C *631:41 5.36975e-06
35 *2749:B1 *631:20 0
36 *2753:A *631:20 2.04352e-05
37 *2764:B1 *2701:A2 0
38 *2775:A *631:41 0.000249935
39 *2775:B *631:41 0.000134595
40 *2780:A *631:33 0.000137563
41 *2783:A *631:41 0.000112589
42 *2811:B1 *631:20 0.000236411
43 *174:25 *631:20 3.74875e-06
44 *187:124 *631:20 0.000451399
45 *191:46 *631:41 0.000223045
46 *192:25 *631:41 4.1588e-05
47 *192:40 *2701:A2 3.50033e-05
48 *192:40 *631:41 0.000388074
49 *192:53 *2779:B 4.25589e-05
50 *192:63 *2779:B 3.51807e-07
51 *193:12 *2701:A2 9.47454e-05
52 *193:14 *2701:A2 1.16578e-05
53 *193:132 *2701:A2 4.92284e-05
54 *193:132 *631:41 0.000294135
55 *348:28 *631:20 8.65961e-05
56 *348:91 *631:20 7.37769e-05
57 *352:100 *631:20 0
58 *409:84 *631:20 0.000168621
59 *511:102 *631:41 0
60 *524:12 *631:41 1.44259e-05
61 *528:86 *631:20 2.99921e-05
62 *591:80 *631:20 1.00941e-05
63 *591:86 *631:20 0.000160742
64 *596:33 *631:20 2.01565e-05
65 *596:43 *631:33 3.24463e-05
66 *609:53 *631:41 0.000243999
*RES
1 *3459:X *631:20 36.395 
2 *631:20 *2742:A2 1.6 
3 *631:20 *631:33 8.155 
4 *631:33 *631:41 23.06 
5 *631:41 *2779:B 6.12 
6 *631:41 *2701:A2 6.81 
7 *631:33 *2771:B 2.05 
*END

*D_NET *632 0.00122716
*CONN
*I *3091:A1 I *D sky130_fd_sc_hd__mux2_1
*I *3314:X O *D sky130_fd_sc_hd__dlygate4sd3_1
*CAP
1 *3091:A1 0.000335872
2 *3314:X 0.000335872
3 *3091:A1 *2701:A1 2.67022e-05
4 *3091:A1 *2764:A1 0
5 *3091:A1 *2764:A3 0.000101031
6 *2770:B *3091:A1 0.000192125
7 *193:14 *3091:A1 0.000118294
8 *193:26 *3091:A1 0.000117263
*RES
1 *3314:X *3091:A1 13.485 
*END

*D_NET *633 0.000178545
*CONN
*I *2952:A1 I *D sky130_fd_sc_hd__mux2_1
*I *3315:X O *D sky130_fd_sc_hd__dlygate4sd3_1
*CAP
1 *2952:A1 8.92723e-05
2 *3315:X 8.92723e-05
3 *2952:A1 *2802:B2 0
4 *2944:S *2952:A1 0
5 *2946:A1 *2952:A1 0
6 *2953:A *2952:A1 0
*RES
1 *3315:X *2952:A1 8.58 
*END

*D_NET *634 0.000772601
*CONN
*I *3099:A0 I *D sky130_fd_sc_hd__mux2_1
*I *3316:X O *D sky130_fd_sc_hd__dlygate4sd3_1
*CAP
1 *3099:A0 0.000241448
2 *3316:X 0.000241448
3 *355:127 *3099:A0 8.52972e-05
4 *355:188 *3099:A0 0.000196077
5 *500:10 *3099:A0 8.33066e-06
*RES
1 *3316:X *3099:A0 10.59 
*END

*D_NET *635 0.00123971
*CONN
*I *2607:A1 I *D sky130_fd_sc_hd__mux2_1
*I *3317:X O *D sky130_fd_sc_hd__dlygate4sd3_1
*CAP
1 *2607:A1 0.00032804
2 *3317:X 0.00032804
3 *2607:A1 *3317:A 4.66108e-05
4 *2607:S *2607:A1 0.000523692
5 *563:6 *2607:A1 1.33285e-05
*RES
1 *3317:X *2607:A1 8.825 
*END

*D_NET *636 0.00110535
*CONN
*I *2620:A1 I *D sky130_fd_sc_hd__mux2_1
*I *3318:X O *D sky130_fd_sc_hd__dlygate4sd3_1
*CAP
1 *2620:A1 0.00026287
2 *3318:X 0.00026287
3 *2620:A1 *2587:A1 0.000230567
4 *2620:A1 *2776:A 7.00889e-06
5 *2588:A *2620:A1 6.25365e-05
6 *2620:A0 *2620:A1 0.000279498
*RES
1 *3318:X *2620:A1 9.065 
*END

*D_NET *637 0.000405337
*CONN
*I *2893:A0 I *D sky130_fd_sc_hd__mux2_1
*I *3319:X O *D sky130_fd_sc_hd__dlygate4sd3_1
*CAP
1 *2893:A0 4.64029e-05
2 *3319:X 4.64029e-05
3 *2893:A0 *2806:A1 2.83649e-05
4 *2893:S *2893:A0 8.64421e-05
5 *363:26 *2893:A0 0.000197724
*RES
1 *3319:X *2893:A0 5.03 
*END

*D_NET *638 0.00255002
*CONN
*I *2810:A1 I *D sky130_fd_sc_hd__o21a_1
*I *2627:A1 I *D sky130_fd_sc_hd__mux2_1
*I *3320:X O *D sky130_fd_sc_hd__dlygate4sd3_1
*CAP
1 *2810:A1 0.000373741
2 *2627:A1 9.31998e-05
3 *3320:X 0.000167407
4 *638:8 0.000634348
5 *2627:A1 *2755:C1 0.00017578
6 *2810:A1 *2625:A1 7.98833e-05
7 *2810:A1 *2755:C1 0.000133453
8 *2810:A1 *779:74 1.64056e-05
9 *638:8 *3320:A 2.49909e-05
10 *2622:S *2810:A1 2.98587e-05
11 *2626:A *638:8 4.79712e-05
12 *2627:S *2627:A1 4.99619e-05
13 *2810:A2 *2810:A1 0.000251054
14 *316:37 *2627:A1 0.000115051
15 *316:37 *2810:A1 0.000145857
16 *511:102 *2810:A1 6.72501e-05
17 *605:33 *2627:A1 2.46007e-05
18 *605:33 *2810:A1 9.89939e-05
19 *609:12 *2810:A1 2.02163e-05
*RES
1 *3320:X *638:8 5.43 
2 *638:8 *2627:A1 6.195 
3 *638:8 *2810:A1 12.135 
*END

*D_NET *639 0.00021487
*CONN
*I *2911:A1 I *D sky130_fd_sc_hd__mux2_1
*I *3322:X O *D sky130_fd_sc_hd__dlygate4sd3_1
*CAP
1 *2911:A1 8.81047e-05
2 *3322:X 8.81047e-05
3 *2911:A1 *911:12 3.86607e-05
*RES
1 *3322:X *2911:A1 8.52 
*END

*D_NET *640 0.000260185
*CONN
*I *3034:A1 I *D sky130_fd_sc_hd__mux2_1
*I *3323:X O *D sky130_fd_sc_hd__dlygate4sd3_1
*CAP
1 *3034:A1 0.0001214
2 *3323:X 0.0001214
3 *3034:A1 *2688:A1 1.7386e-05
4 *3034:A1 *3323:A 0
5 *593:63 *3034:A1 0
*RES
1 *3323:X *3034:A1 9.03 
*END

*D_NET *641 0.000508985
*CONN
*I *2944:A1 I *D sky130_fd_sc_hd__mux2_1
*I *3324:X O *D sky130_fd_sc_hd__dlygate4sd3_1
*CAP
1 *2944:A1 0.000162573
2 *3324:X 0.000162573
3 *2802:C1 *2944:A1 3.96737e-05
4 *2944:S *2944:A1 8.65905e-05
5 *2951:A *2944:A1 2.87867e-05
6 *211:65 *2944:A1 2.87867e-05
*RES
1 *3324:X *2944:A1 10.275 
*END

*D_NET *642 0.00905945
*CONN
*I *3265:RESET_B I *D sky130_fd_sc_hd__dfrtp_2
*I *2546:C_N I *D sky130_fd_sc_hd__or3b_4
*I *3128:SET_B I *D sky130_fd_sc_hd__dfstp_1
*I *3135:RESET_B I *D sky130_fd_sc_hd__dfrtp_4
*I *3134:RESET_B I *D sky130_fd_sc_hd__dfrtp_4
*I *3133:RESET_B I *D sky130_fd_sc_hd__dfrtp_1
*I *3131:RESET_B I *D sky130_fd_sc_hd__dfrtp_1
*I *3132:RESET_B I *D sky130_fd_sc_hd__dfrtp_1
*I *3130:RESET_B I *D sky130_fd_sc_hd__dfrtp_2
*I *3266:RESET_B I *D sky130_fd_sc_hd__dfrtp_2
*I *3304:X O *D sky130_fd_sc_hd__clkbuf_4
*CAP
1 *3265:RESET_B 0.000219199
2 *2546:C_N 4.87202e-05
3 *3128:SET_B 0.000538906
4 *3135:RESET_B 5.28684e-05
5 *3134:RESET_B 0.000101689
6 *3133:RESET_B 0.000102618
7 *3131:RESET_B 0
8 *3132:RESET_B 0.000106991
9 *3130:RESET_B 0.000491872
10 *3266:RESET_B 2.83613e-05
11 *3304:X 0.000242859
12 *642:53 0.000269686
13 *642:44 0.00027406
14 *642:34 0.000714399
15 *642:30 0.000335518
16 *642:26 0.00138948
17 *642:20 0.000817354
18 *642:12 0.00017617
19 *642:8 0.000529993
20 *3128:SET_B *2837:A 0.000153669
21 *3128:SET_B *780:6 2.30292e-05
22 *3128:SET_B *784:6 5.97125e-05
23 *3130:RESET_B *775:10 8.5841e-05
24 *3133:RESET_B *775:10 0
25 *3265:RESET_B *3267:D 5.60101e-05
26 *3266:RESET_B *804:10 6.75012e-05
27 *642:8 *675:16 0.000344034
28 *642:12 *3267:D 0.00011099
29 *642:20 *804:10 2.49909e-05
30 *642:26 *2855:B1 8.54595e-05
31 *642:26 *2859:B2 8.48181e-05
32 *642:26 *3267:D 9.64798e-05
33 *642:26 *3268:RESET_B 0.000126487
34 *642:26 *780:69 0
35 *642:53 *775:10 0
36 *2840:B1_N *3128:SET_B 0.000218667
37 *2841:A2 *3133:RESET_B 3.97211e-05
38 *2850:B *3133:RESET_B 2.40101e-05
39 *2851:A *3133:RESET_B 1.63344e-05
40 *2854:A1 *642:26 5.87736e-05
41 *2856:B *642:26 0
42 *2857:A *3128:SET_B 0.000352161
43 *2857:A *642:30 0.000143137
44 *2859:A2_N *642:26 7.4027e-05
45 *3131:D *642:53 0
46 *3132:CLK *3132:RESET_B 0
47 *3132:CLK *642:53 0
48 *3134:CLK *3135:RESET_B 0
49 *3134:CLK *642:34 0
50 *3134:D *3130:RESET_B 0.000202702
51 *3135:D *642:26 0
52 *332:8 *642:26 2.31797e-05
53 *334:40 *3133:RESET_B 0
54 *337:14 *642:26 0
55 *352:94 *2546:C_N 1.47347e-05
56 *352:94 *3266:RESET_B 4.8024e-05
57 *352:94 *642:20 5.33005e-05
58 *352:94 *642:26 3.09164e-05
59 *527:16 *642:26 0
60 *602:14 *642:12 0
61 *602:16 *3135:RESET_B 0
62 *602:16 *642:26 0
63 *602:38 *642:53 0
*RES
1 *3304:X *642:8 6.81 
2 *642:8 *642:12 3.38 
3 *642:12 *3266:RESET_B 1.0875 
4 *642:12 *642:20 1.485 
5 *642:20 *642:26 17.11 
6 *642:26 *642:30 4.175 
7 *642:30 *642:34 3.89 
8 *642:34 *3130:RESET_B 8.7975 
9 *3130:RESET_B *642:44 2 
10 *642:44 *3132:RESET_B 3.635 
11 *642:44 *642:53 2.655 
12 *642:53 *3131:RESET_B 2 
13 *642:53 *3133:RESET_B 3.7775 
14 *642:34 *3134:RESET_B 1.4325 
15 *642:30 *3135:RESET_B 3.125 
16 *642:26 *3128:SET_B 9.4275 
17 *642:20 *2546:C_N 2.395 
18 *642:8 *3265:RESET_B 5.465 
*END

*D_NET *643 0.000280309
*CONN
*I *3024:A1 I *D sky130_fd_sc_hd__mux2_1
*I *3325:X O *D sky130_fd_sc_hd__dlygate4sd3_1
*CAP
1 *3024:A1 0.000113733
2 *3325:X 0.000113733
3 *3024:A0 *3024:A1 2.69153e-05
4 *3025:A *3024:A1 2.59285e-05
*RES
1 *3325:X *3024:A1 8.865 
*END

*D_NET *644 0.000303118
*CONN
*I *3067:A1 I *D sky130_fd_sc_hd__mux2_1
*I *3326:X O *D sky130_fd_sc_hd__dlygate4sd3_1
*CAP
1 *3067:A1 0.000126573
2 *3326:X 0.000126573
3 *3067:A1 *3326:A 3.12683e-05
4 *3067:S *3067:A1 1.87038e-05
*RES
1 *3326:X *3067:A1 4.685 
*END

*D_NET *645 0.000318615
*CONN
*I *2867:A1 I *D sky130_fd_sc_hd__mux2_1
*I *3327:X O *D sky130_fd_sc_hd__dlygate4sd3_1
*CAP
1 *2867:A1 7.88063e-05
2 *3327:X 7.88063e-05
3 *349:119 *2867:A1 0.000161003
*RES
1 *3327:X *2867:A1 4.685 
*END

*D_NET *646 0.00168038
*CONN
*I *3062:A1 I *D sky130_fd_sc_hd__mux2_1
*I *3328:X O *D sky130_fd_sc_hd__dlygate4sd3_1
*CAP
1 *3062:A1 0.000554442
2 *3328:X 0.000554442
3 *3062:A1 *2735:A1 7.03219e-05
4 *3062:S *3062:A1 0.000376555
5 *3065:A *3062:A1 2.69153e-05
6 *3066:B *3062:A1 7.03219e-05
7 *3068:A *3062:A1 2.01935e-05
8 *428:99 *3062:A1 7.18795e-06
*RES
1 *3328:X *3062:A1 14.385 
*END

*D_NET *647 0.000458092
*CONN
*I *3054:A0 I *D sky130_fd_sc_hd__mux2_1
*I *3329:X O *D sky130_fd_sc_hd__dlygate4sd3_1
*CAP
1 *3054:A0 2.75375e-05
2 *3329:X 2.75375e-05
3 *3119:A *3054:A0 0.000201508
4 *430:130 *3054:A0 0.000201508
*RES
1 *3329:X *3054:A0 5.03 
*END

*D_NET *648 0.00105328
*CONN
*I *3009:A0 I *D sky130_fd_sc_hd__mux2_1
*I *3330:X O *D sky130_fd_sc_hd__dlygate4sd3_1
*CAP
1 *3009:A0 0.000283156
2 *3330:X 0.000283156
3 *3009:A0 *2704:A1 0.000252282
4 *2995:A *3009:A0 0.000234685
5 *3221:CLK *3009:A0 0
6 *3221:D *3009:A0 0
*RES
1 *3330:X *3009:A0 12.285 
*END

*D_NET *649 0.000337725
*CONN
*I *2871:A1 I *D sky130_fd_sc_hd__mux2_1
*I *3331:X O *D sky130_fd_sc_hd__dlygate4sd3_1
*CAP
1 *2871:A1 3.22858e-05
2 *3331:X 3.22858e-05
3 *2871:A1 *925:12 8.65961e-05
4 *2871:A0 *2871:A1 0.000164874
5 *2871:S *2871:A1 2.16833e-05
*RES
1 *3331:X *2871:A1 4.685 
*END

*D_NET *650 0.000995606
*CONN
*I *2983:A1 I *D sky130_fd_sc_hd__mux2_1
*I *3333:X O *D sky130_fd_sc_hd__dlygate4sd3_1
*CAP
1 *2983:A1 0.000338637
2 *3333:X 0.000338637
3 *2722:A2 *2983:A1 0.000118527
4 *2722:C1 *2983:A1 3.59997e-05
5 *2981:A1 *2983:A1 8.8266e-05
6 *193:54 *2983:A1 7.55391e-05
7 *397:59 *2983:A1 0
8 *443:122 *2983:A1 0
*RES
1 *3333:X *2983:A1 12.945 
*END

*D_NET *651 0.000366623
*CONN
*I *3011:A0 I *D sky130_fd_sc_hd__mux2_1
*I *3334:X O *D sky130_fd_sc_hd__dlygate4sd3_1
*CAP
1 *3011:A0 0.000107124
2 *3334:X 0.000107124
3 *3011:A0 *3334:A 0.000122337
4 *3011:A1 *3011:A0 3.00381e-05
*RES
1 *3334:X *3011:A0 5.03 
*END

*D_NET *652 0.000303867
*CONN
*I *3072:A0 I *D sky130_fd_sc_hd__mux2_1
*I *3335:X O *D sky130_fd_sc_hd__dlygate4sd3_1
*CAP
1 *3072:A0 0.000113639
2 *3335:X 0.000113639
3 *3072:A1 *3072:A0 3.00381e-05
4 *3072:S *3072:A0 2.11084e-05
5 *488:6 *3072:A0 2.54431e-05
*RES
1 *3335:X *3072:A0 5.03 
*END

*D_NET *653 0.00938751
*CONN
*I *3264:RESET_B I *D sky130_fd_sc_hd__dfrtp_1
*I *3274:RESET_B I *D sky130_fd_sc_hd__dfrtp_2
*I *3276:RESET_B I *D sky130_fd_sc_hd__dfrtp_1
*I *3277:RESET_B I *D sky130_fd_sc_hd__dfrtp_1
*I *3284:RESET_B I *D sky130_fd_sc_hd__dfrtp_1
*I *3136:RESET_B I *D sky130_fd_sc_hd__dfrtp_1
*I *3137:RESET_B I *D sky130_fd_sc_hd__dfrtp_1
*I *3129:RESET_B I *D sky130_fd_sc_hd__dfrtp_1
*I *3286:RESET_B I *D sky130_fd_sc_hd__dfrtp_1
*I *3275:RESET_B I *D sky130_fd_sc_hd__dfrtp_1
*I *3305:X O *D sky130_fd_sc_hd__clkbuf_4
*CAP
1 *3264:RESET_B 0.000670737
2 *3274:RESET_B 0
3 *3276:RESET_B 0
4 *3277:RESET_B 1.961e-05
5 *3284:RESET_B 0.000196467
6 *3136:RESET_B 0
7 *3137:RESET_B 7.81979e-05
8 *3129:RESET_B 0.000479924
9 *3286:RESET_B 0.000215606
10 *3275:RESET_B 0.0001307
11 *3305:X 0
12 *653:58 0.000558122
13 *653:46 0.000378767
14 *653:44 0.000259883
15 *653:40 0.000643285
16 *653:26 0.00104667
17 *653:24 0.000873618
18 *653:22 0.000235035
19 *653:8 0.000515763
20 *653:4 0.00101742
21 *3129:RESET_B *2664:A 0
22 *3137:RESET_B *2664:A 4.76281e-05
23 *3277:RESET_B *2635:A1 4.11729e-05
24 *3284:RESET_B *3359:A 0.000124895
25 *3284:RESET_B *783:8 1.91597e-05
26 *3286:RESET_B *2664:A 0
27 *3286:RESET_B *687:18 0
28 *3286:RESET_B *698:14 4.9253e-06
29 *653:22 *2632:A1 0.000109009
30 *653:24 *2632:A1 0.000183036
31 *653:24 *3305:A 0
32 *653:26 *2826:D_N 0
33 *653:26 *3282:RESET_B 3.86529e-05
34 *653:26 *3305:A 0
35 *653:26 *781:10 0
36 *653:40 *2660:B 0.000136838
37 *653:40 *781:10 0
38 *653:40 *783:8 0
39 *653:44 *2653:A1 0
40 *653:46 *2653:A1 0
41 *653:46 *2664:A 0
42 *2633:A *653:22 4.70256e-05
43 *2633:A *653:24 5.72004e-05
44 *2635:A2 *653:40 0
45 *2635:B1 *3277:RESET_B 2.91561e-06
46 *2635:B1 *653:26 0.000104086
47 *2635:B1 *653:40 5.23362e-05
48 *2659:A *653:26 0
49 *2670:A *653:26 0.000117809
50 *3136:D *653:40 1.08758e-05
51 *3264:CLK *3264:RESET_B 5.13692e-05
52 *3264:D *3264:RESET_B 2.86975e-05
53 *3275:D *3275:RESET_B 6.81599e-05
54 *3275:D *653:8 1.83847e-05
55 *159:36 *653:40 0
56 *310:6 *3284:RESET_B 2.59926e-05
57 *310:6 *653:40 0.00026033
58 *603:30 *3129:RESET_B 0.000150377
59 *603:39 *3129:RESET_B 0.000139265
60 *603:39 *3137:RESET_B 0.000227561
*RES
1 *3305:X *653:4 1.6 
2 *653:4 *653:8 3.915 
3 *653:8 *3275:RESET_B 1.8975 
4 *653:8 *653:22 3.38 
5 *653:22 *653:24 4.185 
6 *653:24 *653:26 12.09 
7 *653:26 *653:40 9.575 
8 *653:40 *653:44 3.38 
9 *653:44 *653:46 2.655 
10 *653:46 *3286:RESET_B 4.7225 
11 *653:46 *653:58 2 
12 *653:58 *3129:RESET_B 6.9975 
13 *653:58 *3137:RESET_B 2.1225 
14 *653:44 *3136:RESET_B 2 
15 *653:40 *3284:RESET_B 3.1575 
16 *653:26 *3277:RESET_B 2.3975 
17 *653:24 *3276:RESET_B 2 
18 *653:22 *3274:RESET_B 2 
19 *653:4 *3264:RESET_B 9.3675 
*END

*D_NET *654 0.000368478
*CONN
*I *2909:A1 I *D sky130_fd_sc_hd__mux2_1
*I *3336:X O *D sky130_fd_sc_hd__dlygate4sd3_1
*CAP
1 *2909:A1 0.000102852
2 *3336:X 0.000102852
3 *2911:S *2909:A1 8.77498e-05
4 *383:12 *2909:A1 7.50252e-05
*RES
1 *3336:X *2909:A1 4.685 
*END

*D_NET *655 0.000136357
*CONN
*I *3036:A1 I *D sky130_fd_sc_hd__mux2_1
*I *3337:X O *D sky130_fd_sc_hd__dlygate4sd3_1
*CAP
1 *3036:A1 2.76428e-05
2 *3337:X 2.76428e-05
3 *3027:A *3036:A1 4.05358e-05
4 *3191:D *3036:A1 4.05358e-05
*RES
1 *3337:X *3036:A1 8.07 
*END

*D_NET *656 0.000324674
*CONN
*I *2579:A1 I *D sky130_fd_sc_hd__mux2_1
*I *3338:X O *D sky130_fd_sc_hd__dlygate4sd3_1
*CAP
1 *2579:A1 3.87945e-05
2 *3338:X 3.87945e-05
3 *358:16 *2579:A1 9.03066e-05
4 *511:14 *2579:A1 0.000156778
*RES
1 *3338:X *2579:A1 4.685 
*END

*D_NET *657 0.00136756
*CONN
*I *2576:A1 I *D sky130_fd_sc_hd__mux2_1
*I *3339:X O *D sky130_fd_sc_hd__dlygate4sd3_1
*CAP
1 *2576:A1 0.000188618
2 *3339:X 0.000188618
3 *2576:A1 *2797:A1 0.000137578
4 *2576:A1 *3339:A 0.00029989
5 *2576:A1 *818:14 2.75145e-05
6 *2576:A1 *819:14 0
7 *2557:A *2576:A1 0.000320605
8 *2576:S *2576:A1 4.66742e-05
9 *511:40 *2576:A1 0.000158066
10 *532:14 *2576:A1 0
*RES
1 *3339:X *2576:A1 13.575 
*END

*D_NET *658 0.000257441
*CONN
*I *2574:A1 I *D sky130_fd_sc_hd__mux2_1
*I *3340:X O *D sky130_fd_sc_hd__dlygate4sd3_1
*CAP
1 *2574:A1 3.936e-05
2 *3340:X 3.936e-05
3 *2574:A1 *2554:A1 2.96334e-05
4 *2574:S *2574:A1 4.99619e-05
5 *511:22 *2574:A1 9.91257e-05
*RES
1 *3340:X *2574:A1 4.685 
*END

*D_NET *659 0.000352997
*CONN
*I *3052:A0 I *D sky130_fd_sc_hd__mux2_1
*I *3341:X O *D sky130_fd_sc_hd__dlygate4sd3_1
*CAP
1 *3052:A0 0.000106936
2 *3341:X 0.000106936
3 *3052:A0 *3329:A 8.53113e-06
4 *3052:S *3052:A0 3.23391e-05
5 *430:86 *3052:A0 0
6 *440:26 *3052:A0 4.99619e-05
7 *440:42 *3052:A0 4.82919e-05
*RES
1 *3341:X *3052:A0 8.865 
*END

*D_NET *660 0.00122394
*CONN
*I *2950:A1 I *D sky130_fd_sc_hd__mux2_1
*I *3342:X O *D sky130_fd_sc_hd__dlygate4sd3_1
*CAP
1 *2950:A1 0.000412847
2 *3342:X 0.000412847
3 *2950:A1 *2802:B2 6.03947e-06
4 *2802:A2 *2950:A1 0.000133407
5 *2802:B1 *2950:A1 4.12473e-05
6 *2802:C1 *2950:A1 9.66106e-05
7 *185:28 *2950:A1 5.61788e-05
8 *405:66 *2950:A1 6.47594e-05
*RES
1 *3342:X *2950:A1 13.35 
*END

*D_NET *661 0.000281468
*CONN
*I *2595:A1 I *D sky130_fd_sc_hd__mux2_1
*I *3344:X O *D sky130_fd_sc_hd__dlygate4sd3_1
*CAP
1 *2595:A1 3.72643e-05
2 *3344:X 3.72643e-05
3 *2595:A1 *2738:B2 0.000112087
4 *2811:B1 *2595:A1 7.1624e-05
5 *631:20 *2595:A1 2.3228e-05
*RES
1 *3344:X *2595:A1 8.58 
*END

*D_NET *662 0.000344889
*CONN
*I *2549:A1 I *D sky130_fd_sc_hd__mux2_1
*I *3345:X O *D sky130_fd_sc_hd__dlygate4sd3_1
*CAP
1 *2549:A1 0.000140911
2 *3345:X 0.000140911
3 *500:119 *2549:A1 3.89366e-05
4 *511:55 *2549:A1 2.41307e-05
*RES
1 *3345:X *2549:A1 9.21 
*END

*D_NET *663 0.000222775
*CONN
*I *2956:A1 I *D sky130_fd_sc_hd__mux2_1
*I *3346:X O *D sky130_fd_sc_hd__dlygate4sd3_1
*CAP
1 *2956:A1 7.17892e-05
2 *3346:X 7.17892e-05
3 *349:92 *2956:A1 4.05358e-05
4 *356:103 *2956:A1 3.86607e-05
*RES
1 *3346:X *2956:A1 8.52 
*END

*D_NET *664 0.00634759
*CONN
*I *3279:RESET_B I *D sky130_fd_sc_hd__dfrtp_1
*I *3278:RESET_B I *D sky130_fd_sc_hd__dfrtp_1
*I *3283:RESET_B I *D sky130_fd_sc_hd__dfrtp_4
*I *3281:RESET_B I *D sky130_fd_sc_hd__dfrtp_2
*I *3282:RESET_B I *D sky130_fd_sc_hd__dfrtp_2
*I *3306:X O *D sky130_fd_sc_hd__clkbuf_2
*CAP
1 *3279:RESET_B 0.000259633
2 *3278:RESET_B 2.30764e-05
3 *3283:RESET_B 0.000196447
4 *3281:RESET_B 6.06614e-06
5 *3282:RESET_B 8.44968e-05
6 *3306:X 6.22102e-05
7 *664:54 0.000406596
8 *664:42 0.000388231
9 *664:32 0.00103749
10 *664:6 0.00111024
11 *3279:RESET_B *3279:D 0.000130472
12 *3283:RESET_B *2666:A1 2.88322e-05
13 *3283:RESET_B *3281:D 9.54399e-05
14 *3283:RESET_B *800:12 0.000175147
15 *664:6 *3305:A 8.40213e-05
16 *664:32 *3305:A 0.000311294
17 *664:32 *798:6 2.93517e-05
18 *664:54 *3281:D 8.53113e-06
19 *664:54 *3332:A 1.44177e-05
20 *2637:A *3283:RESET_B 0.000142807
21 *2637:A *664:54 0.000126407
22 *2638:B2 *3279:RESET_B 0.000181376
23 *2638:B2 *664:54 0.000116853
24 *2640:S *3279:RESET_B 0.000175207
25 *2640:S *3281:RESET_B 1.45393e-05
26 *2640:S *664:32 0.000320543
27 *2640:S *664:42 3.07153e-05
28 *2640:S *664:54 0.000293726
29 *2658:A *664:32 1.17309e-05
30 *2658:B *664:32 2.49909e-05
31 *2658:C_N *664:32 6.17614e-05
32 *2665:B1 *664:32 0.000128545
33 *2666:B1 *3283:RESET_B 9.12857e-06
34 *2670:A *3282:RESET_B 7.23533e-05
35 *3278:CLK *3278:RESET_B 4.11729e-05
36 *3279:CLK *3279:RESET_B 8.63479e-05
37 *603:86 *3283:RESET_B 1.87432e-05
38 *653:26 *3282:RESET_B 3.86529e-05
*RES
1 *3306:X *664:6 2.395 
2 *664:6 *3282:RESET_B 5.6275 
3 *664:6 *664:32 14.835 
4 *664:32 *3281:RESET_B 0.3975 
5 *664:32 *664:42 3.14 
6 *664:42 *3283:RESET_B 6.9275 
7 *664:42 *664:54 4.44 
8 *664:54 *3278:RESET_B 2.3975 
9 *664:54 *3279:RESET_B 8.3525 
*END

*D_NET *665 0.00145392
*CONN
*I *3044:A1 I *D sky130_fd_sc_hd__mux2_1
*I *3347:X O *D sky130_fd_sc_hd__dlygate4sd3_1
*CAP
1 *3044:A1 0.000450107
2 *3347:X 0.000450107
3 *3044:A1 *742:45 7.30845e-05
4 *2758:C1 *3044:A1 0.000268739
5 *2759:C1 *3044:A1 0
6 *3027:A *3044:A1 6.55267e-05
7 *3044:S *3044:A1 9.63964e-05
8 *3191:D *3044:A1 4.99619e-05
*RES
1 *3347:X *3044:A1 15.105 
*END

*D_NET *666 0.000251798
*CONN
*I *2556:A1 I *D sky130_fd_sc_hd__mux2_1
*I *3348:X O *D sky130_fd_sc_hd__dlygate4sd3_1
*CAP
1 *2556:A1 8.97187e-05
2 *3348:X 8.97187e-05
3 *2556:A1 *819:14 7.23602e-05
*RES
1 *3348:X *2556:A1 8.52 
*END

*D_NET *667 0.000306295
*CONN
*I *3039:A1 I *D sky130_fd_sc_hd__mux2_1
*I *3349:X O *D sky130_fd_sc_hd__dlygate4sd3_1
*CAP
1 *3039:A1 0.000142593
2 *3349:X 0.000142593
3 *3039:A0 *3039:A1 2.11084e-05
*RES
1 *3349:X *3039:A1 5.375 
*END

*D_NET *668 0.000458421
*CONN
*I *2833:A0 I *D sky130_fd_sc_hd__mux2_1
*I *3350:X O *D sky130_fd_sc_hd__dlygate4sd3_1
*CAP
1 *2833:A0 5.19925e-05
2 *3350:X 5.19925e-05
3 *2833:A0 *3350:A 0.00019637
4 *2833:A1 *2833:A0 0.000158066
*RES
1 *3350:X *2833:A0 5.03 
*END

*D_NET *669 0.000608619
*CONN
*I *2559:A1 I *D sky130_fd_sc_hd__mux2_1
*I *3351:X O *D sky130_fd_sc_hd__dlygate4sd3_1
*CAP
1 *2559:A1 0.000254368
2 *3351:X 0.000254368
3 *2559:A1 *2799:A1 9.98831e-05
4 *532:14 *2559:A1 0
*RES
1 *3351:X *2559:A1 10.515 
*END

*D_NET *670 0.000313658
*CONN
*I *2958:A1 I *D sky130_fd_sc_hd__mux2_1
*I *3352:X O *D sky130_fd_sc_hd__dlygate4sd3_1
*CAP
1 *2958:A1 2.61107e-05
2 *3352:X 2.61107e-05
3 *2958:A1 *893:8 9.91257e-05
4 *356:118 *2958:A1 0.000162311
*RES
1 *3352:X *2958:A1 4.685 
*END

*D_NET *671 0.000993667
*CONN
*I *3041:A1 I *D sky130_fd_sc_hd__mux2_1
*I *3353:X O *D sky130_fd_sc_hd__dlygate4sd3_1
*CAP
1 *3041:A1 0.00034529
2 *3353:X 0.00034529
3 *3041:A0 *3041:A1 0.000204026
4 *187:83 *3041:A1 2.67022e-05
5 *443:56 *3041:A1 7.23602e-05
*RES
1 *3353:X *3041:A1 11.97 
*END

*D_NET *672 0.000876287
*CONN
*I *2605:A1 I *D sky130_fd_sc_hd__mux2_1
*I *3355:X O *D sky130_fd_sc_hd__dlygate4sd3_1
*CAP
1 *2605:A1 0.000181245
2 *3355:X 0.000181245
3 *2605:A1 *2908:B_N 8.83758e-05
4 *2605:A1 *898:8 2.88357e-05
5 *2811:A3 *2605:A1 2.39856e-05
6 *316:80 *2605:A1 0.000195457
7 *374:45 *2605:A1 0.000177142
*RES
1 *3355:X *2605:A1 11.865 
*END

*D_NET *673 0.00131806
*CONN
*I *2554:A1 I *D sky130_fd_sc_hd__mux2_1
*I *3356:X O *D sky130_fd_sc_hd__dlygate4sd3_1
*CAP
1 *2554:A1 0.000429409
2 *3356:X 0.000429409
3 *2554:A1 *812:12 2.66935e-05
4 *2574:A1 *2554:A1 2.96334e-05
5 *2574:S *2554:A1 0.000138175
6 *2575:A *2554:A1 0.000183442
7 *2576:S *2554:A1 8.12958e-05
*RES
1 *3356:X *2554:A1 13.62 
*END

*D_NET *674 0.000297047
*CONN
*I *2881:A1 I *D sky130_fd_sc_hd__mux2_1
*I *3357:X O *D sky130_fd_sc_hd__dlygate4sd3_1
*CAP
1 *2881:A1 0.000123543
2 *3357:X 0.000123543
3 *2881:A1 *3357:A 0
4 *2881:A0 *2881:A1 4.99619e-05
*RES
1 *3357:X *2881:A1 8.865 
*END

*D_NET *675 0.00670787
*CONN
*I *3304:A I *D sky130_fd_sc_hd__clkbuf_4
*I *3268:RESET_B I *D sky130_fd_sc_hd__dfrtp_4
*I *3267:RESET_B I *D sky130_fd_sc_hd__dfrtp_2
*I *3305:A I *D sky130_fd_sc_hd__clkbuf_4
*I *3306:A I *D sky130_fd_sc_hd__clkbuf_2
*I *3271:RESET_B I *D sky130_fd_sc_hd__dfrtp_1
*I *3307:X O *D sky130_fd_sc_hd__clkbuf_2
*CAP
1 *3304:A 0
2 *3268:RESET_B 0.000118093
3 *3267:RESET_B 0.000130806
4 *3305:A 0.000529164
5 *3306:A 0
6 *3271:RESET_B 0.000870747
7 *3307:X 0.00016687
8 *675:39 0.00073721
9 *675:31 0.000379137
10 *675:16 0.00089801
11 *675:12 0.000352512
12 *3267:RESET_B *3267:D 5.83121e-06
13 *3268:RESET_B *3267:D 0.000354309
14 *3271:RESET_B *937:10 3.07153e-05
15 *3305:A *3271:D 2.50602e-05
16 *3305:A *801:10 5.13155e-05
17 *675:12 *3265:D 0
18 *675:16 *3267:D 9.0009e-05
19 *675:39 *3271:D 5.33172e-05
20 *2633:A *3305:A 7.33465e-05
21 *2658:C_N *3305:A 4.00541e-06
22 *2659:A *3305:A 5.56629e-05
23 *2670:A *3305:A 0.000123225
24 *3266:CLK *675:12 0.000139245
25 *3271:CLK *675:31 1.82499e-06
26 *3271:CLK *675:39 0.000164352
27 *163:8 *3305:A 1.43521e-05
28 *163:27 *3305:A 0.000135667
29 *211:32 *3267:RESET_B 7.40482e-06
30 *211:32 *3271:RESET_B 3.14522e-05
31 *211:32 *675:12 7.47457e-05
32 *211:32 *675:16 9.79383e-05
33 *322:24 *3305:A 0
34 *322:48 *675:12 0
35 *352:94 *3268:RESET_B 4.91927e-05
36 *369:18 *675:12 7.65181e-05
37 *642:8 *675:16 0.000344034
38 *642:26 *3268:RESET_B 0.000126487
39 *653:24 *3305:A 0
40 *653:26 *3305:A 0
41 *664:6 *3305:A 8.40213e-05
42 *664:32 *3305:A 0.000311294
*RES
1 *3307:X *675:12 9.32 
2 *675:12 *675:16 4.95 
3 *675:16 *3271:RESET_B 9.0375 
4 *3271:RESET_B *675:31 2.3775 
5 *675:31 *675:39 3.9 
6 *675:39 *3306:A 1.6 
7 *675:39 *3305:A 17.87 
8 *675:16 *3267:RESET_B 0.3975 
9 *3267:RESET_B *3268:RESET_B 8.185 
10 *675:12 *3304:A 1.6 
*END

*D_NET *676 0.000370321
*CONN
*I *2883:A1 I *D sky130_fd_sc_hd__mux2_1
*I *3358:X O *D sky130_fd_sc_hd__dlygate4sd3_1
*CAP
1 *2883:A1 8.58612e-05
2 *3358:X 8.58612e-05
3 *2883:A1 *3357:A 4.05358e-05
4 *349:77 *2883:A1 8.57024e-05
5 *356:97 *2883:A1 7.23602e-05
*RES
1 *3358:X *2883:A1 8.865 
*END

*D_NET *677 0.00188475
*CONN
*I *2660:B I *D sky130_fd_sc_hd__or2_1
*I *3359:X O *D sky130_fd_sc_hd__dlygate4sd3_1
*CAP
1 *2660:B 0.000538151
2 *3359:X 0.000538151
3 *2660:B *3354:A 0.000246586
4 *2660:B *785:32 0.000225189
5 *3129:D *2660:B 0
6 *3136:D *2660:B 0.000199833
7 *653:40 *2660:B 0.000136838
*RES
1 *3359:X *2660:B 16.56 
*END

*D_NET *678 0.000314408
*CONN
*I *2640:A0 I *D sky130_fd_sc_hd__mux2_1
*I *3360:X O *D sky130_fd_sc_hd__dlygate4sd3_1
*CAP
1 *2640:A0 6.35082e-05
2 *3360:X 6.35082e-05
3 *2640:A1 *2640:A0 9.91257e-05
4 *2640:S *2640:A0 8.8266e-05
*RES
1 *3360:X *2640:A0 5.03 
*END

*D_NET *679 0.000526147
*CONN
*I *2669:A I *D sky130_fd_sc_hd__and2_1
*I *3361:X O *D sky130_fd_sc_hd__dlygate4sd3_1
*CAP
1 *2669:A 0.000263073
2 *3361:X 0.000263073
*RES
1 *3361:X *2669:A 10.41 
*END

*D_NET *680 0.00738485
*CONN
*I *2908:B_N I *D sky130_fd_sc_hd__or2b_1
*I *3457:X O *D sky130_fd_sc_hd__clkbuf_1
*CAP
1 *2908:B_N 0.00171537
2 *3457:X 0.00171537
3 *2908:B_N *2796:A1 0.00015705
4 *2908:B_N *3317:A 0.000199303
5 *2908:B_N *916:8 2.75145e-05
6 *2605:A1 *2908:B_N 8.83758e-05
7 *2811:A3 *2908:B_N 2.36768e-05
8 *2876:A *2908:B_N 0.00013061
9 *2908:A *2908:B_N 0.000104933
10 *3146:CLK *2908:B_N 8.52883e-05
11 *3146:D *2908:B_N 1.95718e-05
12 *3254:D *2908:B_N 3.99855e-05
13 *207:80 *2908:B_N 0.000914341
14 *208:18 *2908:B_N 0.000152236
15 *208:104 *2908:B_N 1.17701e-05
16 *215:54 *2908:B_N 0.000318012
17 *215:79 *2908:B_N 0.000271847
18 *215:100 *2908:B_N 0.000924174
19 *316:80 *2908:B_N 7.6949e-05
20 *316:82 *2908:B_N 0.000179686
21 *322:104 *2908:B_N 7.21296e-06
22 *343:66 *2908:B_N 7.21296e-06
23 *348:44 *2908:B_N 2.65814e-06
24 *366:20 *2908:B_N 4.75576e-05
25 *374:45 *2908:B_N 3.1017e-05
26 *601:109 *2908:B_N 0.000133125
*RES
1 *3457:X *2908:B_N 49.105 
*END

*D_NET *681 0.0134739
*CONN
*I *3463:A I *D sky130_fd_sc_hd__clkbuf_2
*I *2725:B1 I *D sky130_fd_sc_hd__a22o_1
*I *2805:B1 I *D sky130_fd_sc_hd__a22o_1
*I *3469:X O *D sky130_fd_sc_hd__dlymetal6s2s_1
*CAP
1 *3463:A 0.000360079
2 *2725:B1 0.00016247
3 *2805:B1 0
4 *3469:X 0
5 *681:18 0.00325566
6 *681:4 0.00345327
7 *2725:B1 *2725:B2 5.53249e-06
8 *2725:B1 *3394:A 1.82563e-05
9 *3463:A *3307:A 8.52757e-05
10 *3463:A *684:8 2.77283e-05
11 *681:18 *3307:A 4.30926e-05
12 *2725:A2 *2725:B1 0.000122177
13 *2725:A2 *681:18 6.63219e-06
14 *2925:B *681:18 0.00388037
15 *2931:B *681:18 0.0012832
16 *2987:A *3463:A 0
17 *3176:D *3463:A 4.99619e-05
18 *3176:D *681:18 8.36872e-05
19 *3308:A *681:18 0.0001458
20 *3469:A *681:18 6.82274e-05
21 *181:106 *681:18 0.000132195
22 *321:16 *681:18 5.05716e-06
23 *372:78 *2725:B1 0.000254045
24 *372:78 *681:18 2.10433e-05
25 *591:16 *681:18 1.00909e-05
*RES
1 *3469:X *681:4 1.6 
2 *681:4 *681:18 13.2036 
3 *681:18 *2805:B1 3.6 
4 *681:18 *2725:B1 7.53 
5 *681:4 *3463:A 6.895 
*END

*D_NET *682 0.0127506
*CONN
*I *3465:A I *D sky130_fd_sc_hd__clkbuf_2
*I *2804:A2 I *D sky130_fd_sc_hd__a221o_1
*I *2728:A2 I *D sky130_fd_sc_hd__a22o_1
*I *3460:X O *D sky130_fd_sc_hd__dlymetal6s2s_1
*CAP
1 *3465:A 0
2 *2804:A2 0
3 *2728:A2 0.000573203
4 *3460:X 0.000821787
5 *682:22 0.00250319
6 *682:12 0.00275178
7 *2728:A2 *2806:A1 5.12942e-05
8 *2728:A2 *2806:B2 0.000113222
9 *2728:A2 *764:64 0
10 *2728:A2 *903:8 0.00025768
11 *682:12 *3307:A 0
12 *682:12 *3393:A 0.000179557
13 *682:12 *753:29 9.12573e-05
14 *682:22 *2751:A 0.000194148
15 *682:22 *2804:B2 7.25921e-06
16 *682:22 *753:29 1.63175e-05
17 *682:22 *903:8 5.36024e-05
18 *682:22 *924:6 0.0001947
19 *2603:A *682:12 3.96269e-05
20 *2726:A2 *2728:A2 0.000295984
21 *2726:A2 *682:22 0.000103179
22 *2728:B1 *2728:A2 0.000140552
23 *2732:A3 *2728:A2 0.0001142
24 *2755:B2 *682:12 0
25 *2809:A1 *2728:A2 8.41384e-05
26 *2877:S *682:22 9.85616e-06
27 *2902:A *682:12 5.06607e-05
28 *2932:A0 *2728:A2 0.000327822
29 *2932:A1 *2728:A2 7.23533e-05
30 *2932:S *2728:A2 6.16894e-05
31 *3140:CLK *682:22 8.62313e-05
32 *3140:D *682:22 0.000269018
33 *3253:D *682:12 0.000173938
34 *181:10 *682:12 7.90546e-05
35 *181:106 *682:12 8.49357e-05
36 *197:70 *682:12 7.42979e-05
37 *321:16 *682:12 1.53032e-05
38 *327:81 *682:12 0.000107073
39 *327:91 *682:12 5.91496e-05
40 *349:38 *2728:A2 6.28849e-05
41 *349:38 *682:22 6.05667e-05
42 *349:67 *2728:A2 4.66108e-05
43 *356:67 *682:12 0.000407823
44 *356:67 *682:22 0.000672305
45 *356:79 *682:22 0.000785442
46 *366:43 *2728:A2 1.19928e-05
47 *405:66 *2728:A2 5.87711e-05
48 *409:84 *682:12 0.00054578
49 *591:16 *682:22 1.77595e-05
50 *607:84 *682:22 2.25595e-05
*RES
1 *3460:X *682:12 25.67 
2 *682:12 *682:22 29.0625 
3 *682:22 *2728:A2 20.5175 
4 *682:22 *2804:A2 1.6 
5 *682:12 *3465:A 1.6 
*END

*D_NET *683 0.00361635
*CONN
*I *3468:A I *D sky130_fd_sc_hd__clkbuf_2
*I *3461:X O *D sky130_fd_sc_hd__clkbuf_1
*CAP
1 *3468:A 0.000983546
2 *3461:X 0.000983546
3 *2697:B *3468:A 0.000346869
4 *3462:A *3468:A 0.000386226
5 *3470:A *3468:A 8.82557e-05
6 *171:29 *3468:A 0.000344924
7 *179:24 *3468:A 9.80943e-06
8 *179:26 *3468:A 1.91597e-05
9 *180:28 *3468:A 0.000226192
10 *207:28 *3468:A 5.55258e-05
11 *348:44 *3468:A 8.65961e-05
12 *397:18 *3468:A 8.57024e-05
*RES
1 *3461:X *3468:A 18.95 
*END

*D_NET *684 0.0178224
*CONN
*I *2960:C I *D sky130_fd_sc_hd__nand3b_4
*I *3269:RESET_B I *D sky130_fd_sc_hd__dfrtp_1
*I *3273:RESET_B I *D sky130_fd_sc_hd__dfrtp_1
*I *3285:SET_B I *D sky130_fd_sc_hd__dfstp_1
*I *3280:RESET_B I *D sky130_fd_sc_hd__dfrtp_1
*I *3272:RESET_B I *D sky130_fd_sc_hd__dfrtp_1
*I *3270:RESET_B I *D sky130_fd_sc_hd__dfrtp_1
*I *3048:B I *D sky130_fd_sc_hd__nand3b_4
*I *2825:C I *D sky130_fd_sc_hd__nand3_4
*I *3307:A I *D sky130_fd_sc_hd__clkbuf_2
*I *3308:X O *D sky130_fd_sc_hd__buf_4
*CAP
1 *2960:C 7.93514e-05
2 *3269:RESET_B 9.86062e-05
3 *3273:RESET_B 4.3004e-05
4 *3285:SET_B 0.000363223
5 *3280:RESET_B 0.000961858
6 *3272:RESET_B 1.33538e-05
7 *3270:RESET_B 0.00106647
8 *3048:B 0
9 *2825:C 0
10 *3307:A 0.00205485
11 *3308:X 9.17665e-05
12 *684:98 0.00109817
13 *684:90 0.00159566
14 *684:71 0.000653481
15 *684:44 0.000675735
16 *684:31 0.00012086
17 *684:29 0.000171806
18 *684:8 0.00223907
19 *3269:RESET_B *808:10 3.39064e-05
20 *3273:RESET_B *2643:B 2.49909e-05
21 *3280:RESET_B *2642:A 1.9872e-05
22 *3285:SET_B *2636:A 0.000107418
23 *3285:SET_B *2646:A0 0.000176918
24 *3307:A *2686:D_N 0
25 *3307:A *3423:A 4.69244e-05
26 *3307:A *720:18 3.86529e-05
27 *684:44 *2825:A 9.4174e-05
28 *684:44 *2825:B 0.000110805
29 *684:44 *780:94 4.66108e-05
30 *684:71 *2748:A 0.000481547
31 *684:71 *2748:C 0.000232171
32 *684:71 *2825:A 0.000201013
33 *684:90 *2585:A1 0.000167724
34 *684:90 *2748:A 5.20968e-05
35 *684:90 *3414:A 0.000105841
36 *684:90 *808:10 3.00381e-05
37 *684:90 *933:10 6.73665e-05
38 *684:98 *2643:B 0.000183612
39 *2586:A *684:90 0
40 *2640:S *3285:SET_B 0
41 *2748:B *684:71 4.66826e-05
42 *2749:B1 *2960:C 0.000140912
43 *2749:B1 *684:44 0.000309705
44 *2749:B1 *684:71 0.000167715
45 *2755:B2 *3307:A 0.000841899
46 *2936:B *3307:A 0
47 *3280:CLK *3280:RESET_B 0.000185262
48 *3280:D *3285:SET_B 0
49 *3308:A *684:29 0.000145901
50 *3463:A *3307:A 8.52757e-05
51 *3463:A *684:8 2.77283e-05
52 *3469:A *3307:A 2.10214e-05
53 *171:79 *3307:A 9.70174e-05
54 *174:10 *3269:RESET_B 4.24575e-05
55 *181:10 *3307:A 0.000619582
56 *181:106 *3307:A 8.86009e-05
57 *183:52 *3307:A 0.000564172
58 *187:10 *3307:A 0.000182372
59 *317:99 *3307:A 0
60 *322:48 *3307:A 0
61 *352:100 *2960:C 3.4087e-05
62 *352:100 *684:29 6.26202e-05
63 *356:49 *3307:A 0
64 *389:12 *3307:A 0
65 *389:63 *3307:A 0.000128231
66 *409:12 *3307:A 0.000218623
67 *409:84 *3307:A 2.77384e-05
68 *511:102 *3269:RESET_B 0
69 *511:102 *684:71 0
70 *596:54 *3269:RESET_B 2.40101e-05
71 *631:20 *2960:C 8.18184e-05
72 *631:20 *684:29 8.69295e-05
73 *681:18 *3307:A 4.30926e-05
74 *682:12 *3307:A 0
*RES
1 *3308:X *684:8 3.01 
2 *684:8 *3307:A 43.22 
3 *684:8 *684:29 4.655 
4 *684:29 *684:31 2 
5 *684:31 *2825:C 1.6 
6 *684:31 *684:44 4.035 
7 *684:44 *3048:B 1.6 
8 *684:44 *684:71 15.515 
9 *684:71 *3270:RESET_B 2 
10 *3270:RESET_B *684:90 22.6025 
11 *684:90 *684:98 8.915 
12 *684:98 *3272:RESET_B 0.3975 
13 *684:98 *3280:RESET_B 8.2275 
14 *3280:RESET_B *3285:SET_B 10.7575 
15 *684:90 *3273:RESET_B 2.7575 
16 *684:71 *3269:RESET_B 4.0325 
17 *684:29 *2960:C 6 
*END

*D_NET *685 0.00428615
*CONN
*I *2755:C1 I *D sky130_fd_sc_hd__o221a_1
*I *3276:D I *D sky130_fd_sc_hd__dfrtp_1
*I *3309:X O *D sky130_fd_sc_hd__dlygate4sd3_1
*CAP
1 *2755:C1 0.000807931
2 *3276:D 0.000124899
3 *3309:X 0
4 *685:4 0.00093283
5 *2755:C1 *3310:A 3.83194e-05
6 *2755:C1 *779:59 0
7 *2755:C1 *779:74 0.000109025
8 *2626:A *2755:C1 4.6075e-05
9 *2627:A1 *2755:C1 0.00017578
10 *2755:B1 *2755:C1 2.11806e-05
11 *2810:A1 *2755:C1 0.000133453
12 *3273:D *2755:C1 3.59784e-05
13 *3274:CLK *2755:C1 0.000204463
14 *3275:CLK *2755:C1 0
15 *3276:CLK *3276:D 2.75145e-05
16 *316:37 *2755:C1 0.000119873
17 *511:12 *2755:C1 0.000945351
18 *511:102 *2755:C1 0.000406111
19 *603:10 *2755:C1 9.54399e-05
20 *605:33 *2755:C1 6.19247e-05
*RES
1 *3309:X *685:4 1.6 
2 *685:4 *3276:D 3.445 
3 *685:4 *2755:C1 29.79 
*END

*D_NET *686 0.00164491
*CONN
*I *3267:D I *D sky130_fd_sc_hd__dfrtp_2
*I *3367:X O *D sky130_fd_sc_hd__dlygate4sd3_1
*CAP
1 *3267:D 0.000375224
2 *3367:X 0.000375224
3 *3267:D *3268:D 9.08126e-05
4 *3265:RESET_B *3267:D 5.60101e-05
5 *3267:RESET_B *3267:D 5.83121e-06
6 *3268:RESET_B *3267:D 0.000354309
7 *211:32 *3267:D 9.00196e-05
8 *352:94 *3267:D 0
9 *602:14 *3267:D 0
10 *602:16 *3267:D 0
11 *642:12 *3267:D 0.00011099
12 *642:26 *3267:D 9.64798e-05
13 *675:16 *3267:D 9.0009e-05
*RES
1 *3367:X *3267:D 16.44 
*END

*D_NET *687 0.00403279
*CONN
*I *2652:A_N I *D sky130_fd_sc_hd__and4bb_1
*I *2662:B I *D sky130_fd_sc_hd__and3b_1
*I *3456:X O *D sky130_fd_sc_hd__buf_1
*CAP
1 *2652:A_N 0
2 *2662:B 0.00024521
3 *3456:X 0.0010709
4 *687:18 0.00131611
5 *2662:B *2649:B 0.000155949
6 *687:18 *2650:A 0.000155489
7 *687:18 *2651:B 4.66108e-05
8 *687:18 *2652:B_N 6.97024e-05
9 *687:18 *2653:A1 0.000486316
10 *687:18 *2664:A 9.06181e-05
11 *687:18 *2816:A2 0
12 *2653:B1 *687:18 9.63589e-05
13 *2663:A *2662:B 0.000181285
14 *3284:D *687:18 0
15 *3286:D *687:18 0
16 *3286:RESET_B *687:18 0
17 *10:10 *2662:B 8.30853e-06
18 *11:57 *687:18 0
19 *158:12 *687:18 9.37846e-05
20 *159:12 *687:18 1.61461e-05
*RES
1 *3456:X *687:18 24.56 
2 *687:18 *2662:B 10.43 
3 *687:18 *2652:A_N 1.6 
*END

*D_NET *688 0.00223236
*CONN
*I *2638:C1 I *D sky130_fd_sc_hd__a221o_1
*I *2629:A I *D sky130_fd_sc_hd__clkbuf_1
*I *3378:X O *D sky130_fd_sc_hd__dlygate4sd3_1
*CAP
1 *2638:C1 0.000450284
2 *2629:A 0.000132023
3 *3378:X 0.000140364
4 *688:8 0.000722671
5 *2629:A *792:10 0.000139933
6 *2638:C1 *2638:B1 0.000303322
7 *2638:C1 *2639:A 3.57349e-05
8 *688:8 *2636:A 0
9 *688:8 *792:10 2.07184e-05
10 *2630:A *2638:C1 0.000153344
11 *2638:A2 *2638:C1 2.42747e-05
12 *2638:B2 *2638:C1 2.49708e-05
13 *2640:A1 *688:8 2.87867e-05
14 *3389:A *2638:C1 5.59302e-05
*RES
1 *3378:X *688:8 5.745 
2 *688:8 *2629:A 6.03 
3 *688:8 *2638:C1 10.65 
*END

*D_NET *689 0.00104116
*CONN
*I *3279:D I *D sky130_fd_sc_hd__dfrtp_1
*I *3389:X O *D sky130_fd_sc_hd__dlygate4sd3_1
*CAP
1 *3279:D 0.000430319
2 *3389:X 0.000430319
3 *3279:D *2638:A1 0
4 *3279:D *2638:B1 9.50342e-06
5 *3279:D *3378:A 3.18137e-05
6 *3279:D *792:10 0
7 *3279:CLK *3279:D 8.73389e-06
8 *3279:RESET_B *3279:D 0.000130472
*RES
1 *3389:X *3279:D 13.695 
*END

*D_NET *690 0.0005843
*CONN
*I *3268:D I *D sky130_fd_sc_hd__dfrtp_4
*I *3400:X O *D sky130_fd_sc_hd__dlygate4sd3_1
*CAP
1 *3268:D 0.000185177
2 *3400:X 0.000185177
3 *3267:D *3268:D 9.08126e-05
4 *511:14 *3268:D 8.64421e-05
5 *527:16 *3268:D 3.66913e-05
*RES
1 *3400:X *3268:D 10.26 
*END

*D_NET *691 0.00133169
*CONN
*I *3265:D I *D sky130_fd_sc_hd__dfrtp_2
*I *3411:X O *D sky130_fd_sc_hd__dlygate4sd3_1
*CAP
1 *3265:D 0.000470971
2 *3411:X 0.000470971
3 *3265:D *3266:D 0.000161458
4 *3266:CLK *3265:D 0.000104317
5 *511:14 *3265:D 0.000123969
6 *602:10 *3265:D 0
7 *602:12 *3265:D 0
8 *602:14 *3265:D 0
9 *602:16 *3265:D 0
10 *675:12 *3265:D 0
*RES
1 *3411:X *3265:D 15.84 
*END

*D_NET *692 0.000862933
*CONN
*I *3266:D I *D sky130_fd_sc_hd__dfrtp_2
*I *3422:X O *D sky130_fd_sc_hd__dlygate4sd3_1
*CAP
1 *3266:D 0.000226479
2 *3422:X 0.000226479
3 *3266:D *2887:A 0
4 *3266:D *777:38 0.000134625
5 *3266:D *778:21 0.000113891
6 *3265:D *3266:D 0.000161458
*RES
1 *3422:X *3266:D 12.66 
*END

*D_NET *693 0.00279053
*CONN
*I *2860:B1_N I *D sky130_fd_sc_hd__o21bai_1
*I *2816:A2 I *D sky130_fd_sc_hd__a32o_1
*I *3433:X O *D sky130_fd_sc_hd__dlygate4sd3_1
*CAP
1 *2860:B1_N 3.27598e-05
2 *2816:A2 0.00128467
3 *3433:X 0
4 *693:4 0.00131743
5 *2818:A *2816:A2 0
6 *2860:A2 *2860:B1_N 1.08758e-05
7 *3286:D *2816:A2 5.12219e-05
8 *11:57 *2816:A2 1.0145e-05
9 *311:8 *2816:A2 8.34314e-05
10 *603:22 *2816:A2 0
11 *687:18 *2816:A2 0
*RES
1 *3433:X *693:4 1.6 
2 *693:4 *2816:A2 10.4173 
3 *693:4 *2860:B1_N 2.05 
*END

*D_NET *694 0.00043033
*CONN
*I *3137:D I *D sky130_fd_sc_hd__dfrtp_1
*I *3444:X O *D sky130_fd_sc_hd__dlygate4sd3_1
*CAP
1 *3137:D 0.000134242
2 *3444:X 0.000134242
3 *3286:D *3137:D 0
4 *3444:A *3137:D 4.66108e-05
5 *603:39 *3137:D 4.63943e-05
6 *603:54 *3137:D 6.88421e-05
*RES
1 *3444:X *3137:D 9.2475 
*END

*D_NET *695 0.00162082
*CONN
*I *2755:A1 I *D sky130_fd_sc_hd__o221a_1
*I *2625:A1 I *D sky130_fd_sc_hd__mux2_1
*I *3310:X O *D sky130_fd_sc_hd__dlygate4sd3_1
*CAP
1 *2755:A1 0
2 *2625:A1 0.000495055
3 *3310:X 3.5307e-05
4 *695:6 0.000530362
5 *2625:A1 *720:49 7.71138e-05
6 *2541:A *2625:A1 0
7 *2619:B *2625:A1 1.97429e-05
8 *2755:A2 *2625:A1 3.93531e-05
9 *2755:A2 *695:6 4.89395e-05
10 *2755:B1 *2625:A1 5.7969e-05
11 *2755:B2 *2625:A1 2.89492e-06
12 *2810:A1 *2625:A1 7.98833e-05
13 *3272:D *695:6 4.66108e-05
14 *175:6 *695:6 1.43558e-05
15 *348:91 *2625:A1 9.5799e-06
16 *511:102 *695:6 8.23457e-05
17 *605:33 *2625:A1 8.13101e-05
*RES
1 *3310:X *695:6 2.74 
2 *695:6 *2625:A1 9.7222 
3 *695:6 *2755:A1 1.6 
*END

*D_NET *696 0.00561503
*CONN
*I *3269:D I *D sky130_fd_sc_hd__dfrtp_1
*I *3321:X O *D sky130_fd_sc_hd__dlygate4sd3_1
*CAP
1 *3269:D 0.000886413
2 *3321:X 0.000886413
3 *3269:D *2771:A 8.42083e-05
4 *3269:D *3270:D 0.00183713
5 *2541:A *3269:D 0.000378839
6 *2587:S *3269:D 0.000313743
7 *174:10 *3269:D 4.82863e-05
8 *327:33 *3269:D 0.000766609
9 *348:6 *3269:D 0.000195482
10 *596:54 *3269:D 2.75145e-05
11 *609:12 *3269:D 4.49939e-05
12 *609:53 *3269:D 0.000145401
*RES
1 *3321:X *3269:D 33.045 
*END

*D_NET *697 0.000971514
*CONN
*I *2666:A2 I *D sky130_fd_sc_hd__a31o_1
*I *3332:X O *D sky130_fd_sc_hd__dlygate4sd3_1
*CAP
1 *2666:A2 0.000160974
2 *3332:X 0.000160974
3 *2666:A2 *3281:D 2.75145e-05
4 *2637:A *2666:A2 0.000296088
5 *2666:A3 *2666:A2 2.75145e-05
6 *603:86 *2666:A2 0.000164686
7 *603:95 *2666:A2 0.000133763
*RES
1 *3332:X *2666:A2 12.105 
*END

*D_NET *698 0.0158248
*CONN
*I *3466:A I *D sky130_fd_sc_hd__clkbuf_4
*I *3286:Q O *D sky130_fd_sc_hd__dfrtp_1
*CAP
1 *3466:A 0.000413721
2 *3286:Q 0.00179497
3 *698:16 0.00549218
4 *698:14 0.00687342
5 *698:14 *2813:A 0.000122155
6 *698:14 *785:32 2.30292e-05
7 *698:16 *3339:A 7.34037e-05
8 *698:16 *820:10 0.000121023
9 *2557:A *698:16 4.66826e-05
10 *2577:A *698:16 3.00381e-05
11 *2661:A *698:14 3.23663e-05
12 *2818:A *698:14 3.00381e-05
13 *3129:D *698:14 1.7386e-05
14 *3132:D *698:16 0.000581986
15 *3234:CLK *698:16 5.06989e-05
16 *3234:D *698:16 5.53202e-05
17 *3235:D *698:16 1.7386e-05
18 *3243:D *698:16 4.40446e-05
19 *3286:RESET_B *698:14 4.9253e-06
*RES
1 *3286:Q *698:14 28.93 
2 *698:14 *698:16 58.41 
3 *698:16 *3466:A 12.065 
*END

*D_NET *699 0.000619206
*CONN
*I *2635:A1 I *D sky130_fd_sc_hd__a22o_1
*I *3343:X O *D sky130_fd_sc_hd__dlygate4sd3_1
*CAP
1 *2635:A1 0.000224071
2 *3343:X 0.000224071
3 *2635:A1 *781:6 2.11084e-05
4 *2635:B1 *2635:A1 8.35021e-05
5 *3277:D *2635:A1 2.52812e-05
6 *3277:RESET_B *2635:A1 4.11729e-05
*RES
1 *3343:X *2635:A1 10.5 
*END

*D_NET *700 0.000592631
*CONN
*I *2816:B2 I *D sky130_fd_sc_hd__a32o_1
*I *3354:X O *D sky130_fd_sc_hd__dlygate4sd3_1
*CAP
1 *2816:B2 0.000118151
2 *3354:X 0.000118151
3 *2816:B1 *2816:B2 2.09749e-05
4 *3136:D *2816:B2 2.75229e-05
5 *310:6 *2816:B2 0.000185505
6 *310:8 *2816:B2 0.000122325
*RES
1 *3354:X *2816:B2 6.065 
*END

*D_NET *701 0.00530249
*CONN
*I *3270:D I *D sky130_fd_sc_hd__dfrtp_1
*I *3362:X O *D sky130_fd_sc_hd__dlygate4sd3_1
*CAP
1 *3270:D 0.000740899
2 *3362:X 0.000740899
3 *3270:D *2771:A 0.000811496
4 *3270:D *3310:A 0.000112595
5 *3270:D *3312:A 0.000226367
6 *2541:A *3270:D 0.00019548
7 *2631:A *3270:D 2.7881e-05
8 *3269:D *3270:D 0.00183713
9 *355:22 *3270:D 0.00015639
10 *356:49 *3270:D 3.86529e-05
11 *511:102 *3270:D 6.28425e-05
12 *551:16 *3270:D 0.000311974
13 *609:12 *3270:D 3.98869e-05
*RES
1 *3362:X *3270:D 33.015 
*END

*D_NET *702 0.00064835
*CONN
*I *2655:A1 I *D sky130_fd_sc_hd__a221o_1
*I *3363:X O *D sky130_fd_sc_hd__dlygate4sd3_1
*CAP
1 *2655:A1 9.21789e-05
2 *3363:X 9.21789e-05
3 *2655:A1 *2656:A2 0.000138551
4 *2665:B1 *2655:A1 6.02123e-05
5 *2667:C *2655:A1 0.000265229
*RES
1 *3363:X *2655:A1 10.365 
*END

*D_NET *703 0.0015334
*CONN
*I *3101:A0 I *D sky130_fd_sc_hd__mux2_1
*I *3364:X O *D sky130_fd_sc_hd__dlygate4sd3_1
*CAP
1 *3101:A0 0.000417967
2 *3364:X 0.000417967
3 *3100:A *3101:A0 0.00043694
4 *3218:D *3101:A0 1.49267e-05
5 *355:127 *3101:A0 0.000197826
6 *355:145 *3101:A0 4.77769e-05
*RES
1 *3364:X *3101:A0 14.775 
*END

*D_NET *704 0.00103148
*CONN
*I *3088:A1 I *D sky130_fd_sc_hd__mux2_1
*I *3365:X O *D sky130_fd_sc_hd__dlygate4sd3_1
*CAP
1 *3088:A1 0.00014939
2 *3365:X 0.00014939
3 *3088:A0 *3088:A1 3.25676e-05
4 *3088:S *3088:A1 0.000375944
5 *430:40 *3088:A1 0.000106078
6 *475:25 *3088:A1 3.57349e-05
7 *475:35 *3088:A1 0.000182374
*RES
1 *3365:X *3088:A1 7.79 
*END

*D_NET *705 0.000532703
*CONN
*I *2974:A1 I *D sky130_fd_sc_hd__mux2_1
*I *3366:X O *D sky130_fd_sc_hd__dlygate4sd3_1
*CAP
1 *2974:A1 0.000165556
2 *3366:X 0.000165556
3 *2974:A1 *888:6 1.56428e-05
4 *2754:B *2974:A1 3.95409e-05
5 *366:125 *2974:A1 5.0651e-05
6 *378:56 *2974:A1 9.57555e-05
*RES
1 *3366:X *2974:A1 10.155 
*END

*D_NET *706 0.00102687
*CONN
*I *2997:A0 I *D sky130_fd_sc_hd__mux2_1
*I *3368:X O *D sky130_fd_sc_hd__dlygate4sd3_1
*CAP
1 *2997:A0 0.000227917
2 *3368:X 0.000227917
3 *2791:A2 *2997:A0 0.000295915
4 *2997:A1 *2997:A0 4.77807e-05
5 *2997:S *2997:A0 0.000141045
6 *215:148 *2997:A0 8.62994e-05
*RES
1 *3368:X *2997:A0 12.705 
*END

*D_NET *707 0.00038747
*CONN
*I *3000:A0 I *D sky130_fd_sc_hd__mux2_1
*I *3369:X O *D sky130_fd_sc_hd__dlygate4sd3_1
*CAP
1 *3000:A0 9.42769e-05
2 *3369:X 9.42769e-05
3 *2791:A2 *3000:A0 0
4 *3082:A1 *3000:A0 1.22325e-05
5 *3084:A1 *3000:A0 6.48757e-05
6 *372:18 *3000:A0 7.4027e-05
7 *443:122 *3000:A0 4.77807e-05
*RES
1 *3369:X *3000:A0 9.39 
*END

*D_NET *708 0.00098216
*CONN
*I *2988:A0 I *D sky130_fd_sc_hd__mux2_1
*I *3370:X O *D sky130_fd_sc_hd__dlygate4sd3_1
*CAP
1 *2988:A0 0.000231773
2 *3370:X 0.000231773
3 *2988:A0 *3387:A 8.53113e-06
4 *2744:C1 *2988:A0 0.000161636
5 *2754:C *2988:A0 2.75145e-05
6 *2774:C *2988:A0 8.23279e-05
7 *2986:S *2988:A0 1.16578e-05
8 *2989:A *2988:A0 8.8266e-05
9 *3002:A *2988:A0 7.03276e-05
10 *211:124 *2988:A0 1.19928e-05
11 *211:170 *2988:A0 5.6361e-05
*RES
1 *3370:X *2988:A0 13.05 
*END

*D_NET *709 0.00384644
*CONN
*I *3467:A I *D sky130_fd_sc_hd__buf_2
*I *3360:A I *D sky130_fd_sc_hd__dlygate4sd3_1
*I *3280:Q O *D sky130_fd_sc_hd__dfrtp_1
*CAP
1 *3467:A 0.00166137
2 *3360:A 0.00017901
3 *3280:Q 4.4178e-05
4 *709:8 0.00188456
5 *2640:A1 *3360:A 7.73272e-05
*RES
1 *3280:Q *709:8 4.05 
2 *709:8 *3360:A 6.705 
3 *709:8 *3467:A 31.5 
*END

*D_NET *710 0.000663951
*CONN
*I *3104:A0 I *D sky130_fd_sc_hd__mux2_1
*I *3371:X O *D sky130_fd_sc_hd__dlygate4sd3_1
*CAP
1 *3104:A0 0.000164811
2 *3371:X 0.000164811
3 *3104:A0 *2698:A 7.03276e-05
4 *3104:A0 *2760:A 7.03276e-05
5 *3013:A *3104:A0 0.000193674
*RES
1 *3371:X *3104:A0 9.9 
*END

*D_NET *711 0.000846119
*CONN
*I *3006:A1 I *D sky130_fd_sc_hd__mux2_1
*I *3372:X O *D sky130_fd_sc_hd__dlygate4sd3_1
*CAP
1 *3006:A1 0.000298164
2 *3372:X 0.000298164
3 *3004:S *3006:A1 6.90876e-05
4 *3005:A *3006:A1 3.00381e-05
5 *3182:D *3006:A1 2.66586e-05
6 *428:12 *3006:A1 0.000124007
*RES
1 *3372:X *3006:A1 8.135 
*END

*D_NET *712 0.000412419
*CONN
*I *3117:A0 I *D sky130_fd_sc_hd__mux2_1
*I *3373:X O *D sky130_fd_sc_hd__dlygate4sd3_1
*CAP
1 *3117:A0 8.25909e-05
2 *3373:X 8.25909e-05
3 *3117:A0 *3373:A 0.000198945
4 *3117:A1 *3117:A0 4.82919e-05
*RES
1 *3373:X *3117:A0 5.03 
*END

*D_NET *713 0.000951857
*CONN
*I *3115:A0 I *D sky130_fd_sc_hd__mux2_1
*I *3374:X O *D sky130_fd_sc_hd__dlygate4sd3_1
*CAP
1 *3115:A0 0.000174621
2 *3374:X 0.000174621
3 *2541:B *3115:A0 0.000183034
4 *3114:B *3115:A0 0.000272973
5 *3117:S *3115:A0 9.99968e-05
6 *475:6 *3115:A0 4.66108e-05
*RES
1 *3374:X *3115:A0 7.445 
*END

*D_NET *714 0.00119116
*CONN
*I *2587:A1 I *D sky130_fd_sc_hd__mux2_1
*I *3375:X O *D sky130_fd_sc_hd__dlygate4sd3_1
*CAP
1 *2587:A1 0.000253968
2 *3375:X 0.000253968
3 *2587:A1 *2776:A 0.000149279
4 *2620:A0 *2587:A1 0.000303382
5 *2620:A1 *2587:A1 0.000230567
*RES
1 *3375:X *2587:A1 9.29 
*END

*D_NET *715 0.000354547
*CONN
*I *2571:A0 I *D sky130_fd_sc_hd__mux2_1
*I *3376:X O *D sky130_fd_sc_hd__dlygate4sd3_1
*CAP
1 *2571:A0 3.50687e-05
2 *3376:X 3.50687e-05
3 *2721:A2 *2571:A0 8.3329e-05
4 *405:35 *2571:A0 0.000201081
*RES
1 *3376:X *2571:A0 5.03 
*END

*D_NET *716 0.00118484
*CONN
*I *3014:A0 I *D sky130_fd_sc_hd__mux2_1
*I *3377:X O *D sky130_fd_sc_hd__dlygate4sd3_1
*CAP
1 *3014:A0 0.000218653
2 *3377:X 0.000218653
3 *3014:A0 *2756:A1 0
4 *3014:A0 *3377:A 0.000249928
5 *3014:A0 *871:14 0.000425135
6 *3014:A1 *3014:A0 2.75229e-05
7 *3020:A *3014:A0 4.49498e-05
8 *594:78 *3014:A0 0
*RES
1 *3377:X *3014:A0 12.945 
*END

*D_NET *717 0.00030391
*CONN
*I *2920:A0 I *D sky130_fd_sc_hd__mux2_1
*I *3379:X O *D sky130_fd_sc_hd__dlygate4sd3_1
*CAP
1 *2920:A0 0.000115326
2 *3379:X 0.000115326
3 *2920:A1 *2920:A0 2.75229e-05
4 *363:26 *2920:A0 4.57347e-05
*RES
1 *3379:X *2920:A0 5.03 
*END

*D_NET *718 0.000587931
*CONN
*I *2969:A1 I *D sky130_fd_sc_hd__mux2_1
*I *3380:X O *D sky130_fd_sc_hd__dlygate4sd3_1
*CAP
1 *2969:A1 0.000194891
2 *3380:X 0.000194891
3 *2969:A1 *753:29 0
4 *2755:B2 *2969:A1 0
5 *3171:CLK *2969:A1 0.000198149
*RES
1 *3380:X *2969:A1 9.9 
*END

*D_NET *719 0.000529549
*CONN
*I *2592:A0 I *D sky130_fd_sc_hd__mux2_1
*I *3381:X O *D sky130_fd_sc_hd__dlygate4sd3_1
*CAP
1 *2592:A0 0.000158731
2 *3381:X 0.000158731
3 *2592:A1 *2592:A0 0.000197826
4 *2592:S *2592:A0 1.42598e-05
*RES
1 *3381:X *2592:A0 5.375 
*END

*D_NET *720 0.0171202
*CONN
*I *3003:A I *D sky130_fd_sc_hd__nand2_1
*I *3087:A I *D sky130_fd_sc_hd__nand2_1
*I *2584:A I *D sky130_fd_sc_hd__nand2_1
*I *3462:X O *D sky130_fd_sc_hd__clkbuf_2
*CAP
1 *3003:A 0.000212819
2 *3087:A 0.000294608
3 *2584:A 2.08101e-05
4 *3462:X 0.00134903
5 *720:49 0.00466872
6 *720:18 0.00553114
7 *3003:A *731:56 7.68414e-06
8 *720:18 *2671:A 0.000122325
9 *720:18 *805:50 0.000122331
10 *720:49 *2810:B1 0.000841853
11 *720:49 *779:59 0
12 *2541:A *720:49 0
13 *2544:A0 *720:49 2.89319e-05
14 *2625:A1 *720:49 7.71138e-05
15 *2672:D *720:18 4.47209e-05
16 *2697:A *720:18 2.16917e-05
17 *2718:D *720:18 0.000119246
18 *2780:A *720:49 0.000294594
19 *2780:D *720:49 5.8678e-05
20 *2783:C *720:49 0.000126494
21 *2918:A *720:18 2.30292e-05
22 *2918:B *720:18 4.99619e-05
23 *3002:A *3003:A 1.78306e-05
24 *3002:A *3087:A 0.000301905
25 *3003:B *3003:A 0.000191302
26 *3050:A *720:49 0.000114655
27 *3307:A *720:18 3.86529e-05
28 *3458:A *720:18 4.82863e-05
29 *171:10 *720:18 0.000148936
30 *176:111 *720:49 0
31 *179:24 *720:18 2.75145e-05
32 *179:26 *720:18 3.94429e-05
33 *180:28 *720:18 0.000128719
34 *180:54 *720:18 6.13115e-05
35 *187:124 *720:49 0.000305455
36 *207:28 *720:18 0.000146733
37 *352:94 *720:18 0.000122331
38 *355:22 *720:49 0.000526098
39 *355:82 *720:49 0.000465888
40 *409:115 *720:49 0.000117708
41 *446:12 *3003:A 1.4389e-05
42 *473:33 *720:49 0.000109539
43 *551:16 *720:18 2.75229e-05
44 *609:12 *720:18 0.000150229
*RES
1 *3462:X *720:18 27.065 
2 *720:18 *2584:A 1.96 
3 *720:18 *720:49 24.7043 
4 *720:49 *3087:A 5.425 
5 *720:49 *3003:A 5.29 
*END

*D_NET *721 0.000560388
*CONN
*I *2544:A1 I *D sky130_fd_sc_hd__mux2_1
*I *3382:X O *D sky130_fd_sc_hd__dlygate4sd3_1
*CAP
1 *2544:A1 0.000180769
2 *3382:X 0.000180769
3 *2544:A1 *2772:A 8.53113e-06
4 *2544:A1 *3382:A 6.38291e-05
5 *2544:A0 *2544:A1 4.82919e-05
6 *2545:A *2544:A1 4.05674e-06
7 *193:132 *2544:A1 2.23589e-05
8 *524:12 *2544:A1 5.17834e-05
*RES
1 *3382:X *2544:A1 9.9 
*END

*D_NET *722 0.000759428
*CONN
*I *3094:A0 I *D sky130_fd_sc_hd__mux2_1
*I *3383:X O *D sky130_fd_sc_hd__dlygate4sd3_1
*CAP
1 *3094:A0 0.000257308
2 *3383:X 0.000257308
3 *3094:A0 *2706:B2 7.23602e-05
4 *3094:A0 *3096:A0 0.000138325
5 *3094:A0 *839:14 3.64998e-06
6 *502:6 *3094:A0 3.04767e-05
*RES
1 *3383:X *3094:A0 10.935 
*END

*D_NET *723 0.000603768
*CONN
*I *3004:A1 I *D sky130_fd_sc_hd__mux2_1
*I *3384:X O *D sky130_fd_sc_hd__dlygate4sd3_1
*CAP
1 *3004:A1 0.000205551
2 *3384:X 0.000205551
3 *3004:A1 *3384:A 3.00381e-05
4 *3005:A *3004:A1 0
5 *3182:D *3004:A1 6.71882e-05
6 *428:12 *3004:A1 0
7 *430:10 *3004:A1 9.54399e-05
*RES
1 *3384:X *3004:A1 10.77 
*END

*D_NET *724 0.000310212
*CONN
*I *2899:A0 I *D sky130_fd_sc_hd__mux2_1
*I *3385:X O *D sky130_fd_sc_hd__dlygate4sd3_1
*CAP
1 *2899:A0 5.8606e-05
2 *3385:X 5.8606e-05
3 *2740:A2 *2899:A0 0.00012064
4 *221:12 *2899:A0 7.23602e-05
*RES
1 *3385:X *2899:A0 8.52 
*END

*D_NET *725 0.00200447
*CONN
*I *3106:A0 I *D sky130_fd_sc_hd__mux2_1
*I *3386:X O *D sky130_fd_sc_hd__dlygate4sd3_1
*CAP
1 *3106:A0 0.000750959
2 *3386:X 0.000750959
3 *3106:A0 *2761:A 0.000138106
4 *3106:A0 *3364:A 9.12494e-06
5 *3106:A0 *3371:A 0.000194286
6 *2999:A *3106:A0 2.69153e-05
7 *3218:D *3106:A0 8.60673e-06
8 *3219:CLK *3106:A0 3.7918e-05
9 *355:145 *3106:A0 2.14484e-05
10 *508:14 *3106:A0 3.9232e-05
11 *598:86 *3106:A0 2.69153e-05
*RES
1 *3386:X *3106:A0 17.955 
*END

*D_NET *726 0.000810637
*CONN
*I *2986:A0 I *D sky130_fd_sc_hd__mux2_1
*I *3387:X O *D sky130_fd_sc_hd__dlygate4sd3_1
*CAP
1 *2986:A0 0.000234022
2 *3387:X 0.000234022
3 *2986:A0 *3387:A 3.86607e-05
4 *2744:A2 *2986:A0 0.000265271
5 *2774:C *2986:A0 3.86607e-05
*RES
1 *3387:X *2986:A0 10.59 
*END

*D_NET *727 0.000473032
*CONN
*I *3084:A0 I *D sky130_fd_sc_hd__mux2_1
*I *3388:X O *D sky130_fd_sc_hd__dlygate4sd3_1
*CAP
1 *3084:A0 4.28503e-05
2 *3388:X 4.28503e-05
3 *2792:C1 *3084:A0 0.000193666
4 *215:148 *3084:A0 0.000193666
*RES
1 *3388:X *3084:A0 5.03 
*END

*D_NET *728 0.000826923
*CONN
*I *2569:A0 I *D sky130_fd_sc_hd__mux2_1
*I *3390:X O *D sky130_fd_sc_hd__dlygate4sd3_1
*CAP
1 *2569:A0 0.000190951
2 *3390:X 0.000190951
3 *2564:A0 *2569:A0 3.23391e-05
4 *2720:C *2569:A0 7.32599e-05
5 *2797:B1 *2569:A0 0.000135415
6 *187:16 *2569:A0 8.53113e-06
7 *218:36 *2569:A0 0.000195476
*RES
1 *3390:X *2569:A0 10.665 
*END

*D_NET *729 0.000648128
*CONN
*I *3077:A0 I *D sky130_fd_sc_hd__mux2_1
*I *3391:X O *D sky130_fd_sc_hd__dlygate4sd3_1
*CAP
1 *3077:A0 0.000164667
2 *3391:X 0.000164667
3 *2786:C1 *3077:A0 7.03276e-05
4 *440:42 *3077:A0 0.000157944
5 *440:52 *3077:A0 2.01934e-05
6 *591:220 *3077:A0 7.03276e-05
*RES
1 *3391:X *3077:A0 9.9 
*END

*D_NET *730 0.000398514
*CONN
*I *2928:A0 I *D sky130_fd_sc_hd__mux2_1
*I *3392:X O *D sky130_fd_sc_hd__dlygate4sd3_1
*CAP
1 *2928:A0 0.000100231
2 *3392:X 0.000100231
3 *2928:A0 *905:8 0.000198051
*RES
1 *3392:X *2928:A0 5.03 
*END

*D_NET *731 0.0135543
*CONN
*I *2695:C I *D sky130_fd_sc_hd__and3_1
*I *2764:A3 I *D sky130_fd_sc_hd__a31o_1
*I *2763:C I *D sky130_fd_sc_hd__and3_1
*I *2700:C I *D sky130_fd_sc_hd__and3_1
*I *2748:C I *D sky130_fd_sc_hd__and3_1
*I *2776:C I *D sky130_fd_sc_hd__and3_1
*I *3463:X O *D sky130_fd_sc_hd__clkbuf_2
*CAP
1 *2695:C 0.000364458
2 *2764:A3 7.77116e-05
3 *2763:C 2.60672e-05
4 *2700:C 0.000419439
5 *2748:C 0.000349919
6 *2776:C 0.000254394
7 *3463:X 4.44788e-05
8 *731:84 0.000611033
9 *731:56 0.00081978
10 *731:42 0.00143353
11 *731:19 0.00128827
12 *731:6 0.000346833
13 *2695:C *2779:A 0
14 *2700:C *2701:A1 0.0002954
15 *2700:C *3125:A1 1.33293e-05
16 *2700:C *841:12 0
17 *2748:C *2825:A 0.000241738
18 *731:42 *2743:A 0.000180186
19 *731:42 *3370:A 0.000110791
20 *731:42 *3373:A 0.000113797
21 *2539:A0 *2695:C 1.91597e-05
22 *2539:S *2695:C 7.67465e-05
23 *2544:A0 *731:56 7.63204e-05
24 *2701:B1 *2700:C 1.56428e-05
25 *2705:C *2764:A3 0.00030615
26 *2764:B1 *731:56 5.63701e-05
27 *2770:B *2764:A3 1.19928e-05
28 *2779:B *731:56 9.02259e-05
29 *2783:B *731:42 7.03276e-05
30 *3002:A *731:42 0.000400656
31 *3002:A *731:56 4.29198e-05
32 *3003:A *731:56 7.68414e-06
33 *3003:B *731:56 7.22354e-05
34 *3050:A *731:42 0.00015408
35 *3056:A *731:42 0.000349111
36 *3087:B *731:56 8.63479e-05
37 *3089:A *731:84 3.50033e-05
38 *3091:A1 *2764:A3 0.000101031
39 *3092:A *2695:C 0.000124895
40 *3114:B *731:42 4.9968e-05
41 *3125:S *2700:C 0.000124007
42 *3177:D *731:42 2.75092e-05
43 *192:40 *731:56 0.000122732
44 *192:53 *2763:C 0
45 *192:53 *731:56 3.57225e-05
46 *192:63 *731:84 0
47 *193:12 *2700:C 7.34703e-05
48 *193:26 *2764:A3 8.8266e-05
49 *193:132 *2700:C 3.25831e-05
50 *348:91 *731:42 0.000444086
51 *355:82 *731:42 0
52 *409:115 *731:19 7.23602e-05
53 *409:115 *731:42 0.000330309
54 *473:18 *731:42 0.000406082
55 *473:33 *731:42 0.000394407
56 *475:25 *2695:C 0.000197236
57 *475:25 *731:42 0.000147397
58 *475:25 *731:84 0.000308068
59 *498:12 *731:56 0.000158072
60 *500:18 *2695:C 6.52265e-05
61 *500:28 *2695:C 0.000512469
62 *500:28 *731:84 4.88568e-05
63 *511:108 *2700:C 0.000123225
64 *511:126 *2695:C 0.000428596
65 *511:126 *2700:C 9.50342e-06
66 *521:10 *2695:C 3.39064e-05
67 *684:71 *2748:C 0.000232171
*RES
1 *3463:X *731:6 2.05 
2 *731:6 *2776:C 5.05 
3 *731:6 *731:19 2.87 
4 *731:19 *2748:C 9.2175 
5 *731:19 *731:42 26.16 
6 *731:42 *731:56 14.4487 
7 *731:56 *2700:C 14.3038 
8 *731:56 *2763:C 2.07625 
9 *731:42 *731:84 3.675 
10 *731:84 *2764:A3 6.465 
11 *731:84 *2695:C 14.49 
*END

*D_NET *732 0.00110876
*CONN
*I *2905:A0 I *D sky130_fd_sc_hd__mux2_1
*I *3393:X O *D sky130_fd_sc_hd__dlygate4sd3_1
*CAP
1 *2905:A0 0.000349094
2 *3393:X 0.000349094
3 *2739:A2 *2905:A0 4.90253e-05
4 *2739:B1 *2905:A0 0.000102788
5 *2904:A *2905:A0 0.000255012
6 *212:92 *2905:A0 3.74864e-06
*RES
1 *3393:X *2905:A0 8.255 
*END

*D_NET *733 0.000355544
*CONN
*I *2926:A0 I *D sky130_fd_sc_hd__mux2_1
*I *3394:X O *D sky130_fd_sc_hd__dlygate4sd3_1
*CAP
1 *2926:A0 9.74586e-05
2 *3394:X 9.74586e-05
3 *2926:A0 *3394:A 0
4 *2927:A *2926:A0 7.23602e-05
5 *606:51 *2926:A0 8.8266e-05
*RES
1 *3394:X *2926:A0 8.865 
*END

*D_NET *734 0.00100326
*CONN
*I *3059:A1 I *D sky130_fd_sc_hd__mux2_1
*I *3395:X O *D sky130_fd_sc_hd__dlygate4sd3_1
*CAP
1 *3059:A1 0.000482164
2 *3395:X 0.000482164
3 *3059:A0 *3059:A1 3.89366e-05
4 *3203:CLK *3059:A1 0
*RES
1 *3395:X *3059:A1 12.93 
*END

*D_NET *735 0.00143588
*CONN
*I *2977:A1 I *D sky130_fd_sc_hd__mux2_1
*I *3396:X O *D sky130_fd_sc_hd__dlygate4sd3_1
*CAP
1 *2977:A1 0.000272426
2 *3396:X 0.000272426
3 *2977:A1 *2777:A 0.00013192
4 *2977:A1 *2778:A 0.000197215
5 *2977:A1 *3396:A 7.4027e-05
6 *2777:C *2977:A1 7.03276e-05
7 *177:135 *2977:A1 0.000417542
8 *596:12 *2977:A1 0
*RES
1 *3396:X *2977:A1 13.98 
*END

*D_NET *736 0.000519175
*CONN
*I *2914:A0 I *D sky130_fd_sc_hd__mux2_1
*I *3397:X O *D sky130_fd_sc_hd__dlygate4sd3_1
*CAP
1 *2914:A0 0.000169424
2 *3397:X 0.000169424
3 *2914:A0 *2726:A1 0.000103192
4 *2726:A2 *2914:A0 3.64998e-06
5 *2915:A *2914:A0 0
6 *3153:CLK *2914:A0 6.47516e-05
7 *3153:D *2914:A0 0
8 *197:94 *2914:A0 0
9 *372:61 *2914:A0 8.73389e-06
*RES
1 *3397:X *2914:A0 10.56 
*END

*D_NET *737 0.000818031
*CONN
*I *3019:A0 I *D sky130_fd_sc_hd__mux2_1
*I *3398:X O *D sky130_fd_sc_hd__dlygate4sd3_1
*CAP
1 *3019:A0 0.000285797
2 *3398:X 0.000285797
3 *3019:A0 *2690:A1 7.23602e-05
4 *440:12 *3019:A0 0.000158511
5 *440:14 *3019:A0 1.5567e-05
*RES
1 *3398:X *3019:A0 11.28 
*END

*D_NET *738 0.000404409
*CONN
*I *2922:A0 I *D sky130_fd_sc_hd__mux2_1
*I *3399:X O *D sky130_fd_sc_hd__dlygate4sd3_1
*CAP
1 *2922:A0 0.000102456
2 *3399:X 0.000102456
3 *372:26 *2922:A0 0.000150568
4 *372:40 *2922:A0 4.89295e-05
*RES
1 *3399:X *2922:A0 5.03 
*END

*D_NET *739 0.00116415
*CONN
*I *3096:A0 I *D sky130_fd_sc_hd__mux2_1
*I *3401:X O *D sky130_fd_sc_hd__dlygate4sd3_1
*CAP
1 *3096:A0 0.000237014
2 *3401:X 0.000237014
3 *2759:B1 *3096:A0 3.21081e-06
4 *3094:A0 *3096:A0 0.000138325
5 *3094:A1 *3096:A0 0.000166238
6 *3095:A *3096:A0 0.000233264
7 *3096:A1 *3096:A0 3.00381e-05
8 *3096:S *3096:A0 4.63445e-05
9 *502:6 *3096:A0 7.27003e-05
*RES
1 *3401:X *3096:A0 9.65 
*END

*D_NET *740 0.000723426
*CONN
*I *2617:A1 I *D sky130_fd_sc_hd__mux2_1
*I *3402:X O *D sky130_fd_sc_hd__dlygate4sd3_1
*CAP
1 *2617:A1 0.000191775
2 *3402:X 0.000191775
3 *2617:A1 *2793:A1 7.23602e-05
4 *2617:A0 *2617:A1 8.40213e-05
5 *2617:S *2617:A1 0.000111135
6 *2800:A3 *2617:A1 7.23602e-05
*RES
1 *3402:X *2617:A1 10.245 
*END

*D_NET *741 0.000941847
*CONN
*I *2916:A0 I *D sky130_fd_sc_hd__mux2_1
*I *3403:X O *D sky130_fd_sc_hd__dlygate4sd3_1
*CAP
1 *2916:A0 0.000265903
2 *3403:X 0.000265903
3 *2913:A *2916:A0 4.82919e-05
4 *2917:A *2916:A0 8.57024e-05
5 *202:30 *2916:A0 3.86529e-05
6 *320:64 *2916:A0 0
7 *343:66 *2916:A0 5.4155e-06
8 *366:20 *2916:A0 9.50342e-06
9 *386:16 *2916:A0 0.000222474
*RES
1 *3403:X *2916:A0 12.345 
*END

*D_NET *742 0.0167538
*CONN
*I *2706:A2 I *D sky130_fd_sc_hd__a22o_1
*I *2758:B1 I *D sky130_fd_sc_hd__a221o_1
*I *2689:B1 I *D sky130_fd_sc_hd__a221o_1
*I *2768:A2 I *D sky130_fd_sc_hd__a22o_1
*I *3464:X O *D sky130_fd_sc_hd__clkbuf_2
*CAP
1 *2706:A2 0
2 *2758:B1 0
3 *2689:B1 0.000144729
4 *2768:A2 0.000141315
5 *3464:X 0.000164071
6 *742:45 0.00172171
7 *742:31 0.00168838
8 *742:14 0.000386816
9 *742:10 0.00218084
10 *742:8 0.0022108
11 *2689:B1 *2689:A2 6.65504e-05
12 *2689:B1 *2689:B2 3.26889e-05
13 *2689:B1 *2758:A2 4.65643e-05
14 *742:10 *2803:B2 0
15 *742:10 *3424:A 8.74175e-05
16 *742:14 *2706:A1 2.30797e-05
17 *742:14 *828:10 0.000141606
18 *742:31 *2706:A1 0.000134509
19 *742:45 *2706:A1 4.82863e-05
20 *742:45 *2706:B2 0.00015473
21 *742:45 *2758:A2 1.2818e-05
22 *742:45 *839:14 7.04622e-05
23 *2563:A *742:8 4.82863e-05
24 *2571:A1 *742:10 0.000432274
25 *2572:A *742:10 0.000134134
26 *2592:A1 *742:10 0.000188957
27 *2706:B1 *742:45 3.13474e-05
28 *2758:C1 *742:45 8.33534e-05
29 *2759:C1 *742:45 0.000542006
30 *2768:B1 *2768:A2 4.82919e-05
31 *2877:S *742:10 0.000116853
32 *2898:A *742:10 7.4027e-05
33 *2908:A *742:10 0.000137432
34 *2919:B *742:10 0.000125272
35 *3027:A *742:45 4.82919e-05
36 *3034:S *2689:B1 8.84963e-05
37 *3044:A1 *742:45 7.30845e-05
38 *3044:S *2689:B1 2.05641e-05
39 *3046:S *2689:B1 1.1561e-05
40 *3066:A *742:10 9.5433e-05
41 *3120:A0 *2768:A2 0.00026784
42 *3121:A *742:45 5.84362e-05
43 *183:52 *742:10 0
44 *202:22 *742:10 0
45 *202:83 *742:10 0.000472667
46 *208:104 *742:10 4.72867e-05
47 *208:121 *742:10 0.000130313
48 *208:154 *742:10 0.000900273
49 *215:100 *742:10 0.000635323
50 *215:119 *742:10 0.000312168
51 *321:62 *742:10 0
52 *321:107 *742:10 0.00013256
53 *359:10 *742:10 0.000284882
54 *362:16 *742:8 0.000197264
55 *362:35 *742:10 0.0012868
56 *470:8 *2689:B1 8.3907e-05
57 *475:59 *742:10 3.09233e-05
58 *475:59 *742:14 2.05583e-05
59 *475:59 *742:31 1.07797e-05
60 *500:93 *742:10 0
61 *594:67 *742:45 0.000124744
*RES
1 *3464:X *742:8 5.775 
2 *742:8 *742:10 52.38 
3 *742:10 *742:14 2.85 
4 *742:14 *2768:A2 6.84 
5 *742:14 *742:31 3.89 
6 *742:31 *742:45 24.42 
7 *742:45 *2689:B1 8.825 
8 *742:45 *2758:B1 1.6 
9 *742:31 *2706:A2 1.6 
*END

*D_NET *743 0.000459105
*CONN
*I *2875:A1 I *D sky130_fd_sc_hd__mux2_1
*I *3404:X O *D sky130_fd_sc_hd__dlygate4sd3_1
*CAP
1 *2875:A1 0.0001135
2 *3404:X 0.0001135
3 *349:18 *2875:A1 0.000185494
4 *349:38 *2875:A1 4.66108e-05
*RES
1 *3404:X *2875:A1 5.375 
*END

*D_NET *744 0.00104963
*CONN
*I *3029:A0 I *D sky130_fd_sc_hd__mux2_1
*I *3405:X O *D sky130_fd_sc_hd__dlygate4sd3_1
*CAP
1 *3029:A0 0.000173761
2 *3405:X 0.000173761
3 *3029:A0 *861:12 0.000386486
4 *3028:B *3029:A0 1.1668e-05
5 *3029:S *3029:A0 9.2741e-05
6 *3032:A *3029:A0 0.000164452
7 *187:83 *3029:A0 1.15688e-05
8 *461:6 *3029:A0 3.51884e-05
*RES
1 *3405:X *3029:A0 12.39 
*END

*D_NET *745 0.000318251
*CONN
*I *2539:A1 I *D sky130_fd_sc_hd__mux2_1
*I *3406:X O *D sky130_fd_sc_hd__dlygate4sd3_1
*CAP
1 *2539:A1 9.47007e-05
2 *3406:X 9.47007e-05
3 *2539:A0 *2539:A1 4.99619e-05
4 *2540:A *2539:A1 2.87867e-05
5 *2979:A *2539:A1 2.67022e-05
6 *500:18 *2539:A1 1.16578e-05
7 *511:126 *2539:A1 1.17409e-05
*RES
1 *3406:X *2539:A1 8.865 
*END

*D_NET *746 0.000891287
*CONN
*I *2971:A1 I *D sky130_fd_sc_hd__mux2_1
*I *3407:X O *D sky130_fd_sc_hd__dlygate4sd3_1
*CAP
1 *2971:A1 0.000320174
2 *3407:X 0.000320174
3 *2971:S *2971:A1 0.000198614
4 *2987:A *2971:A1 3.79351e-05
5 *356:49 *2971:A1 1.4389e-05
*RES
1 *3407:X *2971:A1 12.345 
*END

*D_NET *747 0.000410746
*CONN
*I *2940:A0 I *D sky130_fd_sc_hd__mux2_1
*I *3408:X O *D sky130_fd_sc_hd__dlygate4sd3_1
*CAP
1 *2940:A0 8.30447e-05
2 *3408:X 8.30447e-05
3 *2940:A0 *901:12 0.000198046
4 *2940:A1 *2940:A0 4.66108e-05
*RES
1 *3408:X *2940:A0 5.03 
*END

*D_NET *748 0.000474078
*CONN
*I *3021:A0 I *D sky130_fd_sc_hd__mux2_1
*I *3409:X O *D sky130_fd_sc_hd__dlygate4sd3_1
*CAP
1 *3021:A0 0.000225526
2 *3409:X 0.000225526
3 *3022:A *3021:A0 2.30258e-05
*RES
1 *3409:X *3021:A0 9.9 
*END

*D_NET *749 0.000323615
*CONN
*I *3110:A1 I *D sky130_fd_sc_hd__mux2_1
*I *3410:X O *D sky130_fd_sc_hd__dlygate4sd3_1
*CAP
1 *3110:A1 8.14872e-05
2 *3410:X 8.14872e-05
3 *3023:A *3110:A1 0.000160641
*RES
1 *3410:X *3110:A1 4.685 
*END

*D_NET *750 0.00040487
*CONN
*I *3026:A1 I *D sky130_fd_sc_hd__mux2_1
*I *3412:X O *D sky130_fd_sc_hd__dlygate4sd3_1
*CAP
1 *3026:A1 0.00014478
2 *3412:X 0.00014478
3 *3026:A1 *867:12 9.91257e-05
4 *3026:S *3026:A1 1.61831e-05
*RES
1 *3412:X *3026:A1 5.72 
*END

*D_NET *751 0.000494682
*CONN
*I *3057:A1 I *D sky130_fd_sc_hd__mux2_1
*I *3413:X O *D sky130_fd_sc_hd__dlygate4sd3_1
*CAP
1 *3057:A1 0.000185351
2 *3413:X 0.000185351
3 *3058:A *3057:A1 0.00012398
*RES
1 *3413:X *3057:A1 6.41 
*END

*D_NET *752 0.00129689
*CONN
*I *2585:A1 I *D sky130_fd_sc_hd__mux2_1
*I *3414:X O *D sky130_fd_sc_hd__dlygate4sd3_1
*CAP
1 *2585:A1 0.000534547
2 *3414:X 0.000534547
3 *2586:A *2585:A1 3.00381e-05
4 *2675:B *2585:A1 3.00381e-05
5 *684:90 *2585:A1 0.000167724
*RES
1 *3414:X *2585:A1 16.59 
*END

*D_NET *753 0.0164085
*CONN
*I *2703:B I *D sky130_fd_sc_hd__and3_1
*I *2765:B I *D sky130_fd_sc_hd__and3_1
*I *2684:A2 I *D sky130_fd_sc_hd__a22o_1
*I *2759:A2 I *D sky130_fd_sc_hd__a211o_1
*I *2752:A2 I *D sky130_fd_sc_hd__a311o_1
*I *3465:X O *D sky130_fd_sc_hd__clkbuf_2
*CAP
1 *2703:B 0
2 *2765:B 0
3 *2684:A2 2.0132e-05
4 *2759:A2 0.000369032
5 *2752:A2 0.000191308
6 *3465:X 0
7 *753:45 0.00137168
8 *753:31 0.00112626
9 *753:29 0.0020906
10 *753:4 0.00213817
11 *2759:A2 *2684:A1 7.86998e-05
12 *2759:A2 *2684:B2 4.89395e-05
13 *753:29 *2703:A 2.96334e-05
14 *753:29 *2747:A1 5.83518e-05
15 *753:29 *2749:A1 0
16 *753:31 *2703:A 2.8185e-05
17 *753:45 *2690:A1 2.20014e-05
18 *753:45 *2703:A 2.14655e-05
19 *753:45 *2756:B2 2.58336e-05
20 *2690:B1 *753:45 0.000106499
21 *2690:C1 *753:45 8.35157e-05
22 *2704:B1 *753:31 6.3889e-05
23 *2704:B1 *753:45 5.83121e-06
24 *2722:A2 *753:45 0.000411585
25 *2740:C1 *2752:A2 3.39064e-05
26 *2746:C *753:29 3.06667e-05
27 *2747:B1 *753:29 0.000285227
28 *2750:A *2752:A2 0.000194794
29 *2752:A3 *2752:A2 4.21973e-05
30 *2752:B1 *2752:A2 1.8731e-05
31 *2755:B2 *753:29 0
32 *2759:B1 *2759:A2 0.000467074
33 *2770:A *753:29 6.55406e-05
34 *2969:A1 *753:29 0
35 *2972:A *753:29 0
36 *3016:A1 *2759:A2 0.00019278
37 *3085:A *753:29 0
38 *3111:A *753:45 7.33283e-05
39 *3223:CLK *753:45 4.77807e-05
40 *3223:D *753:45 0.000163393
41 *174:150 *2752:A2 4.25093e-05
42 *181:69 *753:45 0.000976626
43 *183:143 *753:45 0.000719793
44 *197:70 *753:29 0.000948715
45 *197:152 *753:29 0.00170796
46 *348:128 *753:29 0
47 *349:18 *2752:A2 0.000193011
48 *349:160 *2752:A2 0.000193905
49 *419:75 *2759:A2 0.000331003
50 *419:75 *753:45 0.000852826
51 *419:85 *2759:A2 4.85989e-05
52 *428:57 *753:29 0
53 *443:26 *2759:A2 0.000138662
54 *500:69 *753:29 7.41045e-05
55 *597:113 *753:29 0.000166197
56 *682:12 *753:29 9.12573e-05
57 *682:22 *753:29 1.63175e-05
*RES
1 *3465:X *753:4 1.6 
2 *753:4 *2752:A2 10.895 
3 *753:4 *753:29 44.83 
4 *753:29 *753:31 1.83 
5 *753:31 *753:45 29.08 
6 *753:45 *2759:A2 15.95 
7 *753:45 *2684:A2 1.96 
8 *753:31 *2765:B 1.6 
9 *753:29 *2703:B 1.6 
*END

*D_NET *754 0.00125301
*CONN
*I *2897:A0 I *D sky130_fd_sc_hd__mux2_1
*I *3415:X O *D sky130_fd_sc_hd__dlygate4sd3_1
*CAP
1 *2897:A0 0.000279282
2 *3415:X 0.000279282
3 *2897:A0 *915:16 8.23457e-05
4 *2897:A0 *916:8 5.05437e-05
5 *2740:A2 *2897:A0 0.000113841
6 *2897:S *2897:A0 1.91597e-05
7 *2900:A *2897:A0 0.000284232
8 *221:12 *2897:A0 2.25695e-05
9 *322:104 *2897:A0 5.20968e-05
10 *366:20 *2897:A0 6.96554e-05
*RES
1 *3415:X *2897:A0 13.335 
*END

*D_NET *755 0.000248721
*CONN
*I *3079:A0 I *D sky130_fd_sc_hd__mux2_1
*I *3416:X O *D sky130_fd_sc_hd__dlygate4sd3_1
*CAP
1 *3079:A0 7.41644e-05
2 *3416:X 7.41644e-05
3 *3079:A1 *3079:A0 2.87686e-05
4 *187:83 *3079:A0 7.1624e-05
*RES
1 *3416:X *3079:A0 8.52 
*END

*D_NET *756 0.000395789
*CONN
*I *2597:A1 I *D sky130_fd_sc_hd__mux2_1
*I *3417:X O *D sky130_fd_sc_hd__dlygate4sd3_1
*CAP
1 *2597:A1 0.000120494
2 *3417:X 0.000120494
3 *316:60 *2597:A1 0.000154801
*RES
1 *3417:X *2597:A1 4.685 
*END

*D_NET *757 0.000417262
*CONN
*I *2903:A0 I *D sky130_fd_sc_hd__mux2_1
*I *3418:X O *D sky130_fd_sc_hd__dlygate4sd3_1
*CAP
1 *2903:A0 5.98143e-05
2 *3418:X 5.98143e-05
3 *2903:A0 *3393:A 0.000105508
4 *2903:A0 *3418:A 0.000192125
*RES
1 *3418:X *2903:A0 5.03 
*END

*D_NET *758 0.00164155
*CONN
*I *2590:A0 I *D sky130_fd_sc_hd__mux2_1
*I *3419:X O *D sky130_fd_sc_hd__dlygate4sd3_1
*CAP
1 *2590:A0 0.000361509
2 *3419:X 0.000361509
3 *2567:A *2590:A0 0.000134477
4 *2569:A1 *2590:A0 4.66108e-05
5 *2589:B *2590:A0 8.73147e-06
6 *2590:S *2590:A0 1.07563e-05
7 *2833:A1 *2590:A0 8.23457e-05
8 *2866:B *2590:A0 9.044e-05
9 *348:44 *2590:A0 8.40269e-05
10 *353:22 *2590:A0 5.81079e-05
11 *369:30 *2590:A0 0.000403034
*RES
1 *3419:X *2590:A0 14.43 
*END

*D_NET *759 0.000993207
*CONN
*I *2566:A1 I *D sky130_fd_sc_hd__mux2_1
*I *3420:X O *D sky130_fd_sc_hd__dlygate4sd3_1
*CAP
1 *2566:A1 0.000442716
2 *3420:X 0.000442716
3 *2566:S *2566:A1 3.44539e-05
4 *2592:S *2566:A1 0
5 *215:54 *2566:A1 9.60582e-07
6 *358:37 *2566:A1 7.23602e-05
7 *362:35 *2566:A1 0
*RES
1 *3420:X *2566:A1 12.795 
*END

*D_NET *760 0.000272956
*CONN
*I *2938:A0 I *D sky130_fd_sc_hd__mux2_1
*I *3421:X O *D sky130_fd_sc_hd__dlygate4sd3_1
*CAP
1 *2938:A0 0.000119715
2 *3421:X 0.000119715
3 *2890:A1 *2938:A0 1.14192e-05
4 *2938:A1 *2938:A0 2.21074e-05
*RES
1 *3421:X *2938:A0 5.03 
*END

*D_NET *761 0.00135502
*CONN
*I *2600:A1 I *D sky130_fd_sc_hd__mux2_1
*I *3423:X O *D sky130_fd_sc_hd__dlygate4sd3_1
*CAP
1 *2600:A1 0.000261774
2 *3423:X 0.000261774
3 *2598:A *2600:A1 0.000343641
4 *2600:S *2600:A1 4.66108e-05
5 *316:60 *2600:A1 4.66108e-05
6 *356:49 *2600:A1 0.00024783
7 *389:12 *2600:A1 1.84465e-05
8 *389:22 *2600:A1 8.17254e-05
9 *528:72 *2600:A1 4.66108e-05
10 *604:25 *2600:A1 0
*RES
1 *3423:X *2600:A1 13.56 
*END

*D_NET *762 0.000528603
*CONN
*I *2877:A1 I *D sky130_fd_sc_hd__mux2_1
*I *3424:X O *D sky130_fd_sc_hd__dlygate4sd3_1
*CAP
1 *2877:A1 0.000161321
2 *3424:X 0.000161321
3 *2877:S *2877:A1 2.28845e-05
4 *349:38 *2877:A1 4.35097e-05
5 *500:91 *2877:A1 6.72143e-05
6 *607:70 *2877:A1 7.23533e-05
*RES
1 *3424:X *2877:A1 9.825 
*END

*D_NET *763 0.00027779
*CONN
*I *2890:A0 I *D sky130_fd_sc_hd__mux2_1
*I *3425:X O *D sky130_fd_sc_hd__dlygate4sd3_1
*CAP
1 *2890:A0 0.000138895
2 *3425:X 0.000138895
*RES
1 *3425:X *2890:A0 9.285 
*END

*D_NET *764 0.0175618
*CONN
*I *2758:A2 I *D sky130_fd_sc_hd__a221o_1
*I *2689:A2 I *D sky130_fd_sc_hd__a221o_1
*I *2724:A2 I *D sky130_fd_sc_hd__a221o_1
*I *2801:A2 I *D sky130_fd_sc_hd__a22o_1
*I *3470:X O *D sky130_fd_sc_hd__clkbuf_2
*CAP
1 *2758:A2 6.36815e-05
2 *2689:A2 5.58235e-05
3 *2724:A2 0
4 *2801:A2 0.000529791
5 *3470:X 0.00142266
6 *764:66 0.000217179
7 *764:64 0.00186271
8 *764:38 0.000874091
9 *764:30 0.003532
10 *2758:A2 *2758:A1 9.50342e-06
11 *2801:A2 *3324:A 4.77719e-05
12 *764:30 *3311:A 0.000134381
13 *764:64 *2757:A1 0.000127603
14 *764:64 *2806:A1 0.000136877
15 *764:64 *2806:B2 0
16 *2564:A1 *764:30 4.9968e-05
17 *2566:S *764:30 0.000162769
18 *2589:B *764:30 5.16479e-05
19 *2688:A2 *764:64 0
20 *2689:B1 *2689:A2 6.65504e-05
21 *2689:B1 *2758:A2 4.65643e-05
22 *2690:C1 *2689:A2 2.30292e-05
23 *2690:C1 *764:66 1.12578e-05
24 *2720:B *764:30 9.04308e-05
25 *2723:B1 *2801:A2 6.88971e-05
26 *2724:B1 *2801:A2 1.60083e-05
27 *2724:B1 *764:38 0.000269739
28 *2724:C1 *2801:A2 0
29 *2728:A2 *764:64 0
30 *2728:B1 *764:64 3.14366e-05
31 *2732:A1 *764:38 0.000183203
32 *2734:A2 *764:64 0.000656177
33 *2758:C1 *2758:A2 8.45991e-05
34 *2801:B1 *2801:A2 0.000270089
35 *2809:A1 *764:30 0.000113315
36 *2809:A1 *764:64 0.000289589
37 *2866:B *764:30 0.00015806
38 *2931:B *764:64 0.00012383
39 *2945:A *2801:A2 4.77719e-05
40 *2951:A *2801:A2 2.63378e-05
41 *2955:B *2801:A2 0
42 *3033:A *2689:A2 9.53428e-06
43 *3033:A *764:64 0.000113066
44 *3033:A *764:66 0.000157959
45 *3033:B *764:64 0
46 *3034:S *2689:A2 0.000103179
47 *3034:S *2758:A2 3.09164e-05
48 *3036:S *2689:A2 2.0514e-05
49 *3036:S *764:66 0.000198945
50 *3038:A *764:64 8.28317e-05
51 *3046:S *2758:A2 0
52 *3127:CLK *764:38 4.66108e-05
53 *3127:D *764:38 0.000125043
54 *3164:D *2801:A2 9.71067e-05
55 *3193:D *764:64 0.000262582
56 *3296:A *764:30 0.000379633
57 *3297:A *764:30 2.49909e-05
58 *211:65 *2801:A2 1.0183e-05
59 *218:92 *764:38 1.4174e-05
60 *343:51 *764:30 5.48448e-05
61 *348:44 *764:30 0.000305835
62 *353:22 *764:30 0.000120536
63 *405:66 *764:64 0.000795386
64 *405:68 *764:64 0.000774645
65 *419:91 *764:64 0.000189426
66 *419:121 *764:64 0.000263504
67 *591:30 *764:30 4.13769e-05
68 *591:52 *764:30 1.79483e-05
69 *601:12 *764:30 3.79945e-05
70 *620:12 *764:30 3.66529e-05
71 *620:29 *764:30 0.000205151
72 *620:29 *764:64 0.00021189
73 *620:46 *764:64 0.000961218
74 *742:45 *2758:A2 1.2818e-05
*RES
1 *3470:X *764:30 34.61 
2 *764:30 *764:38 9.6425 
3 *764:38 *2801:A2 15.4025 
4 *764:38 *2724:A2 1.6 
5 *764:30 *764:64 49.895 
6 *764:64 *764:66 2.865 
7 *764:66 *2689:A2 3.2725 
8 *764:66 *2758:A2 7.35875 
*END

*D_NET *765 0.00150994
*CONN
*I *2612:A1 I *D sky130_fd_sc_hd__mux2_1
*I *3426:X O *D sky130_fd_sc_hd__dlygate4sd3_1
*CAP
1 *2612:A1 0.000306469
2 *3426:X 0.000306469
3 *2612:A1 *875:8 7.5277e-05
4 *2551:A1 *2612:A1 4.99619e-05
5 *2551:S *2612:A1 6.52265e-05
6 *2564:A0 *2612:A1 7.23533e-05
7 *2612:A0 *2612:A1 0.000427587
8 *2797:B1 *2612:A1 4.05358e-05
9 *500:115 *2612:A1 0.000166056
*RES
1 *3426:X *2612:A1 14.16 
*END

*D_NET *766 0.000313867
*CONN
*I *2615:A1 I *D sky130_fd_sc_hd__mux2_1
*I *3427:X O *D sky130_fd_sc_hd__dlygate4sd3_1
*CAP
1 *2615:A1 5.25932e-05
2 *3427:X 5.25932e-05
3 *2615:A1 *854:16 3.96653e-05
4 *2615:A0 *2615:A1 8.49936e-05
5 *2617:S *2615:A1 8.40213e-05
*RES
1 *3427:X *2615:A1 4.685 
*END

*D_NET *767 0.00043607
*CONN
*I *3069:A1 I *D sky130_fd_sc_hd__mux2_1
*I *3428:X O *D sky130_fd_sc_hd__dlygate4sd3_1
*CAP
1 *3069:A1 0.000119147
2 *3428:X 0.000119147
3 *3067:A0 *3069:A1 2.30258e-05
4 *3070:A *3069:A1 4.05358e-05
5 *428:65 *3069:A1 4.77719e-05
6 *428:83 *3069:A1 8.64421e-05
*RES
1 *3428:X *3069:A1 9.21 
*END

*D_NET *768 0.000630041
*CONN
*I *2581:A1 I *D sky130_fd_sc_hd__mux2_1
*I *3429:X O *D sky130_fd_sc_hd__dlygate4sd3_1
*CAP
1 *2581:A1 0.000179458
2 *3429:X 0.000179458
3 *2573:A *2581:A1 0.000271125
*RES
1 *3429:X *2581:A1 5.72 
*END

*D_NET *769 0.000770126
*CONN
*I *2610:A1 I *D sky130_fd_sc_hd__mux2_1
*I *3430:X O *D sky130_fd_sc_hd__dlygate4sd3_1
*CAP
1 *2610:A1 0.000214479
2 *3430:X 0.000214479
3 *2610:A1 *3430:A 0.000183824
4 *2610:A1 *876:6 4.82919e-05
5 *2612:S *2610:A1 5.53249e-06
6 *2830:A1 *2610:A1 4.61744e-05
7 *566:10 *2610:A1 5.7344e-05
*RES
1 *3430:X *2610:A1 10.755 
*END

*D_NET *770 0.00044464
*CONN
*I *3112:A1 I *D sky130_fd_sc_hd__mux2_1
*I *3431:X O *D sky130_fd_sc_hd__dlygate4sd3_1
*CAP
1 *3112:A1 0.000113685
2 *3431:X 0.000113685
3 *3112:A1 *2766:A1 2.41307e-05
4 *3112:A1 *834:14 7.03219e-05
5 *3013:A *3112:A1 0.000122817
*RES
1 *3431:X *3112:A1 9.21 
*END

*D_NET *771 0.000364211
*CONN
*I *3125:A1 I *D sky130_fd_sc_hd__mux2_1
*I *3432:X O *D sky130_fd_sc_hd__dlygate4sd3_1
*CAP
1 *3125:A1 0.000127442
2 *3432:X 0.000127442
3 *2700:C *3125:A1 1.33293e-05
4 *3125:S *3125:A1 3.06427e-05
5 *511:126 *3125:A1 2.66935e-05
6 *598:44 *3125:A1 3.86607e-05
*RES
1 *3432:X *3125:A1 9.48 
*END

*D_NET *772 0.000478265
*CONN
*I *2991:A0 I *D sky130_fd_sc_hd__mux2_1
*I *3434:X O *D sky130_fd_sc_hd__dlygate4sd3_1
*CAP
1 *2991:A0 3.594e-05
2 *3434:X 3.594e-05
3 *2885:A *2991:A0 0.000197364
4 *366:104 *2991:A0 4.82919e-05
5 *366:113 *2991:A0 0.000160729
*RES
1 *3434:X *2991:A0 5.03 
*END

*D_NET *773 0.00138346
*CONN
*I *3082:A0 I *D sky130_fd_sc_hd__mux2_1
*I *3435:X O *D sky130_fd_sc_hd__dlygate4sd3_1
*CAP
1 *3082:A0 0.000300512
2 *3435:X 0.000300512
3 *2885:A *3082:A0 2.76356e-05
4 *2964:A1 *3082:A0 2.97004e-06
5 *2996:B *3082:A0 4.66108e-05
6 *3049:A *3082:A0 1.95444e-05
7 *3082:A1 *3082:A0 4.66108e-05
8 *3082:S *3082:A0 1.91597e-05
9 *3084:A1 *3082:A0 2.88602e-05
10 *197:152 *3082:A0 0.000315972
11 *366:125 *3082:A0 0.000224278
12 *595:10 *3082:A0 3.05887e-05
13 *595:27 *3082:A0 2.02052e-05
*RES
1 *3435:X *3082:A0 14.205 
*END

*D_NET *774 0.000332325
*CONN
*I *2934:A1 I *D sky130_fd_sc_hd__mux2_1
*I *3436:X O *D sky130_fd_sc_hd__dlygate4sd3_1
*CAP
1 *2934:A1 3.51384e-05
2 *3436:X 3.51384e-05
3 *2732:A3 *2934:A1 5.05521e-05
4 *2934:S *2934:A1 4.82919e-05
5 *356:79 *2934:A1 0.000163204
*RES
1 *3436:X *2934:A1 4.685 
*END

*D_NET *775 0.00834019
*CONN
*I *3411:A I *D sky130_fd_sc_hd__dlygate4sd3_1
*I *2942:A I *D sky130_fd_sc_hd__or4b_4
*I *2886:B I *D sky130_fd_sc_hd__nand2_1
*I *2823:B I *D sky130_fd_sc_hd__and3_1
*I *2843:B_N I *D sky130_fd_sc_hd__or2b_1
*I *2835:A I *D sky130_fd_sc_hd__buf_2
*I *2814:B I *D sky130_fd_sc_hd__and4_1
*I *3130:Q O *D sky130_fd_sc_hd__dfrtp_2
*CAP
1 *3411:A 0
2 *2942:A 0.000411518
3 *2886:B 4.85078e-05
4 *2823:B 0
5 *2843:B_N 3.89512e-05
6 *2835:A 0.000493624
7 *2814:B 2.89741e-05
8 *3130:Q 0.000303609
9 *775:70 0.000719232
10 *775:33 0.000606183
11 *775:29 0.000140688
12 *775:27 0.000410334
13 *775:23 0.000310406
14 *775:10 0.000558942
15 *2814:B *776:14 2.49909e-05
16 *2843:B_N *2843:A 2.52316e-05
17 *775:10 *776:14 0.000115177
18 *775:10 *777:8 9.766e-05
19 *775:23 *776:14 4.93879e-05
20 *775:23 *776:20 0.000289224
21 *775:23 *777:17 0.000166384
22 *775:23 *777:38 0.000159868
23 *775:27 *2822:A 0.0001615
24 *775:27 *777:38 0.000148919
25 *775:27 *778:27 0.000455778
26 *2578:A *2886:B 0
27 *2578:A *775:70 0
28 *2823:C *2843:B_N 1.22325e-05
29 *2841:A2 *775:10 0
30 *2841:A2 *775:23 0
31 *2847:B1 *2835:A 2.19388e-05
32 *2849:B1 *2835:A 2.73857e-05
33 *2849:B1 *775:33 1.38207e-05
34 *2851:A *775:10 0
35 *2853:A2_N *2835:A 5.17273e-05
36 *2853:B2 *2835:A 1.8731e-05
37 *2864:C *775:70 0.00031075
38 *2888:A *2886:B 4.00541e-06
39 *2888:C *2886:B 4.00541e-06
40 *2936:A *2942:A 0.000268739
41 *2936:B *2942:A 6.90381e-05
42 *2936:C *2942:A 0
43 *2942:B *2942:A 0.000112581
44 *3130:RESET_B *775:10 8.5841e-05
45 *3133:RESET_B *775:10 0
46 *211:32 *2942:A 1.17309e-05
47 *318:36 *775:70 0
48 *319:6 *2843:B_N 4.89395e-05
49 *322:48 *2942:A 0
50 *322:54 *2886:B 2.15271e-05
51 *322:56 *2886:B 1.08758e-05
52 *329:10 *2835:A 4.82919e-05
53 *329:49 *2835:A 1.91597e-05
54 *335:10 *2835:A 0.000311288
55 *339:14 *2835:A 3.61328e-05
56 *339:14 *2843:B_N 3.112e-05
57 *339:42 *2835:A 4.04087e-05
58 *339:42 *775:29 0.000110785
59 *339:42 *775:33 2.0794e-05
60 *339:42 *775:70 0.000374616
61 *339:57 *2886:B 3.45252e-05
62 *339:57 *2942:A 9.50342e-06
63 *339:57 *775:70 0.000191202
64 *378:35 *2942:A 0.000164238
65 *378:35 *775:70 8.53113e-06
66 *511:14 *775:27 8.06306e-05
67 *642:53 *775:10 0
*RES
1 *3130:Q *775:10 8.85 
2 *775:10 *2814:B 4.05 
3 *775:10 *775:23 8.225 
4 *775:23 *775:27 6.245 
5 *775:27 *775:29 1.38 
6 *775:29 *775:33 1.065 
7 *775:33 *2835:A 11.34 
8 *775:33 *2843:B_N 4.755 
9 *775:29 *2823:B 3.6 
10 *775:27 *775:70 6.735 
11 *775:70 *2886:B 4.77 
12 *775:70 *2942:A 10.95 
13 *775:23 *3411:A 1.6 
*END

*D_NET *776 0.00442872
*CONN
*I *2814:A I *D sky130_fd_sc_hd__and4_1
*I *3422:A I *D sky130_fd_sc_hd__dlygate4sd3_1
*I *2843:A I *D sky130_fd_sc_hd__or2b_1
*I *2846:A I *D sky130_fd_sc_hd__buf_2
*I *2886:A I *D sky130_fd_sc_hd__nand2_1
*I *2823:A I *D sky130_fd_sc_hd__and3_1
*I *3131:Q O *D sky130_fd_sc_hd__dfrtp_1
*CAP
1 *2814:A 0
2 *3422:A 0.000226603
3 *2843:A 0.00021915
4 *2846:A 0
5 *2886:A 0.000409484
6 *2823:A 0
7 *3131:Q 0.00012873
8 *776:31 0.00064547
9 *776:22 0.000197004
10 *776:20 0.000561107
11 *776:14 0.000283066
12 *2886:A *2887:A 0
13 *3422:A *3367:A 0.000134232
14 *776:14 *777:8 6.95753e-05
15 *776:14 *777:17 8.4792e-05
16 *776:14 *778:8 8.23457e-05
17 *2814:B *776:14 2.49909e-05
18 *2823:C *2843:A 9.57069e-05
19 *2823:C *2886:A 0.000111293
20 *2823:C *776:31 2.92137e-05
21 *2841:A2 *776:20 0
22 *2843:B_N *2843:A 2.52316e-05
23 *2888:C *2886:A 9.30787e-05
24 *3266:CLK *2886:A 0
25 *319:6 *2843:A 8.53011e-05
26 *322:48 *2886:A 4.18603e-06
27 *339:6 *776:22 0.00012398
28 *339:14 *2843:A 4.47102e-06
29 *339:42 *2886:A 0.000235215
30 *339:57 *2886:A 8.6311e-05
31 *602:32 *776:14 1.4389e-05
32 *775:10 *776:14 0.000115177
33 *775:23 *776:14 4.93879e-05
34 *775:23 *776:20 0.000289224
*RES
1 *3131:Q *776:14 8.735 
2 *776:14 *776:20 7.42 
3 *776:20 *776:22 3.21 
4 *776:22 *2823:A 1.6 
5 *776:22 *776:31 0.81 
6 *776:31 *2886:A 13.865 
7 *776:31 *2846:A 1.6 
8 *776:31 *2843:A 5.2 
9 *776:20 *3422:A 5.17 
10 *776:14 *2814:A 1.6 
*END

*D_NET *777 0.00393156
*CONN
*I *2887:A I *D sky130_fd_sc_hd__or2b_1
*I *2822:A I *D sky130_fd_sc_hd__buf_2
*I *3367:A I *D sky130_fd_sc_hd__dlygate4sd3_1
*I *2814:C I *D sky130_fd_sc_hd__and4_1
*I *3132:Q O *D sky130_fd_sc_hd__dfrtp_1
*CAP
1 *2887:A 0.00021794
2 *2822:A 2.21553e-05
3 *3367:A 0.000203653
4 *2814:C 0
5 *3132:Q 0.000271318
6 *777:38 0.00036877
7 *777:17 0.000468061
8 *777:8 0.00040705
9 *777:17 *2814:D 7.3253e-05
10 *777:17 *778:21 0.000282469
11 *777:38 *778:21 5.43499e-05
12 *777:38 *778:27 1.91597e-05
13 *2886:A *2887:A 0
14 *3134:CLK *777:8 0
15 *3134:D *777:8 2.87867e-05
16 *3266:D *2887:A 0
17 *3266:D *777:38 0.000134625
18 *3422:A *3367:A 0.000134232
19 *511:14 *2822:A 0.000160338
20 *511:14 *777:38 0.000196699
21 *602:16 *777:8 0
22 *602:16 *777:17 0
23 *602:32 *777:8 0
24 *775:10 *777:8 9.766e-05
25 *775:23 *777:17 0.000166384
26 *775:23 *777:38 0.000159868
27 *775:27 *2822:A 0.0001615
28 *775:27 *777:38 0.000148919
29 *776:14 *777:8 6.95753e-05
30 *776:14 *777:17 8.4792e-05
*RES
1 *3132:Q *777:8 8.55 
2 *777:8 *2814:C 3.6 
3 *777:8 *777:17 4.695 
4 *777:17 *3367:A 7.17 
5 *777:17 *777:38 6.785 
6 *777:38 *2822:A 3.085 
7 *777:38 *2887:A 9.02 
*END

*D_NET *778 0.00574201
*CONN
*I *3400:A I *D sky130_fd_sc_hd__dlygate4sd3_1
*I *2821:A I *D sky130_fd_sc_hd__buf_2
*I *2887:B_N I *D sky130_fd_sc_hd__or2b_1
*I *2864:B I *D sky130_fd_sc_hd__and3_1
*I *2814:D I *D sky130_fd_sc_hd__and4_1
*I *3133:Q O *D sky130_fd_sc_hd__dfrtp_1
*CAP
1 *3400:A 9.04317e-05
2 *2821:A 0
3 *2887:B_N 0.000262676
4 *2864:B 3.38751e-05
5 *2814:D 2.52032e-05
6 *3133:Q 0.000282156
7 *778:33 0.000435359
8 *778:27 0.000488171
9 *778:21 0.00066863
10 *778:8 0.000536194
11 *2850:A *778:8 0.000203178
12 *2864:C *778:33 0
13 *2865:A_N *2887:B_N 0.000102208
14 *2865:B *2887:B_N 3.57349e-05
15 *3266:CLK *2887:B_N 5.4155e-06
16 *3266:D *778:21 0.000113891
17 *318:8 *778:27 0.000194287
18 *318:8 *778:33 1.32102e-05
19 *318:23 *778:33 0.000109489
20 *318:36 *2887:B_N 3.50033e-05
21 *318:36 *778:33 6.6817e-05
22 *334:18 *2814:D 3.92424e-05
23 *334:18 *778:21 6.36578e-05
24 *351:10 *2887:B_N 7.23602e-05
25 *351:10 *778:33 8.53113e-06
26 *351:12 *2887:B_N 4.82863e-05
27 *352:24 *2887:B_N 0.00015639
28 *352:94 *2887:B_N 0.000313857
29 *358:16 *778:33 3.45159e-05
30 *368:12 *2887:B_N 2.8185e-05
31 *511:14 *3400:A 0.000115072
32 *511:14 *778:27 6.08213e-05
33 *511:14 *778:33 8.35157e-05
34 *527:16 *2864:B 4.82863e-05
35 *602:16 *778:21 0
36 *775:27 *778:27 0.000455778
37 *776:14 *778:8 8.23457e-05
38 *777:17 *2814:D 7.3253e-05
39 *777:17 *778:21 0.000282469
40 *777:38 *778:21 5.43499e-05
41 *777:38 *778:27 1.91597e-05
*RES
1 *3133:Q *778:8 7.155 
2 *778:8 *2814:D 4.47 
3 *778:8 *778:21 7.46 
4 *778:21 *778:27 7.29 
5 *778:27 *778:33 5.45 
6 *778:33 *2864:B 4.05 
7 *778:33 *2887:B_N 10.38 
8 *778:27 *2821:A 1.6 
9 *778:21 *3400:A 3.43 
*END

*D_NET *779 0.0139071
*CONN
*I *2815:A I *D sky130_fd_sc_hd__and4_1
*I *2960:A_N I *D sky130_fd_sc_hd__nand3b_4
*I *3048:C I *D sky130_fd_sc_hd__nand3b_4
*I *2825:A I *D sky130_fd_sc_hd__nand3_4
*I *3321:A I *D sky130_fd_sc_hd__dlygate4sd3_1
*I *2546:A I *D sky130_fd_sc_hd__or3b_4
*I *2838:A I *D sky130_fd_sc_hd__nand2_1
*I *2855:B1 I *D sky130_fd_sc_hd__a21o_1
*I *3134:Q O *D sky130_fd_sc_hd__dfrtp_4
*CAP
1 *2815:A 5.26519e-05
2 *2960:A_N 0.000161999
3 *3048:C 0
4 *2825:A 0.000513372
5 *3321:A 7.19772e-05
6 *2546:A 0
7 *2838:A 0
8 *2855:B1 0.000130338
9 *3134:Q 0.00021253
10 *779:76 0.000513372
11 *779:74 0.000955936
12 *779:59 0.00200893
13 *779:46 0.00138264
14 *779:24 0.00023482
15 *779:18 0.000611853
16 *779:12 0.000532928
17 *2815:A *2815:B 0.000158072
18 *2825:A *2825:B 0.000270941
19 *2825:A *780:94 2.42043e-05
20 *2855:B1 *2859:B2 3.09164e-05
21 *779:12 *780:14 3.72863e-05
22 *779:18 *2815:B 8.23457e-05
23 *779:18 *780:14 1.56615e-05
24 *779:18 *780:37 4.65643e-05
25 *779:18 *780:69 0.000178096
26 *779:46 *780:69 0.000501417
27 *779:46 *806:8 0
28 *779:59 *2810:B1 0
29 *779:59 *780:69 4.82919e-05
30 *779:59 *806:8 0
31 *779:59 *937:10 0
32 *779:74 *2742:A1 0.000147918
33 *2620:S *779:74 0
34 *2631:B *779:59 6.64979e-05
35 *2748:C *2825:A 0.000241738
36 *2755:C1 *779:59 0
37 *2755:C1 *779:74 0.000109025
38 *2780:A *2960:A_N 0.0002014
39 *2780:A *779:74 0.000115464
40 *2810:A1 *779:74 1.64056e-05
41 *2815:D *779:24 0.000121032
42 *2839:A1 *779:12 0.000178428
43 *2839:A1 *779:18 7.21296e-06
44 *2840:A2 *2815:A 2.75145e-05
45 *2840:A2 *779:12 2.66861e-05
46 *2854:A1 *779:18 0
47 *2856:A *2815:A 9.80943e-06
48 *2856:A *779:12 0.000113797
49 *2856:A *779:18 4.79712e-05
50 *2856:B *779:18 0.000117174
51 *3260:CLK *779:74 0.00018471
52 *3260:D *779:74 0
53 *3274:CLK *779:59 0
54 *3275:CLK *779:59 0.00033683
55 *3282:CLK *779:59 5.4155e-06
56 *174:80 *2960:A_N 2.0514e-05
57 *312:10 *2855:B1 1.25877e-05
58 *312:25 *2855:B1 0.000207304
59 *312:25 *779:24 4.26765e-05
60 *327:64 *779:74 0.000115512
61 *330:10 *779:12 6.87388e-05
62 *337:14 *779:12 2.75229e-05
63 *337:14 *779:18 5.83121e-06
64 *348:6 *3321:A 0.000268734
65 *355:22 *779:59 5.42473e-05
66 *355:22 *779:74 0.000123245
67 *355:82 *2960:A_N 0.000105002
68 *355:82 *779:74 7.77179e-05
69 *356:49 *3321:A 4.94287e-05
70 *596:33 *2960:A_N 0.000119866
71 *603:10 *779:59 0
72 *603:12 *779:59 0
73 *603:14 *779:59 0
74 *603:16 *779:59 0
75 *604:72 *779:74 0.000674656
76 *605:8 *3321:A 0.0001249
77 *605:33 *779:59 2.14129e-05
78 *605:33 *779:74 0.000554357
79 *642:26 *2855:B1 8.54595e-05
80 *684:44 *2825:A 9.4174e-05
81 *684:71 *2825:A 0.000201013
82 *720:49 *779:59 0
*RES
1 *3134:Q *779:12 10.49 
2 *779:12 *779:18 7.415 
3 *779:18 *779:24 4.19 
4 *779:24 *2855:B1 8.975 
5 *779:24 *2838:A 1.6 
6 *779:18 *779:46 7.97 
7 *779:46 *2546:A 1.6 
8 *779:46 *779:59 21.335 
9 *779:59 *3321:A 6.12 
10 *779:59 *779:74 20.805 
11 *779:74 *779:76 2 
12 *779:76 *2825:A 10.495 
13 *779:76 *3048:C 1.6 
14 *779:74 *2960:A_N 7.485 
15 *779:12 *2815:A 3.085 
*END

*D_NET *780 0.0140467
*CONN
*I *2837:A I *D sky130_fd_sc_hd__inv_2
*I *2546:B I *D sky130_fd_sc_hd__or3b_4
*I *2960:B I *D sky130_fd_sc_hd__nand3b_4
*I *3048:A_N I *D sky130_fd_sc_hd__nand3b_4
*I *2825:B I *D sky130_fd_sc_hd__nand3_4
*I *3362:A I *D sky130_fd_sc_hd__dlygate4sd3_1
*I *2858:A I *D sky130_fd_sc_hd__or2_1
*I *2859:B2 I *D sky130_fd_sc_hd__a2bb2o_1
*I *2815:B I *D sky130_fd_sc_hd__and4_1
*I *3135:Q O *D sky130_fd_sc_hd__dfrtp_4
*CAP
1 *2837:A 7.02568e-05
2 *2546:B 0
3 *2960:B 0.000139739
4 *3048:A_N 0
5 *2825:B 9.83043e-05
6 *3362:A 0.000287399
7 *2858:A 0
8 *2859:B2 0.000276996
9 *2815:B 0.000263378
10 *3135:Q 1.61468e-05
11 *780:94 0.000112681
12 *780:90 0.000914377
13 *780:77 0.00160471
14 *780:69 0.000919992
15 *780:39 0.000299706
16 *780:37 0.000515766
17 *780:14 0.000525661
18 *780:6 0.000218573
19 *3362:A *806:58 3.66286e-05
20 *3362:A *806:60 8.65961e-05
21 *780:69 *806:8 0
22 *780:77 *2711:D 4.68199e-05
23 *780:77 *805:12 0.000252275
24 *780:77 *806:8 0
25 *780:77 *806:58 0.000206464
26 *780:90 *806:58 7.14892e-06
27 *2619:B *780:90 0.000597622
28 *2627:S *780:90 3.90266e-05
29 *2749:B1 *2825:B 1.19928e-05
30 *2815:A *2815:B 0.000158072
31 *2815:C *2815:B 7.89983e-05
32 *2825:A *2825:B 0.000270941
33 *2825:A *780:94 2.42043e-05
34 *2839:A1 *2837:A 8.69182e-05
35 *2839:A1 *780:14 0.000198051
36 *2839:A1 *780:37 0.000142059
37 *2839:A2 *780:37 3.43205e-05
38 *2839:A2 *780:39 3.66286e-05
39 *2839:B1 *780:37 0
40 *2840:B1_N *2837:A 1.61831e-05
41 *2840:B1_N *780:14 0.000113797
42 *2854:A1 *780:69 1.94892e-05
43 *2855:B1 *2859:B2 3.09164e-05
44 *2856:B *2837:A 4.66108e-05
45 *2856:B *2859:B2 7.10578e-05
46 *2856:B *780:6 8.40213e-05
47 *2856:B *780:14 1.15436e-05
48 *2856:B *780:37 1.08758e-05
49 *2856:B *780:39 5.93953e-05
50 *2857:A *780:6 4.99619e-05
51 *3128:SET_B *2837:A 0.000153669
52 *3128:SET_B *780:6 2.30292e-05
53 *3135:D *2859:B2 0
54 *3263:D *780:90 4.67723e-05
55 *3458:A *780:77 0.000160974
56 *3458:A *780:90 5.0533e-05
57 *172:10 *780:90 1.79483e-05
58 *174:80 *2960:B 3.03684e-05
59 *187:124 *780:90 0.000173881
60 *211:32 *780:77 9.70699e-05
61 *211:122 *780:77 0
62 *211:122 *780:90 0
63 *312:10 *2859:B2 0.000158515
64 *322:24 *780:77 5.93757e-05
65 *332:8 *780:69 2.73658e-05
66 *332:25 *2859:B2 1.08758e-05
67 *332:25 *780:39 8.65961e-05
68 *337:14 *780:14 4.38386e-05
69 *348:91 *2960:B 0.000210273
70 *348:91 *780:90 0.000403277
71 *355:22 *3362:A 4.10476e-05
72 *527:16 *780:69 6.55328e-05
73 *527:110 *780:69 1.89685e-05
74 *527:110 *780:77 0
75 *591:86 *780:90 1.44259e-05
76 *591:90 *780:90 0
77 *602:16 *2859:B2 0
78 *631:20 *2960:B 0.00021665
79 *631:20 *780:90 0.00169153
80 *642:26 *2859:B2 8.48181e-05
81 *642:26 *780:69 0
82 *684:44 *2825:B 0.000110805
83 *684:44 *780:94 4.66108e-05
84 *779:12 *780:14 3.72863e-05
85 *779:18 *2815:B 8.23457e-05
86 *779:18 *780:14 1.56615e-05
87 *779:18 *780:37 4.65643e-05
88 *779:18 *780:69 0.000178096
89 *779:46 *780:69 0.000501417
90 *779:59 *780:69 4.82919e-05
*RES
1 *3135:Q *780:6 2.395 
2 *780:6 *780:14 5.72 
3 *780:14 *2815:B 7.335 
4 *780:14 *780:37 5.09 
5 *780:37 *780:39 1.14 
6 *780:39 *2859:B2 11.15 
7 *780:39 *2858:A 1.6 
8 *780:37 *780:69 13.06 
9 *780:69 *780:77 14.39 
10 *780:77 *3362:A 7.86 
11 *780:77 *780:90 22.8 
12 *780:90 *780:94 2.45 
13 *780:94 *2825:B 4.495 
14 *780:94 *3048:A_N 1.6 
15 *780:90 *2960:B 7.41 
16 *780:69 *2546:B 1.6 
17 *780:6 *2837:A 4.135 
*END

*D_NET *781 0.00154731
*CONN
*I *3343:A I *D sky130_fd_sc_hd__dlygate4sd3_1
*I *2826:D_N I *D sky130_fd_sc_hd__or4bb_4
*I *3361:A I *D sky130_fd_sc_hd__dlygate4sd3_1
*I *3277:Q O *D sky130_fd_sc_hd__dfrtp_1
*CAP
1 *3343:A 0.000119793
2 *2826:D_N 0.000220861
3 *3361:A 0
4 *3277:Q 4.54102e-05
5 *781:10 0.000493823
6 *781:6 0.000438165
7 *2635:A1 *781:6 2.11084e-05
8 *2659:A *2826:D_N 0.000208149
9 *11:10 *781:10 0
10 *653:26 *2826:D_N 0
11 *653:26 *781:10 0
12 *653:40 *781:10 0
*RES
1 *3277:Q *781:6 2.395 
2 *781:6 *781:10 6.44 
3 *781:10 *3361:A 3.6 
4 *781:10 *2826:D_N 7.785 
5 *781:6 *3343:A 3.43 
*END

*D_NET *782 7.53278e-05
*CONN
*I *3433:A I *D sky130_fd_sc_hd__dlygate4sd3_1
*I *3136:Q O *D sky130_fd_sc_hd__dfrtp_1
*CAP
1 *3433:A 3.76639e-05
2 *3136:Q 3.76639e-05
*RES
1 *3136:Q *3433:A 3.65 
*END

*D_NET *783 0.000345916
*CONN
*I *2812:A I *D sky130_fd_sc_hd__inv_2
*I *3359:A I *D sky130_fd_sc_hd__dlygate4sd3_1
*I *3284:Q O *D sky130_fd_sc_hd__dfrtp_1
*CAP
1 *2812:A 0
2 *3359:A 2.60746e-05
3 *3284:Q 4.83228e-05
4 *783:8 7.43974e-05
5 *3284:RESET_B *3359:A 0.000124895
6 *3284:RESET_B *783:8 1.91597e-05
7 *310:6 *3359:A 5.30673e-05
8 *653:40 *783:8 0
*RES
1 *3284:Q *783:8 2.41 
2 *783:8 *3359:A 2.74 
3 *783:8 *2812:A 1.6 
*END

*D_NET *784 0.00255312
*CONN
*I *2813:B I *D sky130_fd_sc_hd__or2_1
*I *2817:B I *D sky130_fd_sc_hd__and2_1
*I *2634:A1 I *D sky130_fd_sc_hd__o21ai_1
*I *3128:Q O *D sky130_fd_sc_hd__dfstp_1
*CAP
1 *2813:B 0.000239212
2 *2817:B 0
3 *2634:A1 0.000154175
4 *3128:Q 0.000185557
5 *784:16 0.000266305
6 *784:6 0.0005369
7 *2813:B *785:32 0
8 *2634:B1 *2634:A1 5.98004e-06
9 *2815:C *784:16 0
10 *2815:D *2634:A1 0.000210151
11 *2817:A *2634:A1 2.75145e-05
12 *2818:A *784:16 0.00018305
13 *2840:B1_N *784:6 3.34294e-06
14 *3128:SET_B *784:6 5.97125e-05
15 *8:10 *2813:B 0.000249914
16 *159:36 *2634:A1 3.30762e-05
17 *310:8 *2634:A1 1.91597e-05
18 *310:8 *784:16 2.75229e-05
19 *310:23 *2634:A1 2.24423e-05
20 *310:23 *784:16 2.50049e-05
21 *311:8 *2813:B 0
22 *313:10 *2634:A1 7.4027e-05
23 *603:16 *2634:A1 0
24 *603:22 *2813:B 6.33103e-05
25 *603:22 *784:6 2.75145e-05
26 *603:22 *784:16 0.000139245
*RES
1 *3128:Q *784:6 3.9475 
2 *784:6 *784:16 7.21 
3 *784:16 *2634:A1 9.485 
4 *784:16 *2817:B 1.6 
5 *784:6 *2813:B 9.905 
*END

*D_NET *785 0.00311134
*CONN
*I *3354:A I *D sky130_fd_sc_hd__dlygate4sd3_1
*I *2660:A I *D sky130_fd_sc_hd__or2_1
*I *2813:A I *D sky130_fd_sc_hd__or2_1
*I *2836:A I *D sky130_fd_sc_hd__nand2_1
*I *2844:A I *D sky130_fd_sc_hd__and2_1
*I *3129:Q O *D sky130_fd_sc_hd__dfrtp_1
*CAP
1 *3354:A 0.000142548
2 *2660:A 0
3 *2813:A 5.75128e-05
4 *2836:A 0
5 *2844:A 6.72493e-06
6 *3129:Q 0
7 *785:32 0.000167676
8 *785:26 0.000624773
9 *785:10 9.94219e-05
10 *785:4 0.000464758
11 *2635:A2 *3354:A 5.94041e-05
12 *2660:B *3354:A 0.000246586
13 *2660:B *785:32 0.000225189
14 *2661:A *2813:A 8.8266e-05
15 *2661:A *785:32 4.82863e-05
16 *2813:B *785:32 0
17 *2836:B *785:10 4.82919e-05
18 *2844:B *2844:A 4.99619e-05
19 *2844:B *785:10 2.956e-05
20 *3128:D *3354:A 2.90837e-05
21 *3136:D *3354:A 0.000201508
22 *310:6 *3354:A 0.00011964
23 *311:8 *3354:A 0
24 *311:8 *785:32 0
25 *330:10 *2844:A 2.30292e-05
26 *330:10 *785:10 4.82863e-05
27 *603:30 *3354:A 0.000108322
28 *603:30 *785:26 2.49909e-05
29 *603:30 *785:32 5.23362e-05
30 *698:14 *2813:A 0.000122155
31 *698:14 *785:32 2.30292e-05
*RES
1 *3129:Q *785:4 1.6 
2 *785:4 *785:10 2.115 
3 *785:10 *2844:A 2.05 
4 *785:10 *2836:A 1.6 
5 *785:4 *785:26 5.9 
6 *785:26 *785:32 5.105 
7 *785:32 *2813:A 3.43 
8 *785:32 *2660:A 1.6 
9 *785:26 *3354:A 8.85 
*END

*D_NET *786 0.00191909
*CONN
*I *2638:A1 I *D sky130_fd_sc_hd__a221o_1
*I *3332:A I *D sky130_fd_sc_hd__dlygate4sd3_1
*I *3278:Q O *D sky130_fd_sc_hd__dfrtp_1
*CAP
1 *2638:A1 0.000285986
2 *3332:A 0.000222926
3 *3278:Q 7.29918e-05
4 *786:8 0.000581904
5 *2638:A1 *2638:B1 0
6 *2630:A *2638:A1 9.37731e-05
7 *2637:A *3332:A 8.53113e-06
8 *2638:B2 *2638:A1 0.000212441
9 *2638:B2 *3332:A 0.000100536
10 *3278:CLK *786:8 2.49909e-05
11 *3279:CLK *2638:A1 7.06865e-05
12 *3279:CLK *3332:A 6.52181e-05
13 *3279:D *2638:A1 0
14 *603:95 *3332:A 0.000164686
15 *664:54 *3332:A 1.44177e-05
*RES
1 *3278:Q *786:8 4.395 
2 *786:8 *3332:A 8.43 
3 *786:8 *2638:A1 9.315 
*END

*D_NET *787 0.00131586
*CONN
*I *3278:D I *D sky130_fd_sc_hd__dfrtp_1
*I *2646:S I *D sky130_fd_sc_hd__mux2_1
*I *2668:X O *D sky130_fd_sc_hd__buf_1
*CAP
1 *3278:D 0
2 *2646:S 0.000427649
3 *2668:X 0.000109175
4 *787:8 0.000536825
5 *2646:S *2646:A0 2.97593e-05
6 *2640:S *2646:S 0
7 *2668:A *2646:S 0
8 *3264:CLK *2646:S 0.000141599
9 *3278:CLK *787:8 7.08493e-05
*RES
1 *2668:X *787:8 3.445 
2 *787:8 *2646:S 12.98 
3 *787:8 *3278:D 1.6 
*END

*D_NET *788 0.00234459
*CONN
*I *2636:A I *D sky130_fd_sc_hd__inv_2
*I *2646:A0 I *D sky130_fd_sc_hd__mux2_1
*I *3285:Q O *D sky130_fd_sc_hd__dfstp_1
*CAP
1 *2636:A 0.000320287
2 *2646:A0 0.000438042
3 *3285:Q 0
4 *788:4 0.000758329
5 *2636:A *2638:B1 4.35348e-05
6 *2636:A *2639:A 5.83121e-06
7 *2636:A *3378:A 0.000114492
8 *2638:A2 *2636:A 0.000163204
9 *2640:S *2646:A0 5.02217e-05
10 *2646:A1 *2646:A0 4.82863e-05
11 *2646:S *2646:A0 2.97593e-05
12 *3264:CLK *2646:A0 0
13 *3285:SET_B *2636:A 0.000107418
14 *3285:SET_B *2646:A0 0.000176918
15 *3389:A *2636:A 8.8266e-05
16 *688:8 *2636:A 0
*RES
1 *3285:Q *788:4 1.6 
2 *788:4 *2646:A0 11.9375 
3 *788:4 *2636:A 11.1575 
*END

*D_NET *789 0.00101829
*CONN
*I *2643:B I *D sky130_fd_sc_hd__xnor2_1
*I *3273:Q O *D sky130_fd_sc_hd__dfrtp_1
*CAP
1 *2643:B 0.000360217
2 *3273:Q 0.000360217
3 *2643:B *2643:A 3.09233e-05
4 *2644:A2 *2643:B 4.66742e-05
5 *2645:A2 *2643:B 0
6 *3273:RESET_B *2643:B 2.49909e-05
7 *315:19 *2643:B 0
8 *327:14 *2643:B 1.16578e-05
9 *605:53 *2643:B 0
10 *684:98 *2643:B 0.000183612
*RES
1 *3273:Q *2643:B 13.155 
*END

*D_NET *790 0.000137351
*CONN
*I *2642:A I *D sky130_fd_sc_hd__inv_2
*I *3272:Q O *D sky130_fd_sc_hd__dfrtp_1
*CAP
1 *2642:A 5.87395e-05
2 *3272:Q 5.87395e-05
3 *3280:RESET_B *2642:A 1.9872e-05
*RES
1 *3272:Q *2642:A 4.2275 
*END

*D_NET *791 0.00297973
*CONN
*I *2653:A1 I *D sky130_fd_sc_hd__a21o_1
*I *2664:A I *D sky130_fd_sc_hd__inv_2
*I *3137:Q O *D sky130_fd_sc_hd__dfrtp_1
*CAP
1 *2653:A1 0.000273008
2 *2664:A 0.000658586
3 *3137:Q 8.49389e-05
4 *791:8 0.00101653
5 *3129:RESET_B *2664:A 0
6 *3137:RESET_B *2664:A 4.76281e-05
7 *3286:RESET_B *2664:A 0
8 *159:12 *2653:A1 1.71013e-05
9 *159:36 *2653:A1 0
10 *603:39 *2664:A 0.000231427
11 *603:39 *791:8 7.35729e-05
12 *653:44 *2653:A1 0
13 *653:46 *2653:A1 0
14 *653:46 *2664:A 0
15 *687:18 *2653:A1 0.000486316
16 *687:18 *2664:A 9.06181e-05
*RES
1 *3137:Q *791:8 4.74 
2 *791:8 *2664:A 12.57 
3 *791:8 *2653:A1 9.315 
*END

*D_NET *792 0.00205935
*CONN
*I *2639:A I *D sky130_fd_sc_hd__inv_2
*I *2638:B1 I *D sky130_fd_sc_hd__a221o_1
*I *3279:Q O *D sky130_fd_sc_hd__dfrtp_1
*CAP
1 *2639:A 0.000103547
2 *2638:B1 0.000305271
3 *3279:Q 0.000168445
4 *792:10 0.000577262
5 *2638:B1 *3378:A 5.02217e-05
6 *2629:A *792:10 0.000139933
7 *2636:A *2638:B1 4.35348e-05
8 *2636:A *2639:A 5.83121e-06
9 *2638:A1 *2638:B1 0
10 *2638:A2 *2638:B1 8.50875e-05
11 *2638:A2 *2639:A 1.19928e-05
12 *2638:C1 *2638:B1 0.000303322
13 *2638:C1 *2639:A 3.57349e-05
14 *2640:S *2638:B1 0
15 *3279:D *2638:B1 9.50342e-06
16 *3279:D *792:10 0
17 *3389:A *2638:B1 0.000198945
18 *688:8 *792:10 2.07184e-05
*RES
1 *3279:Q *792:10 8.765 
2 *792:10 *2638:B1 12.035 
3 *792:10 *2639:A 3.355 
*END

*D_NET *793 0.000358175
*CONN
*I *3281:D I *D sky130_fd_sc_hd__dfrtp_2
*I *2666:X O *D sky130_fd_sc_hd__a31o_1
*CAP
1 *3281:D 6.56247e-05
2 *2666:X 6.56247e-05
3 *2637:A *3281:D 9.54399e-05
4 *2666:A2 *3281:D 2.75145e-05
5 *3283:RESET_B *3281:D 9.54399e-05
6 *664:54 *3281:D 8.53113e-06
*RES
1 *2666:X *3281:D 8.775 
*END

*D_NET *794 0.000823374
*CONN
*I *3282:D I *D sky130_fd_sc_hd__dfrtp_2
*I *2659:X O *D sky130_fd_sc_hd__clkbuf_1
*CAP
1 *3282:D 0.000369771
2 *2659:X 0.000369771
3 *2670:A *3282:D 8.38315e-05
4 *511:12 *3282:D 0
*RES
1 *2659:X *3282:D 12.93 
*END

*D_NET *795 0.000959097
*CONN
*I *3283:D I *D sky130_fd_sc_hd__dfrtp_4
*I *2655:X O *D sky130_fd_sc_hd__a221o_1
*CAP
1 *3283:D 0.00029517
2 *2655:X 0.00029517
3 *3283:D *2649:A 1.91597e-05
4 *3283:D *800:37 0.000189781
5 *3283:D *800:61 1.79098e-05
6 *2655:A2 *3283:D 6.07575e-06
7 *2656:B1 *3283:D 7.23602e-05
8 *3283:CLK *3283:D 6.34699e-05
*RES
1 *2655:X *3283:D 11.3138 
*END

*D_NET *796 0.000686418
*CONN
*I *3378:A I *D sky130_fd_sc_hd__dlygate4sd3_1
*I *3264:Q O *D sky130_fd_sc_hd__dfrtp_1
*CAP
1 *3378:A 0.000219964
2 *3264:Q 0.000219964
3 *2630:A *3378:A 4.99619e-05
4 *2636:A *3378:A 0.000114492
5 *2638:B1 *3378:A 5.02217e-05
6 *2640:A1 *3378:A 0
7 *3279:D *3378:A 3.18137e-05
*RES
1 *3264:Q *3378:A 11.07 
*END

*D_NET *797 0.00137943
*CONN
*I *3363:A I *D sky130_fd_sc_hd__dlygate4sd3_1
*I *2667:B I *D sky130_fd_sc_hd__and3_1
*I *2656:A2 I *D sky130_fd_sc_hd__a211oi_1
*I *3276:Q O *D sky130_fd_sc_hd__dfrtp_1
*CAP
1 *3363:A 0
2 *2667:B 6.28631e-05
3 *2656:A2 8.69731e-05
4 *3276:Q 0.000175504
5 *797:10 0.000369613
6 *797:6 0.000395281
7 *2667:B *2667:A 4.8854e-05
8 *797:10 *2667:A 9.02259e-05
9 *2655:A1 *2656:A2 0.000138551
10 *2667:C *2656:A2 1.1561e-05
*RES
1 *3276:Q *797:6 4.12 
2 *797:6 *797:10 3.225 
3 *797:10 *2656:A2 7.49 
4 *797:10 *2667:B 2.755 
5 *797:6 *3363:A 1.6 
*END

*D_NET *798 0.00536539
*CONN
*I *2656:A1 I *D sky130_fd_sc_hd__a211oi_1
*I *2649:A I *D sky130_fd_sc_hd__nor2_1
*I *2826:B I *D sky130_fd_sc_hd__or4bb_4
*I *2648:B I *D sky130_fd_sc_hd__and3b_1
*I *2657:C_N I *D sky130_fd_sc_hd__or3b_2
*I *2652:B_N I *D sky130_fd_sc_hd__and4bb_1
*I *2651:B I *D sky130_fd_sc_hd__and3_1
*I *3281:Q O *D sky130_fd_sc_hd__dfrtp_2
*CAP
1 *2656:A1 0
2 *2649:A 0.000197704
3 *2826:B 0.000203709
4 *2648:B 4.00594e-05
5 *2657:C_N 9.48167e-05
6 *2652:B_N 6.30499e-05
7 *2651:B 0.000174956
8 *3281:Q 0.000107461
9 *798:60 0.000401413
10 *798:42 0.000134876
11 *798:20 0.000398126
12 *798:14 0.000189006
13 *798:12 0.000201531
14 *798:6 0.000280106
15 *2648:B *800:61 1.19928e-05
16 *2649:A *2655:B2 1.12643e-05
17 *2649:A *799:21 1.85674e-05
18 *2649:A *800:31 0.00027559
19 *2649:A *800:37 0.000156758
20 *2651:B *2651:A 0.000175189
21 *2652:B_N *2649:B 0.00014766
22 *2652:B_N *799:42 1.08758e-05
23 *2657:C_N *2657:B 4.80285e-05
24 *2657:C_N *800:61 5.06162e-05
25 *2657:C_N *800:63 8.35118e-05
26 *2657:C_N *800:65 4.77807e-05
27 *2826:B *2655:B2 6.07575e-06
28 *2826:B *799:21 0.0001947
29 *798:12 *800:94 0.000109995
30 *798:12 *800:115 7.4027e-05
31 *798:14 *800:94 6.28498e-05
32 *798:20 *2651:A 0.000121032
33 *798:20 *799:27 2.0794e-05
34 *798:20 *799:42 8.23457e-05
35 *798:20 *800:94 7.43862e-05
36 *2651:C *798:20 4.66108e-05
37 *2655:A2 *2649:A 1.2818e-05
38 *2655:C1 *2826:B 1.19928e-05
39 *2656:B1 *798:12 0.000179015
40 *2656:B1 *798:14 7.06865e-05
41 *2656:B1 *798:20 0.000165547
42 *2665:B1 *798:6 8.49205e-05
43 *2665:B1 *798:12 0.000118081
44 *2666:A3 *2649:A 3.13354e-05
45 *3283:D *2649:A 1.91597e-05
46 *157:6 *2649:A 4.69833e-05
47 *157:10 *2649:A 0.000133163
48 *158:12 *798:20 2.85623e-05
49 *664:32 *798:6 2.93517e-05
50 *687:18 *2651:B 4.66108e-05
51 *687:18 *2652:B_N 6.97024e-05
*RES
1 *3281:Q *798:6 3.085 
2 *798:6 *798:12 5.285 
3 *798:12 *798:14 0.87 
4 *798:14 *798:20 5.885 
5 *798:20 *2651:B 5.11 
6 *798:20 *2652:B_N 3.43 
7 *798:14 *798:42 2 
8 *798:42 *2657:C_N 3.7 
9 *798:42 *2648:B 2.05 
10 *798:12 *798:60 2 
11 *798:60 *2826:B 4.12 
12 *798:60 *2649:A 7.51 
13 *798:6 *2656:A1 1.6 
*END

*D_NET *799 0.0051675
*CONN
*I *2657:B I *D sky130_fd_sc_hd__or3b_2
*I *2649:B I *D sky130_fd_sc_hd__nor2_1
*I *2650:A I *D sky130_fd_sc_hd__inv_2
*I *2652:C I *D sky130_fd_sc_hd__and4bb_1
*I *2648:C I *D sky130_fd_sc_hd__and3b_1
*I *2826:C_N I *D sky130_fd_sc_hd__or4bb_4
*I *3282:Q O *D sky130_fd_sc_hd__dfrtp_2
*CAP
1 *2657:B 0.000183937
2 *2649:B 0.000540394
3 *2650:A 0.000127787
4 *2652:C 0
5 *2648:C 0
6 *2826:C_N 2.08101e-05
7 *3282:Q 8.5886e-05
8 *799:42 0.000793907
9 *799:27 0.000259471
10 *799:21 0.000585432
11 *799:6 0.000374446
12 *2650:A *800:41 4.87939e-05
13 *2657:B *2657:A 1.79098e-05
14 *2657:B *800:65 3.94628e-05
15 *799:21 *2826:A 4.66108e-05
16 *799:21 *800:94 0.000113797
17 *799:27 *800:94 7.27194e-05
18 *799:42 *800:41 6.90254e-05
19 *2649:A *799:21 1.85674e-05
20 *2652:B_N *2649:B 0.00014766
21 *2652:B_N *799:42 1.08758e-05
22 *2655:C1 *799:21 4.80285e-05
23 *2656:B1 *799:42 6.90254e-05
24 *2657:C_N *2657:B 4.80285e-05
25 *2662:B *2649:B 0.000155949
26 *2663:A *2649:B 6.57653e-06
27 *2665:A2 *2650:A 4.66108e-05
28 *2665:B1 *2649:B 6.23949e-05
29 *2665:B1 *2650:A 0.000223468
30 *2666:B1 *2649:B 3.28696e-05
31 *2669:B *799:27 0.000119873
32 *2669:B *799:42 4.66108e-05
33 *2826:B *799:21 0.0001947
34 *3283:CLK *2649:B 0.000154216
35 *11:10 *799:21 5.57814e-05
36 *11:10 *799:27 6.17034e-05
37 *158:12 *2650:A 1.7211e-05
38 *158:12 *799:42 8.33066e-06
39 *687:18 *2650:A 0.000155489
40 *798:20 *799:27 2.0794e-05
41 *798:20 *799:42 8.23457e-05
*RES
1 *3282:Q *799:6 2.74 
2 *799:6 *2826:C_N 1.96 
3 *799:6 *799:21 7.295 
4 *799:21 *799:27 4.52 
5 *799:27 *2648:C 1.6 
6 *799:27 *799:42 6.115 
7 *799:42 *2652:C 1.6 
8 *799:42 *2650:A 8.96 
9 *799:42 *2649:B 17.94 
10 *799:21 *2657:B 5.775 
*END

*D_NET *800 0.00726263
*CONN
*I *2662:A_N I *D sky130_fd_sc_hd__and3b_1
*I *2667:A I *D sky130_fd_sc_hd__and3_1
*I *2656:C1 I *D sky130_fd_sc_hd__a211oi_1
*I *2655:B2 I *D sky130_fd_sc_hd__a221o_1
*I *2648:A_N I *D sky130_fd_sc_hd__and3b_1
*I *2826:A I *D sky130_fd_sc_hd__or4bb_4
*I *2657:A I *D sky130_fd_sc_hd__or3b_2
*I *2652:D I *D sky130_fd_sc_hd__and4bb_1
*I *2651:A I *D sky130_fd_sc_hd__and3_1
*I *2666:A1 I *D sky130_fd_sc_hd__a31o_1
*I *3283:Q O *D sky130_fd_sc_hd__dfrtp_4
*CAP
1 *2662:A_N 0
2 *2667:A 0.000250476
3 *2656:C1 0
4 *2655:B2 6.41845e-05
5 *2648:A_N 0
6 *2826:A 8.93434e-05
7 *2657:A 1.14706e-05
8 *2652:D 0
9 *2651:A 0.000107894
10 *2666:A1 2.17647e-05
11 *3283:Q 0.000157195
12 *800:115 0.000327436
13 *800:94 0.000235222
14 *800:65 0.000142587
15 *800:63 5.95389e-05
16 *800:61 0.000181865
17 *800:41 0.000207714
18 *800:37 0.000260428
19 *800:31 0.000383626
20 *800:12 0.000471999
21 *2648:B *800:61 1.19928e-05
22 *2649:A *2655:B2 1.12643e-05
23 *2649:A *800:31 0.00027559
24 *2649:A *800:37 0.000156758
25 *2650:A *800:41 4.87939e-05
26 *2651:B *2651:A 0.000175189
27 *2651:C *2651:A 3.7967e-05
28 *2655:A2 *800:37 0.00013687
29 *2655:A2 *800:41 5.08127e-05
30 *2655:A2 *800:61 1.08758e-05
31 *2655:C1 *2655:B2 1.08758e-05
32 *2656:B1 *2667:A 9.50342e-06
33 *2656:B1 *800:37 3.39944e-05
34 *2656:B1 *800:41 3.33452e-05
35 *2656:B1 *800:115 3.30762e-05
36 *2657:B *2657:A 1.79098e-05
37 *2657:B *800:65 3.94628e-05
38 *2657:C_N *800:61 5.06162e-05
39 *2657:C_N *800:63 8.35118e-05
40 *2657:C_N *800:65 4.77807e-05
41 *2658:B *2667:A 3.31204e-05
42 *2658:B *800:115 2.61015e-05
43 *2659:A *2826:A 7.41263e-05
44 *2663:A *800:31 4.77757e-05
45 *2665:B1 *800:41 3.97409e-05
46 *2666:A3 *800:31 0.000203414
47 *2666:B1 *2666:A1 6.2001e-05
48 *2666:B1 *800:12 6.61069e-05
49 *2667:B *2667:A 4.8854e-05
50 *2667:C *2667:A 0.000243079
51 *2669:B *2657:A 4.89395e-05
52 *2669:B *800:61 0.000145355
53 *2669:B *800:63 7.32625e-05
54 *2669:B *800:65 0.000146525
55 *2826:B *2655:B2 6.07575e-06
56 *3283:D *800:37 0.000189781
57 *3283:D *800:61 1.79098e-05
58 *3283:RESET_B *2666:A1 2.88322e-05
59 *3283:RESET_B *800:12 0.000175147
60 *11:10 *800:94 8.08153e-06
61 *11:23 *800:94 1.82563e-05
62 *157:6 *800:31 2.99981e-06
63 *157:10 *2655:B2 1.51429e-05
64 *158:12 *800:41 2.97608e-05
65 *163:8 *2826:A 0.000178666
66 *322:24 *2667:A 4.11198e-05
67 *322:24 *800:94 5.53249e-06
68 *322:24 *800:115 4.02505e-05
69 *603:86 *800:12 0.000163071
70 *797:10 *2667:A 9.02259e-05
71 *798:12 *800:94 0.000109995
72 *798:12 *800:115 7.4027e-05
73 *798:14 *800:94 6.28498e-05
74 *798:20 *2651:A 0.000121032
75 *798:20 *800:94 7.43862e-05
76 *799:21 *2826:A 4.66108e-05
77 *799:21 *800:94 0.000113797
78 *799:27 *800:94 7.27194e-05
79 *799:42 *800:41 6.90254e-05
*RES
1 *3283:Q *800:12 7.3875 
2 *800:12 *2666:A1 4.3425 
3 *800:12 *800:31 7.055 
4 *800:31 *800:37 5.12 
5 *800:37 *800:41 4.145 
6 *800:41 *2651:A 4.48 
7 *800:41 *2652:D 1.6 
8 *800:37 *800:61 3.845 
9 *800:61 *800:63 0.795 
10 *800:63 *800:65 1.485 
11 *800:65 *2657:A 2.05 
12 *800:65 *2826:A 8.195 
13 *800:63 *2648:A_N 1.6 
14 *800:61 *800:94 4.91 
15 *800:94 *2655:B2 4.87875 
16 *800:94 *800:115 1.935 
17 *800:115 *2656:C1 3.6 
18 *800:115 *2667:A 9.33 
19 *800:31 *2662:A_N 1.6 
*END

*D_NET *801 0.00257305
*CONN
*I *2832:A I *D sky130_fd_sc_hd__buf_2
*I *2643:A I *D sky130_fd_sc_hd__xnor2_1
*I *2869:A I *D sky130_fd_sc_hd__clkbuf_4
*I *2819:A I *D sky130_fd_sc_hd__xor2_2
*I *3274:Q O *D sky130_fd_sc_hd__dfrtp_2
*CAP
1 *2832:A 2.83889e-05
2 *2643:A 0.000122313
3 *2869:A 0.000223439
4 *2819:A 0.000177058
5 *3274:Q 0.00017189
6 *801:25 0.000426843
7 *801:21 0.000248417
8 *801:10 0.000487885
9 *801:10 *2632:A1 0
10 *801:10 *2819:B 0
11 *801:25 *2819:B 0
12 *2633:A *801:10 0.000117825
13 *2643:B *2643:A 3.09233e-05
14 *2645:A2 *2643:A 0
15 *2647:A *2643:A 0
16 *2647:A *801:25 0
17 *3305:A *801:10 5.13155e-05
18 *315:8 *801:25 1.01661e-05
19 *315:19 *2643:A 2.75538e-05
20 *327:14 *2643:A 0.000151439
21 *327:14 *801:25 9.54399e-05
22 *348:6 *2869:A 0.000113282
23 *605:53 *2869:A 8.88715e-05
*RES
1 *3274:Q *801:10 9.02 
2 *801:10 *2819:A 4.12 
3 *801:10 *801:21 2.19 
4 *801:21 *801:25 3.635 
5 *801:25 *2869:A 7.5 
6 *801:25 *2643:A 6.255 
7 *801:21 *2832:A 2.05 
*END

*D_NET *802 0.00177578
*CONN
*I *2819:B I *D sky130_fd_sc_hd__xor2_2
*I *2632:A1 I *D sky130_fd_sc_hd__mux2_1
*I *3275:Q O *D sky130_fd_sc_hd__dfrtp_1
*CAP
1 *2819:B 9.85784e-05
2 *2632:A1 0.000290295
3 *3275:Q 0
4 *802:6 0.000388874
5 *2632:A0 *2632:A1 0
6 *2632:A0 *2819:B 0
7 *2633:A *2632:A1 0
8 *163:27 *2632:A1 0.000353831
9 *322:24 *2632:A1 0.000352156
10 *653:22 *2632:A1 0.000109009
11 *653:24 *2632:A1 0.000183036
12 *801:10 *2632:A1 0
13 *801:10 *2819:B 0
14 *801:25 *2819:B 0
*RES
1 *3275:Q *802:6 3.6 
2 *802:6 *2632:A1 11.505 
3 *802:6 *2819:B 3.635 
*END

*D_NET *803 0.00473502
*CONN
*I *2680:A I *D sky130_fd_sc_hd__clkbuf_4
*I *2672:A I *D sky130_fd_sc_hd__nor4_2
*I *2694:A I *D sky130_fd_sc_hd__nor4b_1
*I *2712:D I *D sky130_fd_sc_hd__and4bb_4
*I *2711:A_N I *D sky130_fd_sc_hd__and4b_4
*I *2715:D I *D sky130_fd_sc_hd__and4b_4
*I *2686:D_N I *D sky130_fd_sc_hd__nor4b_1
*I *3265:Q O *D sky130_fd_sc_hd__dfrtp_2
*CAP
1 *2680:A 0.000318182
2 *2672:A 2.15002e-05
3 *2694:A 0
4 *2712:D 0
5 *2711:A_N 8.97169e-05
6 *2715:D 2.85323e-05
7 *2686:D_N 0.000284847
8 *3265:Q 0.000215975
9 *803:58 2.15002e-05
10 *803:56 0.000515907
11 *803:47 0.000258795
12 *803:14 0.000438732
13 *803:10 0.00031268
14 *2672:A *2672:B 0.0001249
15 *2672:A *2694:D_N 8.8266e-05
16 *2680:A *2683:C 0.000123142
17 *2686:D_N *2686:A 3.09774e-05
18 *2686:D_N *2686:B 1.27695e-05
19 *2686:D_N *804:19 0
20 *2686:D_N *805:22 2.01565e-05
21 *2711:A_N *805:16 9.80943e-06
22 *2711:A_N *806:18 0.000160641
23 *2715:D *805:22 4.77719e-05
24 *803:10 *805:22 5.12201e-05
25 *803:10 *806:24 7.47215e-05
26 *803:47 *805:22 5.44734e-05
27 *803:47 *805:44 9.09788e-06
28 *803:47 *806:24 0.00013344
29 *803:56 *2683:C 0.000210914
30 *803:56 *805:44 0.000126569
31 *803:56 *806:24 3.09164e-05
32 *3307:A *2686:D_N 0
33 *179:16 *2672:A 1.34594e-05
34 *179:16 *2680:A 0
35 *179:81 *2680:A 0
36 *179:96 *2680:A 0
37 *183:10 *2680:A 9.86532e-05
38 *212:14 *2686:D_N 0.000385993
39 *215:16 *2686:D_N 0.000350151
40 *218:152 *803:56 0
41 *322:48 *2686:D_N 2.71527e-05
42 *322:48 *803:10 6.16107e-06
43 *352:94 *803:56 0
44 *602:10 *803:10 3.72916e-05
*RES
1 *3265:Q *803:10 6.54 
2 *803:10 *803:14 2.615 
3 *803:14 *2686:D_N 12.785 
4 *803:14 *2715:D 2.41 
5 *803:14 *2711:A_N 3.43 
6 *803:10 *803:47 1.635 
7 *803:47 *2712:D 3.6 
8 *803:47 *803:56 4.185 
9 *803:56 *803:58 2 
10 *803:58 *2694:A 1.6 
11 *803:58 *2672:A 2.74 
12 *803:56 *2680:A 8.925 
*END

*D_NET *804 0.00663296
*CONN
*I *2718:C I *D sky130_fd_sc_hd__and4b_4
*I *2672:B I *D sky130_fd_sc_hd__nor4_2
*I *2678:A I *D sky130_fd_sc_hd__buf_2
*I *2712:A_N I *D sky130_fd_sc_hd__and4bb_4
*I *2711:B I *D sky130_fd_sc_hd__and4b_4
*I *2686:A I *D sky130_fd_sc_hd__nor4b_1
*I *2715:A_N I *D sky130_fd_sc_hd__and4b_4
*I *3266:Q O *D sky130_fd_sc_hd__dfrtp_2
*CAP
1 *2718:C 0
2 *2672:B 0.00020349
3 *2678:A 6.35703e-05
4 *2712:A_N 0
5 *2711:B 0.000171319
6 *2686:A 6.30688e-05
7 *2715:A_N 0
8 *3266:Q 0.000454772
9 *804:74 0.000368156
10 *804:68 0.000317149
11 *804:40 0.000319643
12 *804:21 0.000211393
13 *804:19 0.00033973
14 *804:10 0.000578449
15 *2672:B *2672:C 3.21081e-06
16 *2672:B *2694:D_N 6.1357e-05
17 *2686:A *2686:B 3.10365e-05
18 *2686:A *2686:C 0.000199405
19 *2711:B *806:12 2.75229e-05
20 *2711:B *806:18 0.000165108
21 *804:40 *2686:C 4.77757e-05
22 *804:40 *805:28 3.34788e-05
23 *804:68 *805:22 0
24 *804:68 *805:50 3.50152e-06
25 *804:74 *2683:C 2.63134e-05
26 *804:74 *805:44 3.60024e-06
27 *2672:A *2672:B 0.0001249
28 *2686:D_N *2686:A 3.09774e-05
29 *2686:D_N *804:19 0
30 *2694:B *2672:B 6.90034e-05
31 *2694:B *2678:A 0.000232584
32 *2718:B *804:74 0.000154551
33 *2718:D *804:68 4.78613e-05
34 *2718:D *804:74 1.60459e-05
35 *3266:RESET_B *804:10 6.75012e-05
36 *3461:A *2678:A 4.66108e-05
37 *3469:A *2672:B 1.14169e-05
38 *3469:A *2678:A 4.30166e-05
39 *171:10 *804:74 5.40995e-05
40 *171:29 *2672:B 5.11868e-05
41 *171:29 *2678:A 5.24964e-05
42 *178:12 *2678:A 1.67131e-05
43 *179:8 *2672:B 8.40269e-05
44 *179:16 *2672:B 5.88588e-06
45 *186:10 *804:68 5.21046e-05
46 *212:14 *804:19 4.5368e-05
47 *212:14 *804:68 1.23268e-05
48 *218:20 *2711:B 4.01535e-05
49 *322:24 *2711:B 7.35729e-05
50 *322:48 *804:10 1.0555e-05
51 *322:48 *804:19 2.74056e-05
52 *322:48 *804:40 0.000343641
53 *352:94 *2711:B 7.56277e-05
54 *352:94 *804:10 9.28066e-06
55 *527:110 *2711:B 0.000179915
56 *528:10 *2686:A 0.000273264
57 *528:10 *804:40 0.000355795
58 *602:10 *804:10 5.23362e-05
59 *602:12 *804:10 0.000116151
60 *602:14 *804:10 0.000138544
61 *642:20 *804:10 2.49909e-05
*RES
1 *3266:Q *804:10 10.98 
2 *804:10 *2715:A_N 3.6 
3 *804:10 *804:19 2.145 
4 *804:19 *804:21 2 
5 *804:21 *2686:A 4.48 
6 *804:21 *804:40 5.175 
7 *804:40 *2711:B 10.28 
8 *804:40 *2712:A_N 1.6 
9 *804:19 *804:68 5.045 
10 *804:68 *804:74 6.4 
11 *804:74 *2678:A 4.135 
12 *804:74 *2672:B 6.34 
13 *804:68 *2718:C 1.6 
*END

*D_NET *805 0.00522907
*CONN
*I *2711:D I *D sky130_fd_sc_hd__and4b_4
*I *2715:C I *D sky130_fd_sc_hd__and4b_4
*I *2683:C I *D sky130_fd_sc_hd__and4bb_4
*I *2671:A I *D sky130_fd_sc_hd__clkbuf_4
*I *2718:A_N I *D sky130_fd_sc_hd__and4b_4
*I *2712:B_N I *D sky130_fd_sc_hd__and4bb_4
*I *2686:C I *D sky130_fd_sc_hd__nor4b_1
*I *3267:Q O *D sky130_fd_sc_hd__dfrtp_2
*CAP
1 *2711:D 3.58177e-05
2 *2715:C 0
3 *2683:C 0.000270145
4 *2671:A 2.39763e-05
5 *2718:A_N 0
6 *2712:B_N 0
7 *2686:C 3.92439e-05
8 *3267:Q 0.00013439
9 *805:50 8.72889e-05
10 *805:44 0.000453763
11 *805:28 8.76388e-05
12 *805:22 0.000311186
13 *805:16 0.000433653
14 *805:12 0.000461375
15 *2686:C *2686:B 0.000213731
16 *805:12 *806:8 0.000102125
17 *805:12 *806:12 3.57349e-05
18 *805:12 *806:18 4.66108e-05
19 *805:16 *806:18 0.000174254
20 *805:28 *2686:B 0.000131937
21 *2680:A *2683:C 0.000123142
22 *2686:A *2686:C 0.000199405
23 *2686:D_N *805:22 2.01565e-05
24 *2711:A_N *805:16 9.80943e-06
25 *2715:D *805:22 4.77719e-05
26 *3469:A *2683:C 0
27 *171:10 *2683:C 0.00010901
28 *171:29 *2683:C 4.91032e-05
29 *186:10 *805:44 0
30 *211:8 *805:16 8.40213e-05
31 *211:32 *2711:D 1.52184e-05
32 *211:122 *2711:D 1.52184e-05
33 *218:10 *2671:A 0.000110668
34 *218:10 *805:50 4.99619e-05
35 *322:48 *805:22 0.000195406
36 *322:48 *805:28 4.66108e-05
37 *720:18 *2671:A 0.000122325
38 *720:18 *805:50 0.000122331
39 *780:77 *2711:D 4.68199e-05
40 *780:77 *805:12 0.000252275
41 *803:10 *805:22 5.12201e-05
42 *803:47 *805:22 5.44734e-05
43 *803:47 *805:44 9.09788e-06
44 *803:56 *2683:C 0.000210914
45 *803:56 *805:44 0.000126569
46 *804:40 *2686:C 4.77757e-05
47 *804:40 *805:28 3.34788e-05
48 *804:68 *805:22 0
49 *804:68 *805:50 3.50152e-06
50 *804:74 *2683:C 2.63134e-05
51 *804:74 *805:44 3.60024e-06
*RES
1 *3267:Q *805:12 9.305 
2 *805:12 *805:16 3.915 
3 *805:16 *805:22 5.45 
4 *805:22 *805:28 3.5 
5 *805:28 *2686:C 3.775 
6 *805:28 *2712:B_N 1.6 
7 *805:22 *805:44 2.085 
8 *805:44 *805:50 3.5 
9 *805:50 *2718:A_N 1.6 
10 *805:50 *2671:A 2.74 
11 *805:44 *2683:C 8.235 
12 *805:16 *2715:C 1.6 
13 *805:12 *2711:D 6.215 
*END

*D_NET *806 0.00589766
*CONN
*I *2679:A I *D sky130_fd_sc_hd__clkbuf_4
*I *2672:C I *D sky130_fd_sc_hd__nor4_2
*I *2694:D_N I *D sky130_fd_sc_hd__nor4b_1
*I *2711:C I *D sky130_fd_sc_hd__and4b_4
*I *2715:B I *D sky130_fd_sc_hd__and4b_4
*I *2712:C I *D sky130_fd_sc_hd__and4bb_4
*I *2686:B I *D sky130_fd_sc_hd__nor4b_1
*I *3268:Q O *D sky130_fd_sc_hd__dfrtp_4
*CAP
1 *2679:A 1.59301e-05
2 *2672:C 1.5211e-05
3 *2694:D_N 0.000123065
4 *2711:C 0
5 *2715:B 0
6 *2712:C 0
7 *2686:B 0.000258818
8 *3268:Q 0.000383828
9 *806:60 0.00021832
10 *806:58 0.000300704
11 *806:24 0.000388216
12 *806:18 0.000243505
13 *806:12 0.000188998
14 *806:8 0.000663448
15 *806:8 *2810:B1 5.11148e-06
16 *806:8 *937:10 5.92849e-05
17 *2672:A *2694:D_N 8.8266e-05
18 *2672:B *2672:C 3.21081e-06
19 *2672:B *2694:D_N 6.1357e-05
20 *2686:A *2686:B 3.10365e-05
21 *2686:C *2686:B 0.000213731
22 *2686:D_N *2686:B 1.27695e-05
23 *2711:A_N *806:18 0.000160641
24 *2711:B *806:12 2.75229e-05
25 *2711:B *806:18 0.000165108
26 *3298:A *806:8 0.00011686
27 *3298:A *806:58 3.09233e-05
28 *3362:A *806:58 3.66286e-05
29 *3362:A *806:60 8.65961e-05
30 *172:10 *806:60 2.49909e-05
31 *179:8 *2694:D_N 4.01778e-05
32 *179:8 *806:58 1.83756e-05
33 *179:8 *806:60 5.66904e-05
34 *179:16 *2694:D_N 7.60965e-05
35 *186:10 *2686:B 4.94474e-05
36 *211:8 *806:18 8.40213e-05
37 *322:24 *806:12 3.69909e-05
38 *322:48 *2686:B 6.53761e-05
39 *352:94 *806:24 7.674e-05
40 *591:90 *806:58 0.000526307
41 *779:46 *806:8 0
42 *779:59 *806:8 0
43 *780:69 *806:8 0
44 *780:77 *806:8 0
45 *780:77 *806:58 0.000206464
46 *780:90 *806:58 7.14892e-06
47 *803:10 *806:24 7.47215e-05
48 *803:47 *806:24 0.00013344
49 *803:56 *806:24 3.09164e-05
50 *805:12 *806:8 0.000102125
51 *805:12 *806:12 3.57349e-05
52 *805:12 *806:18 4.66108e-05
53 *805:16 *806:18 0.000174254
54 *805:28 *2686:B 0.000131937
*RES
1 *3268:Q *806:8 11.355 
2 *806:8 *806:12 3.485 
3 *806:12 *806:18 4.02 
4 *806:18 *806:24 6.655 
5 *806:24 *2686:B 7.015 
6 *806:24 *2712:C 1.6 
7 *806:18 *2715:B 1.6 
8 *806:12 *2711:C 1.6 
9 *806:8 *806:58 8.93 
10 *806:58 *806:60 1.83 
11 *806:60 *2694:D_N 4.465 
12 *806:60 *2672:C 1.96 
13 *806:58 *2679:A 1.96 
*END

*D_NET *807 0.0018315
*CONN
*I *2731:B I *D sky130_fd_sc_hd__and2_2
*I *2691:B I *D sky130_fd_sc_hd__and2b_1
*I *2676:A I *D sky130_fd_sc_hd__nor2b_2
*I *2673:B I *D sky130_fd_sc_hd__nor2_1
*I *3269:Q O *D sky130_fd_sc_hd__dfrtp_1
*CAP
1 *2731:B 2.06731e-05
2 *2691:B 0.000130973
3 *2676:A 0
4 *2673:B 0.00012356
5 *3269:Q 0
6 *807:23 0.000192703
7 *807:21 0.000147147
8 *807:4 0.000188304
9 *2673:B *2673:A 2.15986e-05
10 *2691:B *2691:A_N 3.42142e-05
11 *807:21 *808:27 9.54399e-05
12 *2674:A *2673:B 2.30292e-05
13 *2771:C *2691:B 6.53201e-05
14 *2771:C *2731:B 3.74161e-05
15 *2771:C *807:21 1.07797e-05
16 *2771:C *807:23 0.000163199
17 *173:8 *2673:B 0.000160641
18 *176:16 *2691:B 8.89751e-05
19 *191:14 *2691:B 9.54399e-05
20 *231:14 *807:21 7.4027e-05
21 *511:102 *807:21 0
22 *596:54 *2673:B 0.000158066
*RES
1 *3269:Q *807:4 1.6 
2 *807:4 *2673:B 4.75 
3 *807:4 *807:21 5.635 
4 *807:21 *807:23 1.485 
5 *807:23 *2676:A 1.6 
6 *807:23 *2691:B 9.005 
7 *807:21 *2731:B 2.05 
*END

*D_NET *808 0.003042
*CONN
*I *2731:A I *D sky130_fd_sc_hd__and2_2
*I *2691:A_N I *D sky130_fd_sc_hd__and2b_1
*I *2676:B_N I *D sky130_fd_sc_hd__nor2b_2
*I *2673:A I *D sky130_fd_sc_hd__nor2_1
*I *3270:Q O *D sky130_fd_sc_hd__dfrtp_1
*CAP
1 *2731:A 7.14915e-05
2 *2691:A_N 0.000181026
3 *2676:B_N 1.58483e-05
4 *2673:A 0.000150173
5 *3270:Q 0.000127069
6 *808:31 0.000394395
7 *808:27 0.000333672
8 *808:10 0.0003419
9 *2691:A_N *2745:A 0.000193806
10 *2673:B *2673:A 2.15986e-05
11 *2674:A *2673:A 0.00012657
12 *2674:A *808:10 9.50342e-06
13 *2674:A *808:27 7.4027e-05
14 *2691:B *2691:A_N 3.42142e-05
15 *2771:C *2676:B_N 4.82863e-05
16 *2771:C *2731:A 4.66108e-05
17 *2771:C *808:27 8.59365e-05
18 *2771:C *808:31 0.000357793
19 *3269:RESET_B *808:10 3.39064e-05
20 *174:10 *2673:A 8.65961e-05
21 *191:14 *2691:A_N 4.9968e-05
22 *231:14 *808:27 1.68017e-05
23 *479:10 *2691:A_N 5.83121e-06
24 *511:102 *2691:A_N 8.89829e-05
25 *596:54 *2673:A 2.0514e-05
26 *684:90 *808:10 3.00381e-05
27 *807:21 *808:27 9.54399e-05
*RES
1 *3270:Q *808:10 5.43 
2 *808:10 *2673:A 6.84 
3 *808:10 *808:27 3.89 
4 *808:27 *808:31 3.825 
5 *808:31 *2676:B_N 2.05 
6 *808:31 *2691:A_N 9.32 
7 *808:27 *2731:A 2.755 
*END

*D_NET *809 0.000565227
*CONN
*I *3320:A I *D sky130_fd_sc_hd__dlygate4sd3_1
*I *3263:Q O *D sky130_fd_sc_hd__dfxtp_1
*CAP
1 *3320:A 0.000134911
2 *3263:Q 0.000134911
3 *2626:A *3320:A 0.000270415
4 *638:8 *3320:A 2.49909e-05
*RES
1 *3263:Q *3320:A 6.08 
*END

*D_NET *810 0.00161431
*CONN
*I *3310:A I *D sky130_fd_sc_hd__dlygate4sd3_1
*I *3262:Q O *D sky130_fd_sc_hd__dfxtp_1
*CAP
1 *3310:A 0.00049409
2 *3262:Q 0.00049409
3 *2755:C1 *3310:A 3.83194e-05
4 *3262:D *3310:A 2.27566e-05
5 *3270:D *3310:A 0.000112595
6 *3272:D *3310:A 0.000119873
7 *3273:D *3310:A 1.55065e-05
8 *316:37 *3310:A 0.00018955
9 *511:102 *3310:A 9.88165e-05
10 *551:16 *3310:A 2.87133e-05
*RES
1 *3262:Q *3310:A 14.31 
*END

*D_NET *811 0.00386733
*CONN
*I *2797:A1 I *D sky130_fd_sc_hd__a22o_1
*I *3339:A I *D sky130_fd_sc_hd__dlygate4sd3_1
*I *3243:Q O *D sky130_fd_sc_hd__dfxtp_1
*CAP
1 *2797:A1 0.000511188
2 *3339:A 0.000323776
3 *3243:Q 0.000144163
4 *811:8 0.000979128
5 *2797:A1 *2799:A1 0.000658652
6 *2797:A1 *818:14 0.000119219
7 *2557:A *3339:A 2.0514e-05
8 *2559:S *2797:A1 0.000203755
9 *2576:A1 *2797:A1 0.000137578
10 *2576:A1 *3339:A 0.00029989
11 *2577:A *2797:A1 0
12 *2577:A *3339:A 0
13 *3235:CLK *811:8 6.6925e-05
14 *3235:D *3339:A 0.000116158
15 *320:16 *2797:A1 7.27298e-06
16 *527:50 *2797:A1 0.000111453
17 *532:14 *2797:A1 0
18 *535:10 *2797:A1 9.42517e-05
19 *698:16 *3339:A 7.34037e-05
*RES
1 *3243:Q *811:8 5.43 
2 *811:8 *3339:A 9.99 
3 *811:8 *2797:A1 19.825 
*END

*D_NET *812 0.00321892
*CONN
*I *2714:A1 I *D sky130_fd_sc_hd__a221o_1
*I *3340:A I *D sky130_fd_sc_hd__dlygate4sd3_1
*I *3242:Q O *D sky130_fd_sc_hd__dfxtp_1
*CAP
1 *2714:A1 0.000433982
2 *3340:A 0.000108383
3 *3242:Q 0.000249623
4 *812:12 0.000791988
5 *2714:A1 *2714:B2 0.000268363
6 *2714:A1 *2793:A1 0
7 *812:12 *2714:B2 5.72004e-05
8 *2554:A1 *812:12 2.66935e-05
9 *2573:A *2714:A1 0.00016876
10 *2578:B *2714:A1 0.000164686
11 *2579:S *2714:A1 0.000195672
12 *2800:A3 *2714:A1 7.00066e-05
13 *511:22 *2714:A1 0.000683562
*RES
1 *3242:Q *812:12 7.77 
2 *812:12 *3340:A 5.085 
3 *812:12 *2714:A1 17.475 
*END

*D_NET *813 0.000571202
*CONN
*I *2793:B2 I *D sky130_fd_sc_hd__a22o_1
*I *3376:A I *D sky130_fd_sc_hd__dlygate4sd3_1
*I *3241:Q O *D sky130_fd_sc_hd__dfxtp_1
*CAP
1 *2793:B2 2.16484e-05
2 *3376:A 0
3 *3241:Q 9.29603e-05
4 *813:12 0.000114609
5 *2572:A *813:12 0
6 *2721:A2 *2793:B2 2.8185e-05
7 *2721:A2 *813:12 3.03684e-05
8 *215:54 *813:12 0.000116165
9 *405:35 *2793:B2 8.49205e-05
10 *405:35 *813:12 8.23457e-05
*RES
1 *3241:Q *813:12 7.775 
2 *813:12 *3376:A 1.6 
3 *813:12 *2793:B2 2.395 
*END

*D_NET *814 0.00188623
*CONN
*I *2719:B2 I *D sky130_fd_sc_hd__a22o_1
*I *3390:A I *D sky130_fd_sc_hd__dlygate4sd3_1
*I *3240:Q O *D sky130_fd_sc_hd__dfxtp_1
*CAP
1 *2719:B2 9.58234e-05
2 *3390:A 0.000102804
3 *3240:Q 7.27952e-05
4 *814:10 0.000271423
5 *2570:A *2719:B2 5.95312e-05
6 *2719:B1 *2719:B2 4.66108e-05
7 *2720:B *3390:A 6.08134e-05
8 *2720:B *814:10 9.14049e-05
9 *2797:B1 *3390:A 5.21999e-05
10 *185:28 *814:10 2.49909e-05
11 *187:33 *2719:B2 0.0001947
12 *218:36 *3390:A 8.65961e-05
13 *405:35 *2719:B2 0.000353994
14 *528:43 *3390:A 8.8266e-05
15 *591:30 *3390:A 0.0002014
16 *591:30 *814:10 8.28738e-05
*RES
1 *3240:Q *814:10 5.175 
2 *814:10 *3390:A 6.795 
3 *814:10 *2719:B2 7.17 
*END

*D_NET *815 0.000946238
*CONN
*I *3420:A I *D sky130_fd_sc_hd__dlygate4sd3_1
*I *2795:A1 I *D sky130_fd_sc_hd__a22o_1
*I *3239:Q O *D sky130_fd_sc_hd__dfxtp_1
*CAP
1 *3420:A 0.000181926
2 *2795:A1 0.000131591
3 *3239:Q 0
4 *815:4 0.000313518
5 *2796:B1 *2795:A1 1.37328e-05
6 *202:16 *2795:A1 2.75229e-05
7 *358:37 *2795:A1 7.69408e-05
8 *362:35 *2795:A1 2.18221e-05
9 *413:26 *2795:A1 4.80085e-05
10 *413:26 *3420:A 0.000131175
*RES
1 *3239:Q *815:4 1.6 
2 *815:4 *2795:A1 8.3 
3 *815:4 *3420:A 4.48 
*END

*D_NET *816 0.0020736
*CONN
*I *3311:A I *D sky130_fd_sc_hd__dlygate4sd3_1
*I *2717:A1 I *D sky130_fd_sc_hd__a22o_1
*I *3238:Q O *D sky130_fd_sc_hd__dfxtp_1
*CAP
1 *3311:A 0.000206585
2 *2717:A1 0.000143809
3 *3238:Q 0
4 *816:4 0.000350394
5 *2565:A *2717:A1 0
6 *2569:A1 *3311:A 1.34594e-05
7 *2590:S *3311:A 4.66742e-05
8 *2591:A *3311:A 1.4389e-05
9 *218:63 *2717:A1 0.000166346
10 *348:44 *3311:A 4.99873e-05
11 *591:30 *2717:A1 0.000164686
12 *601:12 *2717:A1 2.75229e-05
13 *620:12 *2717:A1 0.000122331
14 *620:12 *3311:A 0.000633038
15 *764:30 *3311:A 0.000134381
*RES
1 *3238:Q *816:4 1.6 
2 *816:4 *2717:A1 9.44 
3 *816:4 *3311:A 7.93 
*END

*D_NET *817 0.00265148
*CONN
*I *2798:A1 I *D sky130_fd_sc_hd__a22o_1
*I *3443:A I *D sky130_fd_sc_hd__dlygate4sd3_1
*I *3237:Q O *D sky130_fd_sc_hd__dfxtp_1
*CAP
1 *2798:A1 0.000406774
2 *3443:A 0
3 *3237:Q 0.000282569
4 *817:18 0.000689344
5 *2798:A1 *2716:A1 4.94457e-05
6 *2798:A1 *818:14 0.000297248
7 *817:18 *818:14 0.000195896
8 *2559:A0 *817:18 1.83847e-05
9 *2559:S *817:18 1.1561e-05
10 *2560:A *817:18 1.4399e-05
11 *2561:S *817:18 8.49205e-05
12 *3244:CLK *2798:A1 6.09636e-05
13 *343:32 *2798:A1 0.000321868
14 *511:55 *817:18 0.000132873
15 *532:14 *2798:A1 8.52362e-05
16 *599:27 *2798:A1 0
*RES
1 *3237:Q *817:18 10.76 
2 *817:18 *3443:A 1.6 
3 *817:18 *2798:A1 14.525 
*END

*D_NET *818 0.0042843
*CONN
*I *2716:A1 I *D sky130_fd_sc_hd__a22o_1
*I *3351:A I *D sky130_fd_sc_hd__dlygate4sd3_1
*I *3236:Q O *D sky130_fd_sc_hd__dfxtp_1
*CAP
1 *2716:A1 0.000602918
2 *3351:A 0
3 *3236:Q 0.000518484
4 *818:14 0.0011214
5 *2716:A1 *2716:B2 0.000240523
6 *2559:S *818:14 0.000162318
7 *2576:A0 *818:14 5.30673e-05
8 *2576:A1 *818:14 2.75145e-05
9 *2582:A *2716:A1 0
10 *2797:A1 *818:14 0.000119219
11 *2798:A1 *2716:A1 4.94457e-05
12 *2798:A1 *818:14 0.000297248
13 *2799:C1 *2716:A1 1.99109e-05
14 *2800:A3 *2716:A1 9.86509e-05
15 *3244:D *2716:A1 9.35656e-05
16 *3245:D *2716:A1 0.000138133
17 *197:42 *2716:A1 4.71e-05
18 *500:125 *818:14 3.99879e-05
19 *511:40 *818:14 6.34206e-05
20 *511:55 *818:14 2.75538e-05
21 *544:12 *2716:A1 0.000145924
22 *599:27 *2716:A1 4.72014e-05
23 *599:29 *2716:A1 0.000174814
24 *817:18 *818:14 0.000195896
*RES
1 *3236:Q *818:14 16.46 
2 *818:14 *3351:A 1.6 
3 *818:14 *2716:A1 19.265 
*END

*D_NET *819 0.00352338
*CONN
*I *3348:A I *D sky130_fd_sc_hd__dlygate4sd3_1
*I *2799:A1 I *D sky130_fd_sc_hd__a211o_1
*I *3235:Q O *D sky130_fd_sc_hd__dfxtp_1
*CAP
1 *3348:A 0
2 *2799:A1 0.000483314
3 *3235:Q 0.000399805
4 *819:14 0.000883119
5 *2799:A1 *2797:B2 0.000159697
6 *2799:A1 *3426:A 3.09233e-05
7 *2553:A *2799:A1 6.44287e-05
8 *2556:A1 *819:14 7.23602e-05
9 *2557:A *819:14 0
10 *2559:A1 *2799:A1 9.98831e-05
11 *2576:A1 *819:14 0
12 *2797:A1 *2799:A1 0.000658652
13 *2799:C1 *2799:A1 1.20052e-05
14 *2800:A3 *2799:A1 0.000122801
15 *3235:CLK *819:14 7.33706e-05
16 *500:115 *2799:A1 3.64998e-06
17 *527:50 *2799:A1 0.000161029
18 *532:14 *2799:A1 0
19 *532:14 *819:14 0.000204456
20 *535:10 *2799:A1 9.38844e-05
21 *599:29 *819:14 0
*RES
1 *3235:Q *819:14 12.245 
2 *819:14 *2799:A1 18.29 
3 *819:14 *3348:A 1.6 
*END

*D_NET *820 0.00317096
*CONN
*I *2714:B2 I *D sky130_fd_sc_hd__a221o_1
*I *3356:A I *D sky130_fd_sc_hd__dlygate4sd3_1
*I *3234:Q O *D sky130_fd_sc_hd__dfxtp_1
*CAP
1 *2714:B2 0.000778148
2 *3356:A 0
3 *3234:Q 0.000343222
4 *820:10 0.00112137
5 *2714:B2 *2713:B2 0
6 *2573:A *2714:B2 0.000380514
7 *2579:S *2714:B2 7.93757e-05
8 *2714:A1 *2714:B2 0.000268363
9 *2714:C1 *2714:B2 4.43871e-06
10 *2847:A2_N *2714:B2 0
11 *2847:B1 *2714:B2 0
12 *3132:D *2714:B2 0
13 *3132:D *820:10 0
14 *211:32 *2714:B2 1.12643e-05
15 *352:24 *2714:B2 6.03947e-06
16 *698:16 *820:10 0.000121023
17 *812:12 *2714:B2 5.72004e-05
*RES
1 *3234:Q *820:10 9.465 
2 *820:10 *3356:A 3.6 
3 *820:10 *2714:B2 19.8787 
*END

*D_NET *821 0.00230533
*CONN
*I *2798:B2 I *D sky130_fd_sc_hd__a22o_1
*I *3440:A I *D sky130_fd_sc_hd__dlygate4sd3_1
*I *3233:Q O *D sky130_fd_sc_hd__dfxtp_1
*CAP
1 *2798:B2 0.000282619
2 *3440:A 0.000136023
3 *3233:Q 0.000204855
4 *821:8 0.000623496
5 *2798:B2 *2797:B2 4.77807e-05
6 *2549:A0 *821:8 8.52972e-05
7 *2549:S *821:8 4.41506e-05
8 *2550:A *3440:A 0.000139245
9 *2553:A *3440:A 0.000178765
10 *2564:A0 *3440:A 0.000352566
11 *2797:A2 *2798:B2 5.14477e-05
12 *2797:B1 *2798:B2 5.44801e-05
13 *2797:B1 *821:8 4.12671e-05
14 *2798:B1 *2798:B2 4.87465e-06
15 *511:55 *3440:A 2.73058e-05
16 *527:38 *2798:B2 3.11592e-05
*RES
1 *3233:Q *821:8 4.825 
2 *821:8 *3440:A 10.04 
3 *821:8 *2798:B2 5.89 
*END

*D_NET *822 0.00385005
*CONN
*I *3345:A I *D sky130_fd_sc_hd__dlygate4sd3_1
*I *2716:B2 I *D sky130_fd_sc_hd__a22o_1
*I *3232:Q O *D sky130_fd_sc_hd__dfxtp_1
*CAP
1 *3345:A 0
2 *2716:B2 0.00122451
3 *3232:Q 0.000199666
4 *822:8 0.00142418
5 *2582:A *2716:B2 0
6 *2616:A *2716:B2 5.13081e-06
7 *2716:A1 *2716:B2 0.000240523
8 *3232:D *2716:B2 0.000121746
9 *3232:D *822:8 0.00019608
10 *197:42 *2716:B2 4.35849e-05
11 *215:24 *2716:B2 4.534e-05
12 *500:119 *2716:B2 0.000144179
13 *599:27 *2716:B2 0.000205101
*RES
1 *3232:Q *822:8 4.39 
2 *822:8 *2716:B2 13.2829 
3 *822:8 *3345:A 1.6 
*END

*D_NET *823 0.00143503
*CONN
*I *3382:A I *D sky130_fd_sc_hd__dlygate4sd3_1
*I *2772:A I *D sky130_fd_sc_hd__and3_1
*I *3231:Q O *D sky130_fd_sc_hd__dfxtp_1
*CAP
1 *3382:A 0.000176437
2 *2772:A 0.000165984
3 *3231:Q 0
4 *823:6 0.000342421
5 *2544:A1 *2772:A 8.53113e-06
6 *2544:A1 *3382:A 6.38291e-05
7 *2741:B *2772:A 0.000107263
8 *428:45 *2772:A 2.69153e-05
9 *511:102 *2772:A 9.23635e-05
10 *511:108 *2772:A 0.000286969
11 *511:108 *3382:A 0.00011852
12 *524:12 *2772:A 2.75538e-05
13 *524:12 *3382:A 1.82476e-05
14 *631:41 *2772:A 0
*RES
1 *3231:Q *823:6 3.6 
2 *823:6 *2772:A 8.49 
3 *823:6 *3382:A 6.81 
*END

*D_NET *824 0.0024004
*CONN
*I *3313:A I *D sky130_fd_sc_hd__dlygate4sd3_1
*I *2741:A I *D sky130_fd_sc_hd__and3_1
*I *3230:Q O *D sky130_fd_sc_hd__dfxtp_1
*CAP
1 *3313:A 0
2 *2741:A 0.000457477
3 *3230:Q 0.000373631
4 *824:12 0.000831108
5 *2542:A1 *2741:A 0.000605867
6 *2542:S *2741:A 8.46768e-05
7 *2543:A *2741:A 4.76437e-05
8 *3057:A0 *824:12 0
*RES
1 *3230:Q *824:12 10.1 
2 *824:12 *2741:A 11.035 
3 *824:12 *3313:A 1.6 
*END

*D_NET *825 0.00220179
*CONN
*I *3406:A I *D sky130_fd_sc_hd__dlygate4sd3_1
*I *2779:A I *D sky130_fd_sc_hd__and3_1
*I *3229:Q O *D sky130_fd_sc_hd__dfxtp_1
*CAP
1 *3406:A 7.90782e-05
2 *2779:A 0.000495681
3 *3229:Q 3.69588e-05
4 *825:8 0.000611718
5 *2779:A *2764:A1 0
6 *2779:A *841:12 0
7 *2539:S *2779:A 8.97564e-05
8 *2539:S *3406:A 2.42236e-05
9 *2695:C *2779:A 0
10 *2764:B1 *2779:A 0
11 *2779:C *2779:A 1.49976e-05
12 *2979:A *3406:A 4.70343e-05
13 *3088:S *2779:A 6.53611e-05
14 *3228:CLK *3406:A 0.000131401
15 *192:53 *2779:A 4.87056e-05
16 *192:63 *2779:A 5.7573e-05
17 *193:26 *2779:A 1.88602e-05
18 *409:115 *2779:A 1.65192e-05
19 *498:12 *2779:A 0.000132021
20 *500:28 *3406:A 0
21 *511:126 *825:8 4.66108e-05
22 *521:10 *2779:A 4.75576e-05
23 *598:27 *2779:A 0.000139933
24 *598:27 *3406:A 9.78012e-05
*RES
1 *3229:Q *825:8 4.05 
2 *825:8 *2779:A 12.78 
3 *825:8 *3406:A 6.255 
*END

*D_NET *826 0.00211647
*CONN
*I *3432:A I *D sky130_fd_sc_hd__dlygate4sd3_1
*I *2701:A1 I *D sky130_fd_sc_hd__a31o_1
*I *3228:Q O *D sky130_fd_sc_hd__dfxtp_1
*CAP
1 *3432:A 0.000151173
2 *2701:A1 0.000508666
3 *3228:Q 0
4 *826:4 0.000659839
5 *2701:A1 *2764:A1 0
6 *2701:A1 *3365:A 0
7 *2701:A1 *841:12 0
8 *2538:A *2701:A1 0
9 *2700:C *2701:A1 0.0002954
10 *2979:A *3432:A 0.000239813
11 *3091:A1 *2701:A1 2.67022e-05
12 *3229:D *2701:A1 4.11281e-05
13 *193:12 *2701:A1 9.50342e-06
14 *511:126 *2701:A1 9.76522e-05
15 *598:33 *3432:A 0
16 *598:44 *2701:A1 0
17 *598:44 *3432:A 8.65905e-05
*RES
1 *3228:Q *826:4 1.6 
2 *826:4 *2701:A1 14.93 
3 *826:4 *3432:A 9.26 
*END

*D_NET *827 0.0041353
*CONN
*I *2768:A1 I *D sky130_fd_sc_hd__a22o_1
*I *3451:A I *D sky130_fd_sc_hd__dlygate4sd3_1
*I *3227:Q O *D sky130_fd_sc_hd__dfxtp_1
*CAP
1 *2768:A1 0.000730738
2 *3451:A 0.000565755
3 *3227:Q 0
4 *827:4 0.00129649
5 *2792:A2 *3451:A 0
6 *202:83 *2768:A1 0.000179277
7 *202:96 *2768:A1 4.43871e-06
8 *343:66 *2768:A1 0.000181152
9 *419:85 *3451:A 0.000284274
10 *430:72 *2768:A1 0.000524141
11 *430:72 *3451:A 2.75229e-05
12 *443:40 *3451:A 7.3664e-05
13 *594:45 *3451:A 0.000267846
*RES
1 *3227:Q *827:4 1.6 
2 *827:4 *3451:A 13.955 
3 *827:4 *2768:A1 17.66 
*END

*D_NET *828 0.00157924
*CONN
*I *2706:A1 I *D sky130_fd_sc_hd__a22o_1
*I *3439:A I *D sky130_fd_sc_hd__dlygate4sd3_1
*I *3226:Q O *D sky130_fd_sc_hd__dfxtp_1
*CAP
1 *2706:A1 7.91528e-05
2 *3439:A 0
3 *3226:Q 0.00026305
4 *828:10 0.000342203
5 *2706:B1 *2706:A1 8.40213e-05
6 *3051:B *828:10 1.81772e-05
7 *3119:A *828:10 5.01257e-05
8 *475:59 *2706:A1 0.000157588
9 *475:59 *828:10 0.000237438
10 *742:14 *2706:A1 2.30797e-05
11 *742:14 *828:10 0.000141606
12 *742:31 *2706:A1 0.000134509
13 *742:45 *2706:A1 4.82863e-05
*RES
1 *3226:Q *828:10 9.135 
2 *828:10 *3439:A 3.6 
3 *828:10 *2706:A1 6.285 
*END

*D_NET *829 0.00166771
*CONN
*I *3373:A I *D sky130_fd_sc_hd__dlygate4sd3_1
*I *2781:A I *D sky130_fd_sc_hd__and3_1
*I *3225:Q O *D sky130_fd_sc_hd__dfxtp_1
*CAP
1 *3373:A 0.000370583
2 *2781:A 2.08101e-05
3 *3225:Q 4.33435e-05
4 *829:6 0.000434736
5 *3373:A *2743:A 2.65814e-06
6 *3373:A *3374:A 5.69105e-05
7 *3373:A *830:6 6.68675e-05
8 *2781:B *3373:A 2.19562e-06
9 *2781:B *829:6 3.1562e-06
10 *2781:C *2781:A 0
11 *3050:A *3373:A 0.000112123
12 *3117:A0 *3373:A 0.000198945
13 *3117:A1 *3373:A 3.24882e-05
14 *3117:S *3373:A 4.82863e-05
15 *348:91 *829:6 5.83121e-06
16 *355:98 *3373:A 0.000154981
17 *731:42 *3373:A 0.000113797
*RES
1 *3225:Q *829:6 2.05 
2 *829:6 *2781:A 1.96 
3 *829:6 *3373:A 13.4 
*END

*D_NET *830 0.0026821
*CONN
*I *3374:A I *D sky130_fd_sc_hd__dlygate4sd3_1
*I *2743:A I *D sky130_fd_sc_hd__and3_1
*I *3224:Q O *D sky130_fd_sc_hd__dfxtp_1
*CAP
1 *3374:A 0.00018537
2 *2743:A 0.000348532
3 *3224:Q 0.00016323
4 *830:6 0.000697132
5 *2544:A0 *2743:A 6.54674e-05
6 *2544:A0 *3374:A 4.70343e-05
7 *2743:C *2743:A 9.77488e-05
8 *2780:D *2743:A 0.000266618
9 *2781:B *2743:A 4.66108e-05
10 *2781:C *2743:A 4.79992e-05
11 *3049:A *2743:A 3.00355e-05
12 *3050:A *2743:A 9.14049e-05
13 *3086:A *2743:A 4.66108e-05
14 *3117:S *2743:A 5.39961e-05
15 *3117:S *3374:A 2.49909e-05
16 *3373:A *2743:A 2.65814e-06
17 *3373:A *3374:A 5.69105e-05
18 *3373:A *830:6 6.68675e-05
19 *192:40 *3374:A 0.00011852
20 *409:115 *2743:A 4.41741e-05
21 *731:42 *2743:A 0.000180186
*RES
1 *3224:Q *830:6 3.43 
2 *830:6 *2743:A 17.535 
3 *830:6 *3374:A 8.81 
*END

*D_NET *831 0.00377241
*CONN
*I *2771:A I *D sky130_fd_sc_hd__and3_1
*I *3312:A I *D sky130_fd_sc_hd__dlygate4sd3_1
*I *3261:Q O *D sky130_fd_sc_hd__dfxtp_1
*CAP
1 *2771:A 0.000537019
2 *3312:A 0.000159536
3 *3261:Q 6.05552e-05
4 *831:8 0.00075711
5 *2541:A *2771:A 0.000137597
6 *2587:S *831:8 8.49205e-05
7 *2588:A *2771:A 0.000143266
8 *2771:B *2771:A 1.77665e-05
9 *2771:C *2771:A 7.22366e-05
10 *3269:D *2771:A 8.42083e-05
11 *3270:D *2771:A 0.000811496
12 *3270:D *3312:A 0.000226367
13 *511:102 *2771:A 0.000451291
14 *511:102 *3312:A 0.000122783
15 *605:33 *3312:A 5.73619e-05
16 *609:53 *2771:A 0
17 *631:33 *2771:A 1.83756e-05
18 *631:41 *2771:A 3.05238e-05
*RES
1 *3261:Q *831:8 4.395 
2 *831:8 *3312:A 7.74 
3 *831:8 *2771:A 19.32 
*END

*D_NET *832 0.00324973
*CONN
*I *3318:A I *D sky130_fd_sc_hd__dlygate4sd3_1
*I *2742:A1 I *D sky130_fd_sc_hd__a31o_1
*I *3260:Q O *D sky130_fd_sc_hd__dfxtp_1
*CAP
1 *3318:A 0.000363255
2 *2742:A1 0.000685128
3 *3260:Q 0
4 *832:4 0.00104838
5 *3318:A *933:10 0
6 *2586:A *3318:A 0.000116165
7 *2620:S *2742:A1 0.000136884
8 *2675:B *2742:A1 5.99925e-05
9 *2780:A *2742:A1 0.000245007
10 *3247:CLK *3318:A 2.75145e-05
11 *3247:D *3318:A 1.43717e-05
12 *174:25 *2742:A1 6.34101e-06
13 *174:27 *2742:A1 7.07801e-05
14 *174:29 *2742:A1 0.000136413
15 *596:43 *2742:A1 0.000183043
16 *631:33 *2742:A1 8.53113e-06
17 *779:74 *2742:A1 0.000147918
*RES
1 *3260:Q *832:4 1.6 
2 *832:4 *2742:A1 19.04 
3 *832:4 *3318:A 10.19 
*END

*D_NET *833 0.00208541
*CONN
*I *3431:A I *D sky130_fd_sc_hd__dlygate4sd3_1
*I *2765:A I *D sky130_fd_sc_hd__and3_1
*I *3223:Q O *D sky130_fd_sc_hd__dfxtp_1
*CAP
1 *3431:A 0.000103103
2 *2765:A 0.000159509
3 *3223:Q 9.18671e-05
4 *833:8 0.000354479
5 *2765:A *2703:A 0.000211778
6 *2765:A *2704:A1 0.000172018
7 *2765:A *2766:A1 0
8 *3431:A *2704:A1 0.00019713
9 *2765:C *2765:A 7.32678e-05
10 *2766:B1 *2765:A 8.51862e-05
11 *3013:A *833:8 1.42598e-05
12 *3112:S *2765:A 4.31066e-05
13 *3112:S *3431:A 8.34904e-06
14 *181:69 *833:8 0.000378333
15 *500:69 *833:8 0.000102732
16 *500:83 *833:8 9.02962e-05
*RES
1 *3223:Q *833:8 7.155 
2 *833:8 *2765:A 7.7475 
3 *833:8 *3431:A 6 
*END

*D_NET *834 0.00223157
*CONN
*I *2703:A I *D sky130_fd_sc_hd__and3_1
*I *3410:A I *D sky130_fd_sc_hd__dlygate4sd3_1
*I *3222:Q O *D sky130_fd_sc_hd__dfxtp_1
*CAP
1 *2703:A 0.000167588
2 *3410:A 0
3 *3222:Q 0.00026553
4 *834:14 0.000433117
5 *834:14 *2766:A1 0
6 *2704:B1 *2703:A 0.000122337
7 *2765:A *2703:A 0.000211778
8 *2765:C *2703:A 6.94638e-05
9 *2766:B1 *2703:A 8.37704e-05
10 *2766:B1 *834:14 2.49909e-05
11 *3013:A *834:14 1.11025e-05
12 *3023:A *834:14 1.16578e-05
13 *3112:A1 *834:14 7.03219e-05
14 *3112:S *2703:A 4.82919e-05
15 *3112:S *834:14 0.000161529
16 *3113:A *834:14 7.03219e-05
17 *183:143 *2703:A 0.000106745
18 *192:104 *2703:A 5.45488e-05
19 *419:45 *834:14 4.66108e-05
20 *500:83 *834:14 0.000192583
21 *753:29 *2703:A 2.96334e-05
22 *753:31 *2703:A 2.8185e-05
23 *753:45 *2703:A 2.14655e-05
*RES
1 *3222:Q *834:14 11.21 
2 *834:14 *3410:A 1.6 
3 *834:14 *2703:A 7.24 
*END

*D_NET *835 0.00329026
*CONN
*I *3386:A I *D sky130_fd_sc_hd__dlygate4sd3_1
*I *2760:A I *D sky130_fd_sc_hd__and3_1
*I *3221:Q O *D sky130_fd_sc_hd__dfxtp_1
*CAP
1 *3386:A 0.000685129
2 *2760:A 0.000229355
3 *3221:Q 0.000135619
4 *835:10 0.0010501
5 *2760:A *2698:A 3.28911e-05
6 *2762:C1 *2760:A 4.76303e-05
7 *2995:A *2760:A 5.70924e-05
8 *2995:A *835:10 1.82476e-05
9 *3103:A *835:10 1.91597e-05
10 *3103:B *2760:A 0.000190763
11 *3103:B *835:10 0.000187014
12 *3104:A0 *2760:A 7.03276e-05
13 *3104:S *2760:A 0.000196747
14 *3219:D *3386:A 1.95718e-05
15 *192:91 *2760:A 4.89295e-05
16 *348:128 *2760:A 5.10979e-05
17 *389:63 *2760:A 0.000202811
18 *500:69 *2760:A 4.77757e-05
*RES
1 *3221:Q *835:10 6.03 
2 *835:10 *2760:A 10.53 
3 *835:10 *3386:A 13.035 
*END

*D_NET *836 0.00177401
*CONN
*I *3371:A I *D sky130_fd_sc_hd__dlygate4sd3_1
*I *2698:A I *D sky130_fd_sc_hd__and3_1
*I *3220:Q O *D sky130_fd_sc_hd__dfxtp_1
*CAP
1 *3371:A 6.2608e-05
2 *2698:A 0.000176232
3 *3220:Q 3.64453e-05
4 *836:8 0.000275286
5 *2760:A *2698:A 3.28911e-05
6 *3103:B *2698:A 0.000113721
7 *3103:B *836:8 0.000102962
8 *3104:A0 *2698:A 7.03276e-05
9 *3106:A0 *3371:A 0.000194286
10 *3219:CLK *2698:A 9.12494e-06
11 *3219:CLK *3371:A 0.000157924
12 *3219:CLK *836:8 0.000112087
13 *181:35 *2698:A 9.50963e-05
14 *181:69 *2698:A 8.09264e-05
15 *355:145 *2698:A 6.72115e-06
16 *389:63 *2698:A 0.000202811
17 *475:91 *2698:A 2.0794e-05
18 *508:14 *3371:A 2.37612e-05
*RES
1 *3220:Q *836:8 4.98 
2 *836:8 *2698:A 8.295 
3 *836:8 *3371:A 5.79 
*END

*D_NET *837 0.00205818
*CONN
*I *3364:A I *D sky130_fd_sc_hd__dlygate4sd3_1
*I *2761:A I *D sky130_fd_sc_hd__and3_1
*I *3219:Q O *D sky130_fd_sc_hd__dfxtp_1
*CAP
1 *3364:A 0.000184189
2 *2761:A 0.000234787
3 *3219:Q 0
4 *837:6 0.000418977
5 *3100:A *2761:A 0.000346467
6 *3100:A *3364:A 0.000221793
7 *3106:A0 *2761:A 0.000138106
8 *3106:A0 *3364:A 9.12494e-06
9 *183:123 *2761:A 9.57908e-05
10 *192:78 *2761:A 0.000159709
11 *355:125 *2761:A 9.07054e-05
12 *500:69 *2761:A 0.000158532
*RES
1 *3219:Q *837:6 3.6 
2 *837:6 *2761:A 11.055 
3 *837:6 *3364:A 7.395 
*END

*D_NET *838 0.00273637
*CONN
*I *3316:A I *D sky130_fd_sc_hd__dlygate4sd3_1
*I *2696:A1 I *D sky130_fd_sc_hd__a31o_1
*I *3218:Q O *D sky130_fd_sc_hd__dfxtp_1
*CAP
1 *3316:A 0.000198374
2 *2696:A1 0.000504448
3 *3218:Q 0
4 *838:4 0.000702821
5 *2696:A1 *2695:A 0.000149759
6 *2696:A1 *3365:A 0.000120186
7 *177:16 *2696:A1 0.000137571
8 *192:63 *2696:A1 7.07879e-05
9 *192:78 *2696:A1 4.65565e-05
10 *355:125 *2696:A1 0.000587578
11 *430:68 *2696:A1 0.000159741
12 *475:35 *2696:A1 5.85443e-05
13 *500:10 *2696:A1 0
14 *500:18 *2696:A1 0
*RES
1 *3218:Q *838:4 1.6 
2 *838:4 *2696:A1 18.02 
3 *838:4 *3316:A 4.735 
*END

*D_NET *839 0.00200176
*CONN
*I *3401:A I *D sky130_fd_sc_hd__dlygate4sd3_1
*I *2768:B2 I *D sky130_fd_sc_hd__a22o_1
*I *3217:Q O *D sky130_fd_sc_hd__dfxtp_1
*CAP
1 *3401:A 0
2 *2768:B2 0.000148183
3 *3217:Q 0.000388086
4 *839:14 0.000536269
5 *839:14 *2706:B2 0.000185496
6 *3094:A0 *839:14 3.64998e-06
7 *3120:A0 *2768:B2 0
8 *202:83 *2768:B2 9.50342e-06
9 *202:96 *2768:B2 0.000126679
10 *475:59 *2768:B2 0.000330434
11 *475:59 *839:14 4.66108e-05
12 *502:6 *839:14 0.00015639
13 *742:45 *839:14 7.04622e-05
*RES
1 *3217:Q *839:14 11.675 
2 *839:14 *2768:B2 9.53 
3 *839:14 *3401:A 1.6 
*END

*D_NET *840 0.00174281
*CONN
*I *3383:A I *D sky130_fd_sc_hd__dlygate4sd3_1
*I *2706:B2 I *D sky130_fd_sc_hd__a22o_1
*I *3216:Q O *D sky130_fd_sc_hd__dfxtp_1
*CAP
1 *3383:A 2.59446e-05
2 *2706:B2 0.000267321
3 *3216:Q 4.1058e-05
4 *840:8 0.000334324
5 *3018:A *2706:B2 3.79595e-05
6 *3023:A *3383:A 0.000190633
7 *3023:A *840:8 8.35068e-05
8 *3094:A0 *2706:B2 7.23602e-05
9 *3120:A0 *2706:B2 0
10 *183:143 *3383:A 0.000201508
11 *183:143 *840:8 7.67655e-05
12 *202:121 *2706:B2 0
13 *443:12 *2706:B2 0
14 *475:59 *2706:B2 7.12055e-05
15 *742:45 *2706:B2 0.00015473
16 *839:14 *2706:B2 0.000185496
*RES
1 *3216:Q *840:8 2.755 
2 *840:8 *2706:B2 11.735 
3 *840:8 *3383:A 3.43 
*END

*D_NET *841 0.00153945
*CONN
*I *3314:A I *D sky130_fd_sc_hd__dlygate4sd3_1
*I *2764:A1 I *D sky130_fd_sc_hd__a31o_1
*I *3215:Q O *D sky130_fd_sc_hd__dfxtp_1
*CAP
1 *3314:A 0.000176907
2 *2764:A1 0.000145854
3 *3215:Q 0.000173579
4 *841:12 0.000496341
5 *841:12 *3365:A 0.000147797
6 *2700:C *841:12 0
7 *2701:A1 *2764:A1 0
8 *2701:A1 *841:12 0
9 *2764:B1 *2764:A1 8.7152e-06
10 *2779:A *2764:A1 0
11 *2779:A *841:12 0
12 *3091:A1 *2764:A1 0
13 *3125:S *841:12 0.000163204
14 *193:12 *2764:A1 0
15 *430:40 *3314:A 0.000227055
*RES
1 *3215:Q *841:12 7.335 
2 *841:12 *2764:A1 5.745 
3 *841:12 *3314:A 7.155 
*END

*D_NET *842 0.00323645
*CONN
*I *2695:A I *D sky130_fd_sc_hd__and3_1
*I *3365:A I *D sky130_fd_sc_hd__dlygate4sd3_1
*I *3214:Q O *D sky130_fd_sc_hd__dfxtp_1
*CAP
1 *2695:A 4.82497e-05
2 *3365:A 0.00065241
3 *3214:Q 0.000208482
4 *842:8 0.000909142
5 *2696:A1 *2695:A 0.000149759
6 *2696:A1 *3365:A 0.000120186
7 *2701:A1 *3365:A 0
8 *3125:S *3365:A 0.000221374
9 *3214:D *3365:A 8.23457e-05
10 *3215:D *3365:A 0.000259183
11 *192:63 *2695:A 7.06865e-05
12 *192:63 *3365:A 0.000116853
13 *192:78 *2695:A 8.69088e-05
14 *598:16 *3365:A 3.7712e-05
15 *598:16 *842:8 0.000102922
16 *598:27 *3365:A 2.24342e-05
17 *841:12 *3365:A 0.000147797
*RES
1 *3214:Q *842:8 6.12 
2 *842:8 *3365:A 17.71 
3 *842:8 *2695:A 5.49 
*END

*D_NET *843 0.00252333
*CONN
*I *2778:A I *D sky130_fd_sc_hd__and3_1
*I *3388:A I *D sky130_fd_sc_hd__dlygate4sd3_1
*I *3213:Q O *D sky130_fd_sc_hd__dfxtp_1
*CAP
1 *2778:A 0.000280091
2 *3388:A 7.90075e-05
3 *3213:Q 0.000147514
4 *843:10 0.000506612
5 *3388:A *2749:A1 0.00020048
6 *843:10 *2749:A1 8.46596e-05
7 *2977:A1 *2778:A 0.000197215
8 *2978:A *3388:A 7.1624e-05
9 *3173:D *3388:A 4.47202e-05
10 *3173:D *843:10 4.83032e-05
11 *3213:D *843:10 0.000156771
12 *181:35 *3388:A 1.82571e-05
13 *428:45 *2778:A 0.000493789
14 *428:57 *2778:A 0.000194291
*RES
1 *3213:Q *843:10 6.21 
2 *843:10 *3388:A 6 
3 *843:10 *2778:A 9.915 
*END

*D_NET *844 0.00294743
*CONN
*I *3435:A I *D sky130_fd_sc_hd__dlygate4sd3_1
*I *2749:A1 I *D sky130_fd_sc_hd__a31o_1
*I *3212:Q O *D sky130_fd_sc_hd__dfxtp_1
*CAP
1 *3435:A 6.43919e-05
2 *2749:A1 0.000539321
3 *3212:Q 3.98087e-05
4 *844:8 0.000643521
5 *2755:B2 *2749:A1 0.000132176
6 *2974:S *2749:A1 0.000112266
7 *3085:A *2749:A1 4.51265e-05
8 *3173:CLK *2749:A1 0.000258682
9 *3173:CLK *3435:A 4.38051e-05
10 *3173:CLK *844:8 2.49909e-05
11 *3173:D *2749:A1 5.78212e-05
12 *3173:D *3435:A 2.9664e-05
13 *3388:A *2749:A1 0.00020048
14 *181:35 *2749:A1 9.15067e-05
15 *181:35 *3435:A 0
16 *212:92 *2749:A1 8.7152e-06
17 *212:109 *2749:A1 0.000314648
18 *348:101 *3435:A 0.000143266
19 *428:57 *2749:A1 1.0397e-05
20 *428:57 *3435:A 0.000102184
21 *753:29 *2749:A1 0
22 *843:10 *2749:A1 8.46596e-05
*RES
1 *3212:Q *844:8 4.05 
2 *844:8 *2749:A1 16.335 
3 *844:8 *3435:A 6.255 
*END

*D_NET *845 0.00146033
*CONN
*I *3416:A I *D sky130_fd_sc_hd__dlygate4sd3_1
*I *2785:A1 I *D sky130_fd_sc_hd__a22o_1
*I *3211:Q O *D sky130_fd_sc_hd__dfxtp_1
*CAP
1 *3416:A 0.000137184
2 *2785:A1 7.88919e-05
3 *3211:Q 0
4 *845:4 0.000216076
5 *2785:A1 *2785:B2 4.89395e-05
6 *3416:A *846:10 0.000283968
7 *2734:A2 *2785:A1 8.46818e-05
8 *2734:A2 *3416:A 9.47778e-05
9 *2785:B1 *2785:A1 6.31559e-05
10 *620:46 *3416:A 0.000452655
*RES
1 *3211:Q *845:4 1.6 
2 *845:4 *2785:A1 3.445 
3 *845:4 *3416:A 11.06 
*END

*D_NET *846 0.00139413
*CONN
*I *2734:A1 I *D sky130_fd_sc_hd__a22o_1
*I *3391:A I *D sky130_fd_sc_hd__dlygate4sd3_1
*I *3210:Q O *D sky130_fd_sc_hd__dfxtp_1
*CAP
1 *2734:A1 5.31349e-05
2 *3391:A 0
3 *3210:Q 0.0001862
4 *846:10 0.000239335
5 *2734:A2 *2734:A1 0.000208032
6 *2734:A2 *846:10 0.000283968
7 *3416:A *846:10 0.000283968
8 *606:6 *846:10 2.76356e-05
9 *620:46 *2734:A1 0.000111857
*RES
1 *3210:Q *846:10 8.16 
2 *846:10 *3391:A 3.6 
3 *846:10 *2734:A1 6 
*END

*D_NET *847 0.00254336
*CONN
*I *2785:B2 I *D sky130_fd_sc_hd__a22o_1
*I *3453:A I *D sky130_fd_sc_hd__dlygate4sd3_1
*I *3209:Q O *D sky130_fd_sc_hd__dfxtp_1
*CAP
1 *2785:B2 0.000456332
2 *3453:A 0.000313193
3 *3209:Q 0
4 *847:4 0.000769525
5 *2785:A1 *2785:B2 4.89395e-05
6 *2785:B1 *2785:B2 0.000156771
7 *3073:A *3453:A 2.87133e-05
8 *3208:D *3453:A 0.000199308
9 *3209:CLK *2785:B2 7.38779e-05
10 *3209:CLK *3453:A 0.000234763
11 *606:117 *2785:B2 0.00026194
*RES
1 *3209:Q *847:4 1.6 
2 *847:4 *3453:A 11.195 
3 *847:4 *2785:B2 8.635 
*END

*D_NET *848 0.00368077
*CONN
*I *2734:B2 I *D sky130_fd_sc_hd__a22o_1
*I *3335:A I *D sky130_fd_sc_hd__dlygate4sd3_1
*I *3208:Q O *D sky130_fd_sc_hd__dfxtp_1
*CAP
1 *2734:B2 0.000144804
2 *3335:A 0.000103633
3 *3208:Q 0.00045876
4 *848:10 0.000707196
5 *2734:B1 *2734:B2 0.000559707
6 *2734:B1 *3335:A 0.000154987
7 *3038:A *2734:B2 0.000156032
8 *3208:CLK *848:10 2.88357e-05
9 *3210:D *848:10 5.12766e-05
10 *218:109 *3335:A 0.000159531
11 *606:6 *848:10 0.000145603
12 *606:8 *848:10 0.00013731
13 *620:46 *2734:B2 0.000566903
14 *620:46 *3335:A 0.000306188
*RES
1 *3208:Q *848:10 9.585 
2 *848:10 *3335:A 7.275 
3 *848:10 *2734:B2 10.335 
*END

*D_NET *849 0.00281501
*CONN
*I *3428:A I *D sky130_fd_sc_hd__dlygate4sd3_1
*I *2784:A1 I *D sky130_fd_sc_hd__a22o_1
*I *3207:Q O *D sky130_fd_sc_hd__dfxtp_1
*CAP
1 *3428:A 0.00020134
2 *2784:A1 0.000209766
3 *3207:Q 0.000395337
4 *849:8 0.000806443
5 *2784:A2 *2784:A1 1.52352e-05
6 *2784:B1 *2784:A1 5.79713e-05
7 *2786:B1 *2784:A1 1.15125e-05
8 *2791:A2 *849:8 0.000566219
9 *2885:A *3428:A 8.52845e-05
10 *208:154 *2784:A1 0.000240714
11 *208:154 *3428:A 0.000225182
*RES
1 *3207:Q *849:8 8.88 
2 *849:8 *2784:A1 7.665 
3 *849:8 *3428:A 7.74 
*END

*D_NET *850 0.00214971
*CONN
*I *3326:A I *D sky130_fd_sc_hd__dlygate4sd3_1
*I *2735:A1 I *D sky130_fd_sc_hd__a211o_1
*I *3206:Q O *D sky130_fd_sc_hd__dfxtp_1
*CAP
1 *3326:A 0.000458028
2 *2735:A1 0.000330775
3 *3206:Q 0
4 *850:4 0.000788803
5 *2735:B1 *2735:A1 8.7152e-06
6 *3062:A1 *2735:A1 7.03219e-05
7 *3066:B *2735:A1 0.000195485
8 *3067:A0 *3326:A 2.01934e-05
9 *3067:A1 *3326:A 3.12683e-05
10 *3067:S *3326:A 0.000158536
11 *3068:A *2735:A1 7.87466e-06
12 *3068:A *3326:A 4.89295e-05
13 *473:74 *2735:A1 2.0851e-06
14 *473:78 *2735:A1 0
15 *500:91 *2735:A1 0
16 *607:62 *2735:A1 2.86975e-05
*RES
1 *3206:Q *850:4 1.6 
2 *850:4 *2735:A1 11.63 
3 *850:4 *3326:A 8.71 
*END

*D_NET *851 0.00381047
*CONN
*I *2784:B2 I *D sky130_fd_sc_hd__a22o_1
*I *3441:A I *D sky130_fd_sc_hd__dlygate4sd3_1
*I *3205:Q O *D sky130_fd_sc_hd__dfxtp_1
*CAP
1 *2784:B2 0.000410766
2 *3441:A 0.000169487
3 *3205:Q 0.000182395
4 *851:12 0.000762648
5 *2784:B2 *3328:A 0.00033231
6 *851:12 *3328:A 8.35157e-05
7 *2784:A2 *2784:B2 0.000103092
8 *2784:B1 *2784:B2 3.2172e-05
9 *2786:B1 *2784:B2 0.000416443
10 *2786:B1 *851:12 9.25469e-05
11 *3064:A1 *851:12 0.000122817
12 *3065:A *851:12 9.56017e-06
13 *3066:B *3441:A 0.000218711
14 *3180:CLK *2784:B2 1.19079e-05
15 *3207:D *3441:A 9.54469e-05
16 *208:121 *2784:B2 0
17 *320:64 *3441:A 0.000499492
18 *428:83 *851:12 4.77769e-05
19 *428:99 *851:12 0.000158556
20 *491:14 *2784:B2 4.28112e-06
21 *491:14 *851:12 1.91739e-05
22 *500:91 *2784:B2 1.73654e-05
23 *607:20 *851:12 2.00026e-05
*RES
1 *3205:Q *851:12 5.98 
2 *851:12 *3441:A 11.57 
3 *851:12 *2784:B2 14.315 
*END

*D_NET *852 0.0030973
*CONN
*I *3328:A I *D sky130_fd_sc_hd__dlygate4sd3_1
*I *2733:A1 I *D sky130_fd_sc_hd__a22o_1
*I *3204:Q O *D sky130_fd_sc_hd__dfxtp_1
*CAP
1 *3328:A 0.00014618
2 *2733:A1 0.000124957
3 *3204:Q 0.000210966
4 *852:8 0.000482102
5 *2733:A2 *2733:A1 0.000272283
6 *2735:B1 *2733:A1 0.000196073
7 *2735:C1 *852:8 0.000305697
8 *2784:B2 *3328:A 0.00033231
9 *3062:S *3328:A 8.7152e-06
10 *197:84 *2733:A1 8.64599e-05
11 *207:117 *2733:A1 1.54665e-05
12 *320:64 *2733:A1 0.000194144
13 *320:64 *3328:A 0.00010974
14 *482:10 *2733:A1 0.000194144
15 *482:10 *3328:A 0.000102759
16 *491:14 *3328:A 0.000231785
17 *851:12 *3328:A 8.35157e-05
*RES
1 *3204:Q *852:8 6.465 
2 *852:8 *2733:A1 8.865 
3 *852:8 *3328:A 8.88 
*END

*D_NET *853 0.00124436
*CONN
*I *2794:A1 I *D sky130_fd_sc_hd__a21o_1
*I *3402:A I *D sky130_fd_sc_hd__dlygate4sd3_1
*I *3259:Q O *D sky130_fd_sc_hd__dfxtp_1
*CAP
1 *2794:A1 8.13286e-05
2 *3402:A 0.000172295
3 *3259:Q 0.00011321
4 *853:6 0.000366834
5 *2721:A1 *2794:A1 0.000241856
6 *2800:A3 *2794:A1 0.000244224
7 *218:36 *3402:A 1.37328e-05
8 *218:36 *853:6 1.08758e-05
*RES
1 *3259:Q *853:6 2.74 
2 *853:6 *3402:A 4.045 
3 *853:6 *2794:A1 8.51 
*END

*D_NET *854 0.00202921
*CONN
*I *3427:A I *D sky130_fd_sc_hd__dlygate4sd3_1
*I *2713:A1 I *D sky130_fd_sc_hd__a22o_1
*I *3258:Q O *D sky130_fd_sc_hd__dfxtp_1
*CAP
1 *3427:A 4.00121e-05
2 *2713:A1 8.9578e-05
3 *3258:Q 0.000258849
4 *854:16 0.00038844
5 *2713:A1 *2713:B2 5.00277e-05
6 *2615:A1 *854:16 3.96653e-05
7 *2617:S *854:16 8.40269e-05
8 *2714:C1 *2713:A1 2.83801e-05
9 *2721:A1 *854:16 9.17274e-05
10 *2797:A2 *854:16 6.48748e-05
11 *2800:A3 *854:16 2.15594e-05
12 *207:42 *854:16 0.000202974
13 *211:32 *3427:A 7.66083e-05
14 *211:32 *854:16 4.82919e-05
15 *211:38 *854:16 3.87112e-05
16 *316:96 *854:16 0.00015639
17 *352:24 *854:16 0.000225918
18 *362:16 *2713:A1 1.72991e-05
19 *405:18 *2713:A1 5.04273e-05
20 *405:18 *3427:A 2.77283e-05
21 *405:18 *854:16 2.77183e-05
*RES
1 *3258:Q *854:16 12.635 
2 *854:16 *2713:A1 7.745 
3 *854:16 *3427:A 2.755 
*END

*D_NET *855 0.00223738
*CONN
*I *3395:A I *D sky130_fd_sc_hd__dlygate4sd3_1
*I *2773:A I *D sky130_fd_sc_hd__and3_1
*I *3203:Q O *D sky130_fd_sc_hd__dfxtp_1
*CAP
1 *3395:A 0.000159161
2 *2773:A 0.00066291
3 *3203:Q 9.82228e-05
4 *855:6 0.000920294
5 *3059:A0 *2773:A 4.77807e-05
6 *3059:S *2773:A 9.18556e-05
7 *3203:D *2773:A 0.000108401
8 *191:14 *2773:A 2.98587e-05
9 *191:33 *2773:A 0.0001189
*RES
1 *3203:Q *855:6 2.74 
2 *855:6 *2773:A 14.9 
3 *855:6 *3395:A 8.255 
*END

*D_NET *856 0.00282076
*CONN
*I *3413:A I *D sky130_fd_sc_hd__dlygate4sd3_1
*I *2745:A I *D sky130_fd_sc_hd__and3_1
*I *3202:Q O *D sky130_fd_sc_hd__dfxtp_1
*CAP
1 *3413:A 0.000208736
2 *2745:A 0.00094118
3 *3202:Q 0
4 *856:4 0.00114992
5 *2691:A_N *2745:A 0.000193806
6 *3202:CLK *2745:A 0.0001249
7 *3202:D *2745:A 5.37091e-05
8 *191:14 *2745:A 4.66108e-05
9 *479:10 *2745:A 0.000101898
*RES
1 *3202:Q *856:4 1.6 
2 *856:4 *2745:A 14.935 
3 *856:4 *3413:A 8.81 
*END

*D_NET *857 0.00335711
*CONN
*I *3329:A I *D sky130_fd_sc_hd__dlygate4sd3_1
*I *2786:A1 I *D sky130_fd_sc_hd__a211o_1
*I *3201:Q O *D sky130_fd_sc_hd__dfxtp_1
*CAP
1 *3329:A 0.000181703
2 *2786:A1 0.000523264
3 *3201:Q 0
4 *857:4 0.000704967
5 *2786:A1 *3341:A 4.41506e-05
6 *2735:C1 *2786:A1 1.17309e-05
7 *2786:A2 *2786:A1 0.000259627
8 *2786:B1 *2786:A1 0.000554547
9 *2791:A2 *2786:A1 2.04748e-05
10 *2792:A2 *2786:A1 0
11 *3052:A0 *3329:A 8.53113e-06
12 *3052:S *3329:A 9.61414e-05
13 *3054:S *3329:A 0.000312083
14 *3207:CLK *2786:A1 0.000241299
15 *3226:D *3329:A 9.50342e-06
16 *419:85 *2786:A1 9.18292e-06
17 *430:86 *3329:A 0
18 *430:130 *3329:A 0
19 *440:42 *2786:A1 0.000314438
20 *594:45 *3329:A 6.54674e-05
*RES
1 *3201:Q *857:4 1.6 
2 *857:4 *2786:A1 18.275 
3 *857:4 *3329:A 10.295 
*END

*D_NET *858 0.00334508
*CONN
*I *3341:A I *D sky130_fd_sc_hd__dlygate4sd3_1
*I *2733:B2 I *D sky130_fd_sc_hd__a22o_1
*I *3200:Q O *D sky130_fd_sc_hd__dfxtp_1
*CAP
1 *3341:A 0.000185333
2 *2733:B2 0.000641046
3 *3200:Q 0.000117225
4 *858:8 0.000943604
5 *2786:A1 *3341:A 4.41506e-05
6 *2786:A2 *2733:B2 0
7 *3052:S *2733:B2 7.47145e-05
8 *3052:S *3341:A 0.000114492
9 *3053:A *2733:B2 9.61344e-05
10 *3053:A *3341:A 0.000107627
11 *3065:A *2733:B2 8.36568e-05
12 *3068:A *2733:B2 0.000161622
13 *3206:CLK *2733:B2 7.76471e-05
14 *3206:D *2733:B2 0
15 *3207:CLK *2733:B2 0.000168745
16 *197:88 *2733:B2 2.69153e-05
17 *207:117 *2733:B2 2.88357e-05
18 *428:99 *2733:B2 1.64056e-05
19 *430:86 *2733:B2 0
20 *440:42 *2733:B2 0
21 *440:42 *858:8 0.00015639
22 *476:8 *3341:A 0.000184858
23 *607:10 *2733:B2 0.000115681
*RES
1 *3200:Q *858:8 5.085 
2 *858:8 *2733:B2 16.905 
3 *858:8 *3341:A 8.19 
*END

*D_NET *859 0.00130468
*CONN
*I *2758:A1 I *D sky130_fd_sc_hd__a221o_1
*I *3438:A I *D sky130_fd_sc_hd__dlygate4sd3_1
*I *3199:Q O *D sky130_fd_sc_hd__dfxtp_1
*CAP
1 *2758:A1 0.000154307
2 *3438:A 0.00013754
3 *3199:Q 9.93078e-05
4 *859:8 0.000391155
5 *2758:A1 *2758:B2 7.17811e-05
6 *2758:A1 *3337:A 8.74755e-05
7 *3438:A *3337:A 5.4003e-05
8 *2758:A2 *2758:A1 9.50342e-06
9 *2758:C1 *2758:A1 8.08153e-06
10 *3036:S *2758:A1 0
11 *3046:A1 *3438:A 0
12 *3191:D *2758:A1 8.89906e-05
13 *3191:D *3438:A 0
14 *593:121 *3438:A 0.000160174
15 *593:121 *859:8 4.23612e-05
*RES
1 *3199:Q *859:8 4.74 
2 *859:8 *3438:A 6.705 
3 *859:8 *2758:A1 7.275 
*END

*D_NET *860 0.00355491
*CONN
*I *3347:A I *D sky130_fd_sc_hd__dlygate4sd3_1
*I *2689:A1 I *D sky130_fd_sc_hd__a221o_1
*I *3198:Q O *D sky130_fd_sc_hd__dfxtp_1
*CAP
1 *3347:A 0.000447102
2 *2689:A1 0.000185639
3 *3198:Q 0.00044381
4 *860:10 0.00107655
5 *2689:A1 *3337:A 3.13447e-05
6 *860:10 *3337:A 3.67779e-05
7 *2759:B1 *3347:A 3.21081e-06
8 *3026:A0 *3347:A 0.000275548
9 *3046:S *2689:A1 0.000234853
10 *3199:D *860:10 5.37091e-05
11 *428:114 *2689:A1 0.00013669
12 *428:121 *3347:A 0.000272096
13 *470:8 *2689:A1 5.30479e-05
14 *593:106 *860:10 4.92714e-05
15 *593:121 *860:10 0.000255264
*RES
1 *3198:Q *860:10 9.75 
2 *860:10 *2689:A1 8.295 
3 *860:10 *3347:A 11.085 
*END

*D_NET *861 0.00301295
*CONN
*I *2757:A1 I *D sky130_fd_sc_hd__a22o_1
*I *3353:A I *D sky130_fd_sc_hd__dlygate4sd3_1
*I *3197:Q O *D sky130_fd_sc_hd__dfxtp_1
*CAP
1 *2757:A1 0.000305173
2 *3353:A 2.08101e-05
3 *3197:Q 0.000472867
4 *861:12 0.00079885
5 *2688:A2 *2757:A1 9.50342e-06
6 *3028:A *2757:A1 4.66108e-05
7 *3029:A0 *861:12 0.000386486
8 *3029:S *861:12 0
9 *3030:A *861:12 3.31103e-05
10 *3032:A *2757:A1 8.41777e-05
11 *3032:A *861:12 2.20014e-05
12 *3193:D *2757:A1 0.000136567
13 *620:46 *2757:A1 0.00056919
14 *764:64 *2757:A1 0.000127603
*RES
1 *3197:Q *861:12 9.685 
2 *861:12 *3353:A 1.96 
3 *861:12 *2757:A1 14.165 
*END

*D_NET *862 0.00281908
*CONN
*I *3349:A I *D sky130_fd_sc_hd__dlygate4sd3_1
*I *2688:A1 I *D sky130_fd_sc_hd__a22o_1
*I *3196:Q O *D sky130_fd_sc_hd__dfxtp_1
*CAP
1 *3349:A 0
2 *2688:A1 0.000683424
3 *3196:Q 0.000643768
4 *862:14 0.00132719
5 *2688:A1 *3323:A 3.00381e-05
6 *2688:A2 *2688:A1 2.75229e-05
7 *2689:C1 *2688:A1 1.7386e-05
8 *3034:A1 *2688:A1 1.7386e-05
9 *3042:A *862:14 0
10 *3197:D *862:14 7.23602e-05
11 *593:24 *862:14 0
12 *593:63 *862:14 0
*RES
1 *3196:Q *862:14 14.315 
2 *862:14 *2688:A1 15.275 
3 *862:14 *3349:A 1.6 
*END

*D_NET *863 0.0019123
*CONN
*I *3337:A I *D sky130_fd_sc_hd__dlygate4sd3_1
*I *2758:B2 I *D sky130_fd_sc_hd__a221o_1
*I *3195:Q O *D sky130_fd_sc_hd__dfxtp_1
*CAP
1 *3337:A 0.000103449
2 *2758:B2 5.7626e-05
3 *3195:Q 0.000307724
4 *863:8 0.000468799
5 *2689:A1 *3337:A 3.13447e-05
6 *2758:A1 *2758:B2 7.17811e-05
7 *2758:A1 *3337:A 8.74755e-05
8 *2758:C1 *2758:B2 2.48591e-05
9 *3037:A *863:8 0.00046193
10 *3044:S *2758:B2 2.65402e-05
11 *3046:A1 *3337:A 0
12 *3046:S *2758:B2 0.000136877
13 *3046:S *3337:A 4.31106e-05
14 *3438:A *3337:A 5.4003e-05
15 *860:10 *3337:A 3.67779e-05
*RES
1 *3195:Q *863:8 7.845 
2 *863:8 *2758:B2 5.475 
3 *863:8 *3337:A 6.255 
*END

*D_NET *864 0.00169344
*CONN
*I *2689:B2 I *D sky130_fd_sc_hd__a221o_1
*I *3323:A I *D sky130_fd_sc_hd__dlygate4sd3_1
*I *3194:Q O *D sky130_fd_sc_hd__dfxtp_1
*CAP
1 *2689:B2 0.000227974
2 *3323:A 0.00014905
3 *3194:Q 0.000275924
4 *864:10 0.000652949
5 *2688:A1 *3323:A 3.00381e-05
6 *2689:B1 *2689:B2 3.26889e-05
7 *3034:A0 *2689:B2 0.000123225
8 *3034:A1 *3323:A 0
9 *3034:S *2689:B2 7.03681e-05
10 *3039:A0 *3323:A 4.7043e-05
11 *3044:A0 *3323:A 1.52945e-05
12 *3044:A0 *864:10 2.46089e-05
13 *3045:A *864:10 1.67266e-05
14 *430:149 *3323:A 2.75538e-05
15 *593:63 *3323:A 0
16 *593:63 *864:10 0
*RES
1 *3194:Q *864:10 6.99 
2 *864:10 *3323:A 6.705 
3 *864:10 *2689:B2 6.975 
*END

*D_NET *865 0.00118754
*CONN
*I *2757:B2 I *D sky130_fd_sc_hd__a22o_1
*I *3448:A I *D sky130_fd_sc_hd__dlygate4sd3_1
*I *3193:Q O *D sky130_fd_sc_hd__dfxtp_1
*CAP
1 *2757:B2 0.000178458
2 *3448:A 0
3 *3193:Q 0.000257146
4 *865:12 0.000435604
5 *2757:B1 *2757:B2 0.000134938
6 *3043:A *865:12 6.44676e-05
7 *3053:A *2757:B2 1.37328e-05
8 *187:83 *865:12 1.80324e-05
9 *593:8 *865:12 8.51632e-05
10 *620:46 *865:12 0
*RES
1 *3193:Q *865:12 9.155 
2 *865:12 *3448:A 1.6 
3 *865:12 *2757:B2 4.825 
*END

*D_NET *866 0.00245846
*CONN
*I *3405:A I *D sky130_fd_sc_hd__dlygate4sd3_1
*I *2688:B2 I *D sky130_fd_sc_hd__a22o_1
*I *3192:Q O *D sky130_fd_sc_hd__dfxtp_1
*CAP
1 *3405:A 0.000101422
2 *2688:B2 0.000191835
3 *3192:Q 0.000211998
4 *866:8 0.000505255
5 *2688:B1 *2688:B2 0.000132096
6 *2758:C1 *2688:B2 0
7 *3031:S *866:8 2.67184e-05
8 *3200:CLK *3405:A 0.000119756
9 *187:83 *2688:B2 0.00035825
10 *428:114 *2688:B2 0
11 *443:52 *3405:A 0.0003227
12 *443:52 *866:8 7.35813e-05
13 *467:14 *2688:B2 0.000289698
14 *467:14 *3405:A 9.76391e-05
15 *467:14 *866:8 2.75145e-05
*RES
1 *3192:Q *866:8 5.425 
2 *866:8 *2688:B2 11.57 
3 *866:8 *3405:A 5.275 
*END

*D_NET *867 0.00128374
*CONN
*I *3412:A I *D sky130_fd_sc_hd__dlygate4sd3_1
*I *2759:A1 I *D sky130_fd_sc_hd__a211o_1
*I *3191:Q O *D sky130_fd_sc_hd__dfxtp_1
*CAP
1 *3412:A 7.58566e-05
2 *2759:A1 9.06094e-05
3 *3191:Q 0.000132707
4 *867:12 0.000299173
5 *2759:C1 *2759:A1 2.99518e-06
6 *3024:A0 *2759:A1 0.000184499
7 *3024:A0 *867:12 0
8 *3026:A0 *2759:A1 0
9 *3026:A1 *867:12 9.91257e-05
10 *3026:S *3412:A 0.000198939
11 *3026:S *867:12 0.000199833
*RES
1 *3191:Q *867:12 8.81 
2 *867:12 *2759:A1 7.745 
3 *867:12 *3412:A 3.43 
*END

*D_NET *868 0.0014697
*CONN
*I *3325:A I *D sky130_fd_sc_hd__dlygate4sd3_1
*I *2684:A1 I *D sky130_fd_sc_hd__a22o_1
*I *3190:Q O *D sky130_fd_sc_hd__dfxtp_1
*CAP
1 *3325:A 2.0132e-05
2 *2684:A1 0.000373374
3 *3190:Q 0.000249953
4 *868:8 0.000643459
5 *2684:A1 *2684:B2 4.77769e-05
6 *2759:A2 *2684:A1 7.86998e-05
7 *3024:S *2684:A1 2.88357e-05
8 *419:75 *2684:A1 2.747e-05
*RES
1 *3190:Q *868:8 5.17 
2 *868:8 *2684:A1 11.33 
3 *868:8 *3325:A 1.96 
*END

*D_NET *869 0.00230738
*CONN
*I *3409:A I *D sky130_fd_sc_hd__dlygate4sd3_1
*I *2756:A1 I *D sky130_fd_sc_hd__a22o_1
*I *3189:Q O *D sky130_fd_sc_hd__dfxtp_1
*CAP
1 *3409:A 0.000260818
2 *2756:A1 0.000426504
3 *3189:Q 0
4 *869:6 0.000687323
5 *2756:A1 *2756:B2 3.57349e-05
6 *2756:A1 *3377:A 0
7 *2756:A1 *871:14 4.66108e-05
8 *3409:A *3377:A 0
9 *2756:A2 *2756:A1 1.24356e-05
10 *2759:B1 *2756:A1 0.000120412
11 *3014:A0 *2756:A1 0
12 *3021:S *2756:A1 0
13 *3021:S *3409:A 0
14 *3022:A *3409:A 2.03321e-05
15 *3189:D *3409:A 7.4027e-05
16 *440:18 *2756:A1 0.00019895
17 *452:16 *2756:A1 2.7789e-05
18 *594:78 *2756:A1 0.000396441
*RES
1 *3189:Q *869:6 3.6 
2 *869:6 *2756:A1 12.825 
3 *869:6 *3409:A 7.845 
*END

*D_NET *870 0.0023029
*CONN
*I *3398:A I *D sky130_fd_sc_hd__dlygate4sd3_1
*I *2690:A1 I *D sky130_fd_sc_hd__a211o_1
*I *3188:Q O *D sky130_fd_sc_hd__dfxtp_1
*CAP
1 *3398:A 0.000121588
2 *2690:A1 0.000469835
3 *3188:Q 8.27216e-05
4 *870:8 0.000674145
5 *2690:A1 *2756:B2 0.000157929
6 *2690:B1 *2690:A1 1.75875e-05
7 *2999:A *2690:A1 1.21329e-05
8 *3018:A *2690:A1 0.000135258
9 *3019:A0 *2690:A1 7.23602e-05
10 *181:69 *2690:A1 0.000381856
11 *419:75 *2690:A1 0.000155489
12 *443:148 *2690:A1 0
13 *753:45 *2690:A1 2.20014e-05
*RES
1 *3188:Q *870:8 2.755 
2 *870:8 *2690:A1 15.83 
3 *870:8 *3398:A 3.43 
*END

*D_NET *871 0.00329432
*CONN
*I *2756:B2 I *D sky130_fd_sc_hd__a22o_1
*I *3446:A I *D sky130_fd_sc_hd__dlygate4sd3_1
*I *3187:Q O *D sky130_fd_sc_hd__dfxtp_1
*CAP
1 *2756:B2 0.000344358
2 *3446:A 0
3 *3187:Q 0.00033806
4 *871:14 0.000682418
5 *871:14 *2684:B2 0.000404616
6 *2690:A1 *2756:B2 0.000157929
7 *2690:B1 *2756:B2 4.89362e-05
8 *2756:A1 *2756:B2 3.57349e-05
9 *2756:A1 *871:14 4.66108e-05
10 *2756:A2 *2756:B2 8.74345e-06
11 *2756:B1 *2756:B2 5.01076e-05
12 *2759:B1 *871:14 0.000100871
13 *3014:A0 *871:14 0.000425135
14 *3014:S *871:14 9.14516e-05
15 *3016:A0 *871:14 0.00012398
16 *3016:S *871:14 4.89395e-05
17 *3017:A *871:14 0
18 *3187:D *871:14 0
19 *440:18 *2756:B2 0.000110785
20 *452:16 *2756:B2 1.56428e-05
21 *452:16 *871:14 0.000234167
22 *594:78 *871:14 0
23 *753:45 *2756:B2 2.58336e-05
*RES
1 *3187:Q *871:14 16.67 
2 *871:14 *3446:A 1.6 
3 *871:14 *2756:B2 15.33 
*END

*D_NET *872 0.00229749
*CONN
*I *3377:A I *D sky130_fd_sc_hd__dlygate4sd3_1
*I *2684:B2 I *D sky130_fd_sc_hd__a22o_1
*I *3186:Q O *D sky130_fd_sc_hd__dfxtp_1
*CAP
1 *3377:A 0.000317273
2 *2684:B2 0.000372027
3 *3186:Q 0
4 *872:4 0.000689299
5 *2684:A1 *2684:B2 4.77769e-05
6 *2684:B1 *2684:B2 8.33066e-06
7 *2756:A1 *3377:A 0
8 *2759:A2 *2684:B2 4.89395e-05
9 *2759:B1 *2684:B2 5.4419e-05
10 *3014:A0 *3377:A 0.000249928
11 *3016:A1 *2684:B2 6.04287e-05
12 *3017:A *2684:B2 0
13 *3409:A *3377:A 0
14 *594:86 *2684:B2 2.76356e-05
15 *594:86 *3377:A 1.68183e-05
16 *871:14 *2684:B2 0.000404616
*RES
1 *3186:Q *872:4 1.6 
2 *872:4 *2684:B2 13.58 
3 *872:4 *3377:A 11.3 
*END

*D_NET *873 0.00292101
*CONN
*I *3334:A I *D sky130_fd_sc_hd__dlygate4sd3_1
*I *2766:A1 I *D sky130_fd_sc_hd__a31o_1
*I *3185:Q O *D sky130_fd_sc_hd__dfxtp_1
*CAP
1 *3334:A 0.000381995
2 *2766:A1 0.000545511
3 *3185:Q 0.000112329
4 *873:8 0.00103983
5 *2766:A1 *2704:A1 0
6 *2765:A *2766:A1 0
7 *2766:A2 *2766:A1 8.7152e-06
8 *2766:B1 *2766:A1 0.000116151
9 *3010:A *2766:A1 0
10 *3010:A *3334:A 0
11 *3011:A0 *3334:A 0.000122337
12 *3011:S *2766:A1 6.73424e-05
13 *3011:S *3334:A 0.000278659
14 *3112:A1 *2766:A1 2.41307e-05
15 *3112:S *2766:A1 0.000152091
16 *3113:A *2766:A1 0
17 *449:12 *2766:A1 6.37775e-05
18 *475:45 *2766:A1 8.13313e-06
19 *500:83 *2766:A1 0
20 *834:14 *2766:A1 0
*RES
1 *3185:Q *873:8 4.74 
2 *873:8 *2766:A1 13.395 
3 *873:8 *3334:A 11.505 
*END

*D_NET *874 0.00285956
*CONN
*I *3330:A I *D sky130_fd_sc_hd__dlygate4sd3_1
*I *2704:A1 I *D sky130_fd_sc_hd__a31o_1
*I *3184:Q O *D sky130_fd_sc_hd__dfxtp_1
*CAP
1 *3330:A 0.000189049
2 *2704:A1 0.000520691
3 *3184:Q 3.28386e-05
4 *874:6 0.000742578
5 *2704:A3 *2704:A1 9.34789e-05
6 *2704:B1 *2704:A1 1.73877e-05
7 *2765:A *2704:A1 0.000172018
8 *2766:A1 *2704:A1 0
9 *3008:A *2704:A1 0.000187048
10 *3009:A0 *2704:A1 0.000252282
11 *3011:S *2704:A1 0.000136023
12 *3107:A *2704:A1 5.61246e-05
13 *3221:CLK *2704:A1 0
14 *3431:A *2704:A1 0.00019713
15 *183:143 *2704:A1 8.96077e-05
16 *202:121 *2704:A1 2.0851e-06
17 *419:39 *2704:A1 0
18 *449:12 *2704:A1 4.59586e-05
19 *511:126 *2704:A1 0.000125264
*RES
1 *3184:Q *874:6 2.05 
2 *874:6 *2704:A1 18.83 
3 *874:6 *3330:A 4.48 
*END

*D_NET *875 0.00301477
*CONN
*I *3426:A I *D sky130_fd_sc_hd__dlygate4sd3_1
*I *2797:B2 I *D sky130_fd_sc_hd__a22o_1
*I *3257:Q O *D sky130_fd_sc_hd__dfxtp_1
*CAP
1 *3426:A 0.000113898
2 *2797:B2 6.49451e-05
3 *3257:Q 0.000390896
4 *875:8 0.000569739
5 *2551:S *875:8 0.000197269
6 *2552:A *875:8 8.40269e-05
7 *2553:A *2797:B2 0.000159697
8 *2553:A *3426:A 0.000144166
9 *2612:A0 *3426:A 0.0001925
10 *2612:A0 *875:8 1.33293e-05
11 *2612:A1 *875:8 7.5277e-05
12 *2613:A *875:8 1.7386e-05
13 *2797:B1 *2797:B2 4.66108e-05
14 *2798:B2 *2797:B2 4.77807e-05
15 *2799:A1 *2797:B2 0.000159697
16 *2799:A1 *3426:A 3.09233e-05
17 *3232:D *875:8 0.000271314
18 *211:65 *3426:A 0.000155601
19 *352:24 *3426:A 1.41165e-05
20 *500:115 *3426:A 0.000114492
21 *500:115 *875:8 0.000117106
22 *527:50 *3426:A 3.39944e-05
*RES
1 *3257:Q *875:8 11.64 
2 *875:8 *2797:B2 5.94 
3 *875:8 *3426:A 7.83 
*END

*D_NET *876 0.00200599
*CONN
*I *3430:A I *D sky130_fd_sc_hd__dlygate4sd3_1
*I *2719:A1 I *D sky130_fd_sc_hd__a22o_1
*I *3256:Q O *D sky130_fd_sc_hd__dfxtp_1
*CAP
1 *3430:A 0.000171816
2 *2719:A1 0.000180431
3 *3256:Q 0.000161417
4 *876:6 0.000513664
5 *2610:A1 *3430:A 0.000183824
6 *2610:A1 *876:6 4.82919e-05
7 *2719:B1 *2719:A1 1.15688e-05
8 *2830:A1 *2719:A1 0
9 *3288:A *3430:A 1.83847e-05
10 *3295:A *3430:A 7.53903e-05
11 *187:57 *2719:A1 9.50342e-06
12 *218:63 *2719:A1 4.70999e-05
13 *316:96 *3430:A 0.000160641
14 *320:51 *2719:A1 0.000159131
15 *566:10 *2719:A1 0.000227536
16 *592:6 *876:6 3.72916e-05
*RES
1 *3256:Q *876:6 4.12 
2 *876:6 *2719:A1 10.295 
3 *876:6 *3430:A 5.86 
*END

*D_NET *877 0.0021636
*CONN
*I *3372:A I *D sky130_fd_sc_hd__dlygate4sd3_1
*I *2763:A I *D sky130_fd_sc_hd__and3_1
*I *3183:Q O *D sky130_fd_sc_hd__dfxtp_1
*CAP
1 *3372:A 0.000412449
2 *2763:A 0.000592535
3 *3183:Q 0
4 *877:4 0.00100498
5 *2763:B *2763:A 9.28584e-06
6 *3183:D *2763:A 0.000144349
*RES
1 *3183:Q *877:4 1.6 
2 *877:4 *2763:A 8.275 
3 *877:4 *3372:A 10.535 
*END

*D_NET *878 0.00126936
*CONN
*I *2700:A I *D sky130_fd_sc_hd__and3_1
*I *3384:A I *D sky130_fd_sc_hd__dlygate4sd3_1
*I *3182:Q O *D sky130_fd_sc_hd__dfxtp_1
*CAP
1 *2700:A 0.000408726
2 *3384:A 0.000192501
3 *3182:Q 0
4 *878:4 0.000601227
5 *3004:A1 *3384:A 3.00381e-05
6 *430:8 *2700:A 3.68682e-05
*RES
1 *3182:Q *878:4 1.6 
2 *878:4 *3384:A 4.735 
3 *878:4 *2700:A 11.315 
*END

*D_NET *879 0.00231498
*CONN
*I *3369:A I *D sky130_fd_sc_hd__dlygate4sd3_1
*I *2787:A I *D sky130_fd_sc_hd__and3_1
*I *3181:Q O *D sky130_fd_sc_hd__dfxtp_1
*CAP
1 *3369:A 9.67519e-05
2 *2787:A 0.000133159
3 *3181:Q 0.000221295
4 *879:8 0.000451206
5 *2787:C *2787:A 4.66108e-05
6 *3181:D *879:8 0.000302118
7 *193:54 *2787:A 0.000251396
8 *193:54 *3369:A 0.000276359
9 *207:159 *2787:A 0.000251396
10 *207:159 *3369:A 0.00028469
*RES
1 *3181:Q *879:8 6.465 
2 *879:8 *2787:A 7.215 
3 *879:8 *3369:A 7.02 
*END

*D_NET *880 0.00241974
*CONN
*I *3368:A I *D sky130_fd_sc_hd__dlygate4sd3_1
*I *2736:A I *D sky130_fd_sc_hd__and3_1
*I *3180:Q O *D sky130_fd_sc_hd__dfxtp_1
*CAP
1 *3368:A 0.000183446
2 *2736:A 0.000110293
3 *3180:Q 0.000493961
4 *880:8 0.000787699
5 *2792:A1 *2736:A 0.00013031
6 *2792:A1 *3368:A 3.93748e-05
7 *3181:CLK *880:8 5.83121e-06
8 *3181:D *880:8 0.000134007
9 *362:60 *2736:A 0.00024426
10 *362:60 *3368:A 0.000228843
11 *397:59 *2736:A 6.1714e-05
*RES
1 *3180:Q *880:8 9.225 
2 *880:8 *2736:A 6.765 
3 *880:8 *3368:A 7.5 
*END

*D_NET *881 0.00131159
*CONN
*I *2767:A1 I *D sky130_fd_sc_hd__a22o_1
*I *3454:A I *D sky130_fd_sc_hd__dlygate4sd3_1
*I *3179:Q O *D sky130_fd_sc_hd__dfxtp_1
*CAP
1 *2767:A1 0.000235858
2 *3454:A 9.73191e-06
3 *3179:Q 5.94362e-05
4 *881:10 0.000305026
5 *2709:B1 *2767:A1 4.87171e-06
6 *2767:A2 *2767:A1 3.48915e-05
7 *2767:B1 *2767:A1 0.000209896
8 *2769:A2 *2767:A1 4.28024e-05
9 *2792:A1 *881:10 7.81954e-05
10 *2963:A *2767:A1 3.74161e-05
11 *2963:A *3454:A 4.82863e-05
12 *2963:A *881:10 7.4027e-05
13 *207:159 *881:10 2.4997e-05
14 *208:154 *2767:A1 9.49027e-05
15 *208:154 *3454:A 4.82863e-05
16 *208:154 *881:10 2.97004e-06
*RES
1 *3179:Q *881:10 7.235 
2 *881:10 *3454:A 2.05 
3 *881:10 *2767:A1 6.445 
*END

*D_NET *882 0.00204011
*CONN
*I *2709:A1 I *D sky130_fd_sc_hd__a22o_1
*I *3434:A I *D sky130_fd_sc_hd__dlygate4sd3_1
*I *3178:Q O *D sky130_fd_sc_hd__dfxtp_1
*CAP
1 *2709:A1 0.00025252
2 *3434:A 6.2356e-05
3 *3178:Q 0.000328967
4 *882:10 0.000643843
5 *2792:B1 *2709:A1 9.47454e-05
6 *3066:A *3434:A 5.16348e-05
7 *3179:CLK *882:10 4.66108e-05
8 *3179:D *882:10 5.58448e-05
9 *207:159 *2709:A1 0.000169689
10 *207:159 *882:10 3.34652e-05
11 *419:39 *2709:A1 1.08758e-05
12 *428:65 *3434:A 8.34348e-05
13 *431:10 *3434:A 0.000206123
*RES
1 *3178:Q *882:10 5.965 
2 *882:10 *3434:A 8 
3 *882:10 *2709:A1 9.95 
*END

*D_NET *883 0.000861681
*CONN
*I *2774:A I *D sky130_fd_sc_hd__and3_1
*I *3370:A I *D sky130_fd_sc_hd__dlygate4sd3_1
*I *3177:Q O *D sky130_fd_sc_hd__dfxtp_1
*CAP
1 *2774:A 0.000188561
2 *3370:A 4.56901e-05
3 *3177:Q 0
4 *883:4 0.000234251
5 *2774:C *2774:A 0.000222657
6 *348:91 *3370:A 5.97306e-05
7 *731:42 *3370:A 0.000110791
*RES
1 *3177:Q *883:4 1.6 
2 *883:4 *3370:A 6.98 
3 *883:4 *2774:A 4.135 
*END

*D_NET *884 0.00115178
*CONN
*I *3387:A I *D sky130_fd_sc_hd__dlygate4sd3_1
*I *2744:A1 I *D sky130_fd_sc_hd__a311o_1
*I *3176:Q O *D sky130_fd_sc_hd__dfxtp_1
*CAP
1 *3387:A 0.000103708
2 *2744:A1 0
3 *3176:Q 0.00016964
4 *884:10 0.000273348
5 *2744:B1 *884:10 7.89689e-05
6 *2744:C1 *3387:A 0.000116158
7 *2749:B1 *884:10 2.87867e-05
8 *2774:C *3387:A 0
9 *2774:C *884:10 0
10 *2986:A0 *3387:A 3.86607e-05
11 *2988:A0 *3387:A 8.53113e-06
12 *2989:A *3387:A 0.000157282
13 *211:170 *3387:A 5.76167e-05
14 *218:152 *884:10 0
15 *348:91 *3387:A 1.01661e-05
16 *348:91 *884:10 1.01661e-05
17 *596:33 *884:10 1.47256e-05
18 *631:20 *884:10 8.40213e-05
*RES
1 *3176:Q *884:10 6.63 
2 *884:10 *2744:A1 3.6 
3 *884:10 *3387:A 6.72 
*END

*D_NET *885 0.00318356
*CONN
*I *3333:A I *D sky130_fd_sc_hd__dlygate4sd3_1
*I *2767:B2 I *D sky130_fd_sc_hd__a22o_1
*I *3175:Q O *D sky130_fd_sc_hd__dfxtp_1
*CAP
1 *3333:A 6.94324e-05
2 *2767:B2 0.000317098
3 *3175:Q 0.000119413
4 *885:10 0.000505943
5 *2767:B2 *2709:B2 0.0002014
6 *2767:B2 *886:10 0.000108322
7 *2709:B1 *2767:B2 4.00541e-06
8 *2722:A1 *885:10 3.09088e-05
9 *2722:A2 *885:10 0.000124007
10 *2722:B1 *885:10 4.41506e-05
11 *2722:C1 *885:10 0.000120655
12 *2722:D1 *885:10 0.000129099
13 *2767:A2 *2767:B2 8.98061e-05
14 *2767:B1 *2767:B2 5.65372e-05
15 *2769:B2 *2767:B2 0.00013521
16 *2769:B2 *3333:A 0.000172158
17 *2770:B *2767:B2 8.40213e-05
18 *2792:B1 *2767:B2 0.000420398
19 *177:39 *3333:A 4.11198e-05
20 *177:45 *2767:B2 7.26619e-05
21 *177:45 *3333:A 2.75707e-05
22 *193:44 *2767:B2 8.53113e-06
23 *419:39 *2767:B2 5.73518e-05
24 *597:10 *2767:B2 0.000159741
25 *597:100 *2767:B2 8.40213e-05
*RES
1 *3175:Q *885:10 7.17 
2 *885:10 *2767:B2 17.515 
3 *885:10 *3333:A 5.745 
*END

*D_NET *886 0.00195819
*CONN
*I *3452:A I *D sky130_fd_sc_hd__dlygate4sd3_1
*I *2709:B2 I *D sky130_fd_sc_hd__a22o_1
*I *3174:Q O *D sky130_fd_sc_hd__dfxtp_1
*CAP
1 *3452:A 2.89741e-05
2 *2709:B2 6.17385e-05
3 *3174:Q 0.000358681
4 *886:10 0.000449394
5 *2710:A2 *886:10 0.000124895
6 *2767:B2 *2709:B2 0.0002014
7 *2767:B2 *886:10 0.000108322
8 *193:40 *886:10 0.000271733
9 *419:39 *2709:B2 0.0002014
10 *419:39 *886:10 0.000116853
11 *430:68 *3452:A 2.49909e-05
12 *597:10 *886:10 9.80943e-06
*RES
1 *3174:Q *886:10 9.225 
2 *886:10 *2709:B2 6 
3 *886:10 *3452:A 4.05 
*END

*D_NET *887 0.0014545
*CONN
*I *2777:A I *D sky130_fd_sc_hd__and3_1
*I *3396:A I *D sky130_fd_sc_hd__dlygate4sd3_1
*I *3173:Q O *D sky130_fd_sc_hd__dfxtp_1
*CAP
1 *2777:A 0.000235193
2 *3396:A 0.000148998
3 *3173:Q 6.09476e-05
4 *887:8 0.000445139
5 *2777:C *2777:A 0
6 *2977:A1 *2777:A 0.00013192
7 *2977:A1 *3396:A 7.4027e-05
8 *3049:A *2777:A 2.86975e-05
9 *3118:A *3396:A 0.000197826
10 *3224:CLK *2777:A 0
11 *3224:CLK *3396:A 1.14169e-05
12 *3225:D *887:8 8.46717e-05
13 *177:135 *3396:A 3.56649e-05
14 *596:110 *2777:A 0
*RES
1 *3173:Q *887:8 4.395 
2 *887:8 *3396:A 6.81 
3 *887:8 *2777:A 7.77 
*END

*D_NET *888 0.000945098
*CONN
*I *3366:A I *D sky130_fd_sc_hd__dlygate4sd3_1
*I *2746:A I *D sky130_fd_sc_hd__and3_1
*I *3172:Q O *D sky130_fd_sc_hd__dfxtp_1
*CAP
1 *3366:A 4.04089e-05
2 *2746:A 0.000144181
3 *3172:Q 6.69785e-05
4 *888:6 0.000251569
5 *2746:C *2746:A 4.28112e-06
6 *2747:A3 *3366:A 4.21973e-05
7 *2747:A3 *888:6 2.75145e-05
8 *2747:B1 *2746:A 0
9 *2754:B *3366:A 8.49205e-05
10 *2754:B *888:6 0.000197264
11 *2974:A1 *888:6 1.56428e-05
12 *2974:S *2746:A 7.01406e-05
*RES
1 *3172:Q *888:6 3.43 
2 *888:6 *2746:A 7.745 
3 *888:6 *3366:A 2.755 
*END

*D_NET *889 0.00230569
*CONN
*I *3407:A I *D sky130_fd_sc_hd__dlygate4sd3_1
*I *2782:A1 I *D sky130_fd_sc_hd__a31o_1
*I *3171:Q O *D sky130_fd_sc_hd__dfxtp_1
*CAP
1 *3407:A 0.000155899
2 *2782:A1 0.000477532
3 *3171:Q 0
4 *889:4 0.000633432
5 *2749:B1 *2782:A1 2.75759e-05
6 *2753:C *2782:A1 0.000114565
7 *2782:A2 *2782:A1 0.000121234
8 *2782:B1 *2782:A1 0.000121536
9 *2969:S *2782:A1 0.000161581
10 *2969:S *3407:A 5.4155e-06
11 *2987:A *2782:A1 0
12 *174:80 *2782:A1 1.58462e-05
13 *174:80 *3407:A 8.80056e-05
14 *181:35 *2782:A1 0.000262417
15 *417:10 *3407:A 0.000120655
16 *423:8 *2782:A1 0
*RES
1 *3171:Q *889:4 1.6 
2 *889:4 *2782:A1 14.165 
3 *889:4 *3407:A 4.735 
*END

*D_NET *890 0.000908939
*CONN
*I *3380:A I *D sky130_fd_sc_hd__dlygate4sd3_1
*I *2747:A1 I *D sky130_fd_sc_hd__a31o_1
*I *3170:Q O *D sky130_fd_sc_hd__dfxtp_1
*CAP
1 *3380:A 0.000104195
2 *2747:A1 9.97943e-05
3 *3170:Q 0
4 *890:4 0.00020399
5 *2753:B *2747:A1 3.69226e-05
6 *2753:B *3380:A 0.000114745
7 *2986:A1 *2747:A1 1.61831e-05
8 *2986:A1 *3380:A 0.000274758
9 *753:29 *2747:A1 5.83518e-05
*RES
1 *3170:Q *890:4 1.6 
2 *890:4 *2747:A1 7.43 
3 *890:4 *3380:A 4.735 
*END

*D_NET *891 0.00187614
*CONN
*I *2762:A1 I *D sky130_fd_sc_hd__a311o_1
*I *3442:A I *D sky130_fd_sc_hd__dlygate4sd3_1
*I *3169:Q O *D sky130_fd_sc_hd__dfxtp_1
*CAP
1 *2762:A1 0.00013962
2 *3442:A 3.82541e-05
3 *3169:Q 0.000101651
4 *891:8 0.000279525
5 *2762:A1 *2699:A1 2.50049e-05
6 *891:8 *2699:A1 0.000211781
7 *891:8 *3445:A 7.23533e-05
8 *2699:A3 *2762:A1 0.000206729
9 *2762:A2 *2762:A1 0
10 *2762:B1 *2762:A1 8.51862e-05
11 *2762:C1 *2762:A1 1.31227e-05
12 *177:20 *2762:A1 3.26889e-05
13 *177:29 *2762:A1 7.11235e-06
14 *181:35 *2762:A1 0.000110683
15 *181:35 *891:8 0.000308047
16 *430:68 *3442:A 0.00012182
17 *475:35 *2762:A1 7.4027e-05
18 *475:35 *3442:A 4.85359e-05
*RES
1 *3169:Q *891:8 7.275 
2 *891:8 *3442:A 4.74 
3 *891:8 *2762:A1 7.515 
*END

*D_NET *892 0.00166946
*CONN
*I *2699:A1 I *D sky130_fd_sc_hd__a31o_1
*I *3445:A I *D sky130_fd_sc_hd__dlygate4sd3_1
*I *3168:Q O *D sky130_fd_sc_hd__dfxtp_1
*CAP
1 *2699:A1 0.000269261
2 *3445:A 0.000238639
3 *3168:Q 3.98087e-05
4 *892:8 0.000547708
5 *2762:A1 *2699:A1 2.50049e-05
6 *2966:A1 *3445:A 0
7 *177:135 *2699:A1 0
8 *177:135 *3445:A 0
9 *181:35 *3445:A 0.000123759
10 *193:40 *892:8 2.49909e-05
11 *475:35 *2699:A1 0.000116158
12 *891:8 *2699:A1 0.000211781
13 *891:8 *3445:A 7.23533e-05
*RES
1 *3168:Q *892:8 4.05 
2 *892:8 *3445:A 7.815 
3 *892:8 *2699:A1 8.85 
*END

*D_NET *893 0.00162931
*CONN
*I *2801:A1 I *D sky130_fd_sc_hd__a22o_1
*I *3352:A I *D sky130_fd_sc_hd__dlygate4sd3_1
*I *3167:Q O *D sky130_fd_sc_hd__dfxtp_1
*CAP
1 *2801:A1 0.000291994
2 *3352:A 0
3 *3167:Q 0.000356486
4 *893:8 0.00064848
5 *2801:A1 *2723:A1 0
6 *2801:A1 *900:10 0
7 *2945:A *2801:A1 6.55328e-05
8 *2958:A0 *893:8 1.33293e-05
9 *2958:A1 *893:8 9.91257e-05
10 *2959:A *893:8 1.7386e-05
11 *3162:D *2801:A1 0
12 *211:65 *2801:A1 0
13 *356:118 *2801:A1 4.98756e-05
14 *356:118 *893:8 8.71042e-05
*RES
1 *3167:Q *893:8 7.585 
2 *893:8 *3352:A 1.6 
3 *893:8 *2801:A1 10.835 
*END

*D_NET *894 0.00187286
*CONN
*I *2724:A1 I *D sky130_fd_sc_hd__a221o_1
*I *3346:A I *D sky130_fd_sc_hd__dlygate4sd3_1
*I *3166:Q O *D sky130_fd_sc_hd__dfxtp_1
*CAP
1 *2724:A1 0.000411636
2 *3346:A 0
3 *3166:Q 0.000508606
4 *894:12 0.000920242
5 *2724:A1 *2724:B2 1.12643e-05
6 *2724:B1 *2724:A1 2.11084e-05
7 *2957:A *894:12 0
8 *349:92 *894:12 0
9 *349:98 *894:12 0
*RES
1 *3166:Q *894:12 13.19 
2 *894:12 *3346:A 1.6 
3 *894:12 *2724:A1 7.93 
*END

*D_NET *895 0.00172182
*CONN
*I *2802:A1 I *D sky130_fd_sc_hd__a221o_1
*I *3315:A I *D sky130_fd_sc_hd__dlygate4sd3_1
*I *3165:Q O *D sky130_fd_sc_hd__dfxtp_1
*CAP
1 *2802:A1 0.000209603
2 *3315:A 0
3 *3165:Q 0.000335045
4 *895:10 0.000544647
5 *2802:A1 *2802:B2 8.35213e-05
6 *2802:A1 *899:10 8.08153e-06
7 *895:10 *899:10 0.00011852
8 *2943:A *2802:A1 6.47516e-05
9 *211:65 *895:10 0.000241483
10 *401:34 *2802:A1 0
11 *405:66 *2802:A1 0.000116165
12 *592:36 *895:10 0
*RES
1 *3165:Q *895:10 9.195 
2 *895:10 *3315:A 3.6 
3 *895:10 *2802:A1 8.325 
*END

*D_NET *896 0.00225942
*CONN
*I *3342:A I *D sky130_fd_sc_hd__dlygate4sd3_1
*I *2729:A1 I *D sky130_fd_sc_hd__a22o_1
*I *3164:Q O *D sky130_fd_sc_hd__dfxtp_1
*CAP
1 *3342:A 0.000185327
2 *2729:A1 0.00045357
3 *3164:Q 0
4 *896:4 0.000638897
5 *2943:A *2729:A1 6.36578e-05
6 *3164:CLK *2729:A1 8.34426e-05
7 *187:57 *2729:A1 7.21318e-05
8 *218:63 *2729:A1 0.00026898
9 *218:92 *2729:A1 8.97025e-05
10 *324:36 *2729:A1 0.000289492
11 *600:36 *2729:A1 3.80124e-05
12 *620:12 *3342:A 7.62032e-05
*RES
1 *3164:Q *896:4 1.6 
2 *896:4 *2729:A1 15.53 
3 *896:4 *3342:A 4.735 
*END

*D_NET *897 0.0018319
*CONN
*I *3317:A I *D sky130_fd_sc_hd__dlygate4sd3_1
*I *2796:A1 I *D sky130_fd_sc_hd__a21o_1
*I *3255:Q O *D sky130_fd_sc_hd__dfxtp_1
*CAP
1 *3317:A 0.00017643
2 *2796:A1 0.000111605
3 *3255:Q 0
4 *897:6 0.000288035
5 *2607:A1 *3317:A 4.66108e-05
6 *2796:A2 *2796:A1 7.37256e-05
7 *2908:B_N *2796:A1 0.00015705
8 *2908:B_N *3317:A 0.000199303
9 *202:16 *2796:A1 0.000159747
10 *316:80 *3317:A 0.000131525
11 *316:82 *2796:A1 0.00015705
12 *316:82 *3317:A 6.50549e-05
13 *563:6 *3317:A 0.000265768
*RES
1 *3255:Q *897:6 3.6 
2 *897:6 *2796:A1 7.335 
3 *897:6 *3317:A 8.52 
*END

*D_NET *898 0.00287631
*CONN
*I *3355:A I *D sky130_fd_sc_hd__dlygate4sd3_1
*I *2752:A1 I *D sky130_fd_sc_hd__a311o_1
*I *3254:Q O *D sky130_fd_sc_hd__dfxtp_1
*CAP
1 *3355:A 1.70452e-05
2 *2752:A1 0.000414322
3 *3254:Q 0.000201096
4 *898:8 0.000632463
5 *2601:A *898:8 0
6 *2605:A1 *898:8 2.88357e-05
7 *2811:A1 *2752:A1 0
8 *316:80 *3355:A 4.89395e-05
9 *316:80 *898:8 6.91623e-05
10 *362:60 *2752:A1 0.000897632
11 *397:22 *2752:A1 0.000449001
12 *397:59 *2752:A1 0.00011781
*RES
1 *3254:Q *898:8 4.39 
2 *898:8 *2752:A1 17.945 
3 *898:8 *3355:A 2.05 
*END

*D_NET *899 0.00222168
*CONN
*I *2802:B2 I *D sky130_fd_sc_hd__a221o_1
*I *3449:A I *D sky130_fd_sc_hd__dlygate4sd3_1
*I *3163:Q O *D sky130_fd_sc_hd__dfxtp_1
*CAP
1 *2802:B2 0.00018457
2 *3449:A 0.000148195
3 *3163:Q 0.000364724
4 *899:10 0.000697489
5 *2802:A1 *2802:B2 8.35213e-05
6 *2802:A1 *899:10 8.08153e-06
7 *2943:A *2802:B2 0.000139238
8 *2950:A1 *2802:B2 6.03947e-06
9 *2952:A1 *2802:B2 0
10 *2952:S *2802:B2 0
11 *592:10 *899:10 0.000471307
12 *895:10 *899:10 0.00011852
*RES
1 *3163:Q *899:10 9.48 
2 *899:10 *3449:A 5.775 
3 *899:10 *2802:B2 7.63875 
*END

*D_NET *900 0.00118816
*CONN
*I *2723:A1 I *D sky130_fd_sc_hd__a22o_1
*I *3324:A I *D sky130_fd_sc_hd__dlygate4sd3_1
*I *3162:Q O *D sky130_fd_sc_hd__dfxtp_1
*CAP
1 *2723:A1 0.000140827
2 *3324:A 2.27131e-05
3 *3162:Q 0.000250019
4 *900:10 0.000413559
5 *2723:B1 *2723:A1 1.5285e-05
6 *2801:A1 *2723:A1 0
7 *2801:A1 *900:10 0
8 *2801:A2 *3324:A 4.77719e-05
9 *2802:C1 *900:10 8.57914e-05
10 *2945:A *900:10 1.56908e-05
11 *211:65 *900:10 8.09021e-06
12 *349:119 *2723:A1 7.17811e-05
13 *349:119 *900:10 0.000116629
*RES
1 *3162:Q *900:10 7.74 
2 *900:10 *3324:A 4.05 
3 *900:10 *2723:A1 5.94 
*END

*D_NET *901 0.00160042
*CONN
*I *3408:A I *D sky130_fd_sc_hd__dlygate4sd3_1
*I *2807:A1 I *D sky130_fd_sc_hd__a22o_1
*I *3161:Q O *D sky130_fd_sc_hd__dfxtp_1
*CAP
1 *3408:A 5.36554e-05
2 *2807:A1 7.90414e-05
3 *3161:Q 0.000214375
4 *901:12 0.000347072
5 *3408:A *2806:B2 0
6 *901:12 *2728:B2 0.000161293
7 *2806:C1 *3408:A 6.33103e-05
8 *2806:C1 *901:12 3.70488e-05
9 *2940:A0 *901:12 0.000198046
10 *2940:A1 *2807:A1 0
11 *2940:S *901:12 4.66108e-05
12 *3161:D *901:12 8.49205e-05
13 *187:83 *2807:A1 9.09055e-05
14 *218:109 *2807:A1 7.03219e-05
15 *218:109 *3408:A 0.000107205
16 *218:109 *901:12 4.66108e-05
*RES
1 *3161:Q *901:12 7.27 
2 *901:12 *2807:A1 7.34 
3 *901:12 *3408:A 3.1 
*END

*D_NET *902 0.00100519
*CONN
*I *2729:B2 I *D sky130_fd_sc_hd__a22o_1
*I *3421:A I *D sky130_fd_sc_hd__dlygate4sd3_1
*I *3160:Q O *D sky130_fd_sc_hd__dfxtp_1
*CAP
1 *2729:B2 0
2 *3421:A 0.000114552
3 *3160:Q 0.000187723
4 *902:8 0.000302275
5 *187:57 *3421:A 1.64067e-05
6 *187:66 *3421:A 6.97526e-05
7 *218:92 *3421:A 0.000158213
8 *600:40 *902:8 0.000156268
*RES
1 *3160:Q *902:8 5.08 
2 *902:8 *3421:A 8.285 
3 *902:8 *2729:B2 1.6 
*END

*D_NET *903 0.00102978
*CONN
*I *2804:A1 I *D sky130_fd_sc_hd__a221o_1
*I *3436:A I *D sky130_fd_sc_hd__dlygate4sd3_1
*I *3159:Q O *D sky130_fd_sc_hd__dfxtp_1
*CAP
1 *2804:A1 0
2 *3436:A 4.55849e-05
3 *3159:Q 0.000178175
4 *903:8 0.00022376
5 *2728:A2 *903:8 0.00025768
6 *197:94 *3436:A 0.000135487
7 *202:53 *3436:A 0.000135487
8 *682:22 *903:8 5.36024e-05
*RES
1 *3159:Q *903:8 4.825 
2 *903:8 *3436:A 7.235 
3 *903:8 *2804:A1 1.6 
*END

*D_NET *904 0.00169386
*CONN
*I *3450:A I *D sky130_fd_sc_hd__dlygate4sd3_1
*I *2728:A1 I *D sky130_fd_sc_hd__a22o_1
*I *3158:Q O *D sky130_fd_sc_hd__dfxtp_1
*CAP
1 *3450:A 2.61143e-05
2 *2728:A1 0.000278279
3 *3158:Q 4.26067e-05
4 *904:8 0.000347
5 *2728:A1 *2728:B2 0.000115259
6 *2728:B1 *2728:A1 5.60303e-05
7 *2933:A *3450:A 4.77757e-05
8 *2933:A *904:8 0.000116165
9 *218:109 *2728:A1 0.000224145
10 *218:109 *904:8 0.000129047
11 *324:74 *2728:A1 3.29196e-05
12 *363:26 *3450:A 0.000122435
13 *370:30 *3450:A 4.31796e-05
14 *405:66 *2728:A1 0.000105695
15 *405:66 *904:8 7.21296e-06
*RES
1 *3158:Q *904:8 5.235 
2 *904:8 *2728:A1 9.57 
3 *904:8 *3450:A 4.74 
*END

*D_NET *905 0.00191185
*CONN
*I *2805:A1 I *D sky130_fd_sc_hd__a22o_1
*I *3392:A I *D sky130_fd_sc_hd__dlygate4sd3_1
*I *3157:Q O *D sky130_fd_sc_hd__dfxtp_1
*CAP
1 *2805:A1 0.000106127
2 *3392:A 0
3 *3157:Q 0.000248626
4 *905:8 0.000354753
5 *2725:A2 *2805:A1 0.00013661
6 *2805:A2 *2805:A1 4.82863e-05
7 *2928:A0 *905:8 0.000198051
8 *2929:A *905:8 2.64559e-05
9 *349:67 *905:8 0.000178677
10 *356:95 *2805:A1 0.000122325
11 *394:16 *2805:A1 0.000183221
12 *394:16 *905:8 0.000308719
*RES
1 *3157:Q *905:8 7.84 
2 *905:8 *3392:A 1.6 
3 *905:8 *2805:A1 8.825 
*END

*D_NET *906 0.00147904
*CONN
*I *2725:A1 I *D sky130_fd_sc_hd__a22o_1
*I *3394:A I *D sky130_fd_sc_hd__dlygate4sd3_1
*I *3156:Q O *D sky130_fd_sc_hd__dfxtp_1
*CAP
1 *2725:A1 7.4447e-05
2 *3394:A 8.94344e-05
3 *3156:Q 0.00016471
4 *906:6 0.000328592
5 *3394:A *2725:B2 0.000161637
6 *2725:B1 *3394:A 1.82563e-05
7 *2926:A0 *3394:A 0
8 *2926:A1 *906:6 4.82863e-05
9 *2927:A *3394:A 0
10 *2928:A1 *2725:A1 7.49327e-05
11 *2928:A1 *906:6 0.000155497
12 *3158:CLK *3394:A 7.5416e-05
13 *372:61 *2725:A1 9.35611e-05
14 *606:49 *2725:A1 6.27529e-05
15 *606:49 *906:6 1.19928e-05
16 *606:51 *906:6 0.00011952
*RES
1 *3156:Q *906:6 5.155 
2 *906:6 *3394:A 8 
3 *906:6 *2725:A1 3.7 
*END

*D_NET *907 0.00213383
*CONN
*I *3399:A I *D sky130_fd_sc_hd__dlygate4sd3_1
*I *2803:A1 I *D sky130_fd_sc_hd__a22o_1
*I *3155:Q O *D sky130_fd_sc_hd__dfxtp_1
*CAP
1 *3399:A 0.000407371
2 *2803:A1 0.000291797
3 *3155:Q 0
4 *907:4 0.000699167
5 *2803:A2 *2803:A1 0.000136143
6 *2922:S *2803:A1 2.68526e-05
7 *2922:S *3399:A 0.000165711
8 *3155:CLK *2803:A1 7.05462e-05
9 *320:64 *2803:A1 0.000134477
10 *372:26 *3399:A 0.000194598
11 *372:40 *2803:A1 7.17236e-06
*RES
1 *3155:Q *907:4 1.6 
2 *907:4 *2803:A1 10.1 
3 *907:4 *3399:A 8.05 
*END

*D_NET *908 0.00256555
*CONN
*I *3379:A I *D sky130_fd_sc_hd__dlygate4sd3_1
*I *2727:A1 I *D sky130_fd_sc_hd__a22o_1
*I *3154:Q O *D sky130_fd_sc_hd__dfxtp_1
*CAP
1 *3379:A 0.000232397
2 *2727:A1 0.000524027
3 *3154:Q 0
4 *908:4 0.000756424
5 *2727:A2 *2727:A1 4.6075e-05
6 *2809:A2 *2727:A1 1.22325e-05
7 *2809:B1 *2727:A1 1.54665e-05
8 *2811:A3 *2727:A1 7.18107e-06
9 *3154:CLK *2727:A1 0.000560597
10 *3154:CLK *3379:A 0.000259065
11 *321:70 *3379:A 9.08126e-05
12 *369:47 *3379:A 0
13 *500:93 *3379:A 6.12754e-05
*RES
1 *3154:Q *908:4 1.6 
2 *908:4 *2727:A1 8.62 
3 *908:4 *3379:A 9.5 
*END

*D_NET *909 0.00162776
*CONN
*I *3403:A I *D sky130_fd_sc_hd__dlygate4sd3_1
*I *2804:B2 I *D sky130_fd_sc_hd__a221o_1
*I *3153:Q O *D sky130_fd_sc_hd__dfxtp_1
*CAP
1 *3403:A 0.000138038
2 *2804:B2 0.000413227
3 *3153:Q 0
4 *909:4 0.000551265
5 *2726:A2 *2804:B2 1.37864e-05
6 *2754:A *2804:B2 0
7 *2804:C1 *2804:B2 7.9642e-06
8 *2917:A *2804:B2 7.23602e-05
9 *197:94 *2804:B2 0
10 *349:38 *2804:B2 6.03947e-06
11 *383:12 *2804:B2 0.000138032
12 *383:12 *3403:A 0.000279787
13 *682:22 *2804:B2 7.25921e-06
*RES
1 *3153:Q *909:4 1.6 
2 *909:4 *2804:B2 11.5588 
3 *909:4 *3403:A 4.735 
*END

*D_NET *910 0.00146949
*CONN
*I *3397:A I *D sky130_fd_sc_hd__dlygate4sd3_1
*I *2726:A1 I *D sky130_fd_sc_hd__a21o_1
*I *3152:Q O *D sky130_fd_sc_hd__dfxtp_1
*CAP
1 *3397:A 0.000231332
2 *2726:A1 0.000235888
3 *3152:Q 0
4 *910:4 0.00046722
5 *2726:A2 *2726:A1 9.91257e-05
6 *2726:B1 *2726:A1 0
7 *2914:A0 *2726:A1 0.000103192
8 *2915:A *2726:A1 0.000153154
9 *3153:CLK *3397:A 0
10 *3153:D *3397:A 6.13523e-05
11 *197:94 *3397:A 2.03321e-05
12 *372:61 *2726:A1 1.34594e-05
13 *383:12 *2726:A1 2.47313e-05
14 *383:12 *3397:A 5.96973e-05
*RES
1 *3152:Q *910:4 1.6 
2 *910:4 *2726:A1 10.73 
3 *910:4 *3397:A 9.155 
*END

*D_NET *911 0.00273378
*CONN
*I *2805:B2 I *D sky130_fd_sc_hd__a22o_1
*I *3322:A I *D sky130_fd_sc_hd__dlygate4sd3_1
*I *3151:Q O *D sky130_fd_sc_hd__dfxtp_1
*CAP
1 *2805:B2 0.000291105
2 *3322:A 0
3 *3151:Q 0.000350502
4 *911:12 0.000641607
5 *2911:A0 *911:12 0
6 *2911:A1 *911:12 3.86607e-05
7 *2911:S *911:12 0
8 *2929:A *2805:B2 0.000350615
9 *349:77 *911:12 0
10 *356:95 *2805:B2 0.00097469
11 *356:95 *911:12 8.65961e-05
*RES
1 *3151:Q *911:12 11.45 
2 *911:12 *3322:A 1.6 
3 *911:12 *2805:B2 10.69 
*END

*D_NET *912 0.00207424
*CONN
*I *2725:B2 I *D sky130_fd_sc_hd__a22o_1
*I *3336:A I *D sky130_fd_sc_hd__dlygate4sd3_1
*I *3150:Q O *D sky130_fd_sc_hd__dfxtp_1
*CAP
1 *2725:B2 0.000310985
2 *3336:A 0
3 *3150:Q 0.000340995
4 *912:8 0.000651979
5 *2725:B1 *2725:B2 5.53249e-06
6 *2910:A *912:8 8.8266e-05
7 *2911:S *912:8 9.86822e-05
8 *3394:A *2725:B2 0.000161637
9 *187:83 *2725:B2 0
10 *383:12 *2725:B2 0.000292383
11 *383:12 *912:8 0.00012378
*RES
1 *3150:Q *912:8 7.93 
2 *912:8 *3336:A 1.6 
3 *912:8 *2725:B2 12.335 
*END

*D_NET *913 0.00190308
*CONN
*I *3393:A I *D sky130_fd_sc_hd__dlygate4sd3_1
*I *2790:A1 I *D sky130_fd_sc_hd__a32o_1
*I *3149:Q O *D sky130_fd_sc_hd__dfxtp_1
*CAP
1 *3393:A 0.000254554
2 *2790:A1 5.27232e-05
3 *3149:Q 5.8196e-05
4 *913:6 0.000365473
5 *2790:A1 *914:10 0.000114492
6 *3393:A *3418:A 7.01499e-05
7 *2903:A0 *3393:A 0.000105508
8 *197:70 *3393:A 3.6229e-05
9 *212:56 *2790:A1 1.70935e-05
10 *212:73 *2790:A1 6.34101e-06
11 *321:16 *3393:A 3.86529e-05
12 *321:31 *3393:A 0.000326764
13 *321:31 *913:6 0.000119756
14 *393:31 *2790:A1 0.000157595
15 *682:12 *3393:A 0.000179557
*RES
1 *3149:Q *913:6 2.74 
2 *913:6 *2790:A1 7.49 
3 *913:6 *3393:A 12.005 
*END

*D_NET *914 0.00219978
*CONN
*I *2739:A1 I *D sky130_fd_sc_hd__a32o_1
*I *3418:A I *D sky130_fd_sc_hd__dlygate4sd3_1
*I *3148:Q O *D sky130_fd_sc_hd__dfxtp_1
*CAP
1 *2739:A1 3.84995e-05
2 *3418:A 0.000272759
3 *3148:Q 0.000189914
4 *914:10 0.000501172
5 *2790:A1 *914:10 0.000114492
6 *2790:A2 *914:10 8.40269e-05
7 *2903:A0 *3418:A 0.000192125
8 *2904:A *2739:A1 9.06149e-05
9 *2919:B *914:10 4.42415e-05
10 *3393:A *3418:A 7.01499e-05
11 *181:16 *3418:A 2.75229e-05
12 *212:73 *2739:A1 0.000114814
13 *212:73 *914:10 0.000181376
14 *321:16 *3418:A 0.000231326
15 *393:31 *2739:A1 7.20795e-06
16 *393:31 *914:10 3.95347e-05
*RES
1 *3148:Q *914:10 7.92 
2 *914:10 *3418:A 8.895 
3 *914:10 *2739:A1 4.98 
*END

*D_NET *915 0.00121989
*CONN
*I *2788:A1 I *D sky130_fd_sc_hd__a31o_1
*I *3385:A I *D sky130_fd_sc_hd__dlygate4sd3_1
*I *3147:Q O *D sky130_fd_sc_hd__dfxtp_1
*CAP
1 *2788:A1 9.64414e-05
2 *3385:A 0
3 *3147:Q 0.000311334
4 *915:16 0.000407775
5 *2788:A2 *2788:A1 1.08758e-05
6 *2897:A0 *915:16 8.23457e-05
7 *2897:S *915:16 0.000164733
8 *2900:A *915:16 7.23533e-05
9 *366:20 *915:16 7.4027e-05
*RES
1 *3147:Q *915:16 10.745 
2 *915:16 *3385:A 1.6 
3 *915:16 *2788:A1 3.085 
*END

*D_NET *916 0.00093383
*CONN
*I *2737:A1 I *D sky130_fd_sc_hd__a31o_1
*I *3415:A I *D sky130_fd_sc_hd__dlygate4sd3_1
*I *3146:Q O *D sky130_fd_sc_hd__dfxtp_1
*CAP
1 *2737:A1 0.000125129
2 *3415:A 0
3 *3146:Q 0.000258739
4 *916:8 0.000383867
5 *2740:B1 *2737:A1 2.937e-05
6 *2897:A0 *916:8 5.05437e-05
7 *2908:B_N *916:8 2.75145e-05
8 *215:100 *916:8 1.19928e-05
9 *231:20 *2737:A1 4.66742e-05
*RES
1 *3146:Q *916:8 5.515 
2 *916:8 *3415:A 1.6 
3 *916:8 *2737:A1 3.775 
*END

*D_NET *917 0.0024935
*CONN
*I *3319:A I *D sky130_fd_sc_hd__dlygate4sd3_1
*I *2807:B2 I *D sky130_fd_sc_hd__a22o_1
*I *3145:Q O *D sky130_fd_sc_hd__dfxtp_1
*CAP
1 *3319:A 0.000159908
2 *2807:B2 0.000242262
3 *3145:Q 0.000367907
4 *917:6 0.000770078
5 *3319:A *2806:A1 4.80285e-05
6 *917:6 *921:16 9.4879e-05
7 *2890:S *3319:A 0.000265985
8 *2941:A *2807:B2 0.000108618
9 *2941:A *3319:A 7.03276e-05
10 *3160:D *917:6 7.27298e-06
11 *3161:D *3319:A 1.14048e-05
12 *366:51 *3319:A 8.62294e-05
13 *370:30 *3319:A 0.000100257
14 *402:8 *2807:B2 0.000160342
*RES
1 *3145:Q *917:6 5.845 
2 *917:6 *2807:B2 6.49 
3 *917:6 *3319:A 9.92 
*END

*D_NET *918 0.00202404
*CONN
*I *3425:A I *D sky130_fd_sc_hd__dlygate4sd3_1
*I *2724:B2 I *D sky130_fd_sc_hd__a221o_1
*I *3144:Q O *D sky130_fd_sc_hd__dfxtp_1
*CAP
1 *3425:A 0.000122539
2 *2724:B2 0.000208267
3 *3144:Q 0.000255448
4 *918:8 0.000586254
5 *2724:A1 *2724:B2 1.12643e-05
6 *2724:C1 *2724:B2 9.50342e-06
7 *2890:S *3425:A 0.000156916
8 *3160:D *2724:B2 4.87939e-05
9 *3160:D *3425:A 0.000230014
10 *600:40 *918:8 0.000346114
11 *600:42 *918:8 4.89295e-05
*RES
1 *3144:Q *918:8 7.155 
2 *918:8 *2724:B2 7.17375 
3 *918:8 *3425:A 7.02 
*END

*D_NET *919 0.00130639
*CONN
*I *2789:A1 I *D sky130_fd_sc_hd__a22o_1
*I *3447:A I *D sky130_fd_sc_hd__dlygate4sd3_1
*I *3253:Q O *D sky130_fd_sc_hd__dfxtp_1
*CAP
1 *2789:A1 5.45842e-05
2 *3447:A 2.54445e-05
3 *3253:Q 0.000332229
4 *919:14 0.000412258
5 *2789:A2 *2789:A1 4.99619e-05
6 *2789:A2 *3447:A 8.696e-05
7 *2790:B1 *3447:A 2.79137e-05
8 *3469:A *919:14 0.000131274
9 *181:16 *919:14 0
10 *321:16 *2789:A1 1.34503e-05
11 *356:49 *919:14 0
12 *604:25 *919:14 0.00016032
13 *604:35 *919:14 1.19928e-05
*RES
1 *3253:Q *919:14 10.955 
2 *919:14 *3447:A 2.395 
3 *919:14 *2789:A1 2.755 
*END

*D_NET *920 0.00310802
*CONN
*I *2738:A1 I *D sky130_fd_sc_hd__a22o_1
*I *3423:A I *D sky130_fd_sc_hd__dlygate4sd3_1
*I *3252:Q O *D sky130_fd_sc_hd__dfxtp_1
*CAP
1 *2738:A1 0.000263963
2 *3423:A 0.000159998
3 *3252:Q 0.000105483
4 *920:8 0.000529444
5 *2598:A *2738:A1 3.52649e-05
6 *2598:A *920:8 1.56428e-05
7 *2601:A *2738:A1 7.03276e-05
8 *2602:A1 *2738:A1 9.30787e-05
9 *2755:B2 *2738:A1 0.00030888
10 *2755:B2 *3423:A 4.84632e-05
11 *2755:B2 *920:8 1.858e-05
12 *2790:B1 *2738:A1 0.000138551
13 *2811:B1 *3423:A 0.000380089
14 *3307:A *3423:A 4.69244e-05
15 *181:20 *2738:A1 7.81876e-05
16 *316:80 *2738:A1 0.000112909
17 *356:49 *2738:A1 0.000107129
18 *356:49 *3423:A 0.000216184
19 *528:72 *3423:A 0.000378923
*RES
1 *3252:Q *920:8 4.74 
2 *920:8 *3423:A 9.81 
3 *920:8 *2738:A1 11.4 
*END

*D_NET *921 0.00560449
*CONN
*I *3358:A I *D sky130_fd_sc_hd__dlygate4sd3_1
*I *2806:A1 I *D sky130_fd_sc_hd__a221o_1
*I *3143:Q O *D sky130_fd_sc_hd__dfxtp_1
*CAP
1 *3358:A 0.000342737
2 *2806:A1 0.000925979
3 *3143:Q 0.000708154
4 *921:16 0.00197687
5 *2728:A2 *2806:A1 5.12942e-05
6 *2890:S *3358:A 0
7 *2890:S *921:16 0
8 *2893:A0 *2806:A1 2.83649e-05
9 *2893:S *2806:A1 0.000117116
10 *2894:A *921:16 0
11 *3145:D *921:16 0.000163393
12 *3161:CLK *921:16 0
13 *3319:A *2806:A1 4.80285e-05
14 *349:77 *3358:A 0
15 *363:26 *2806:A1 0.000827201
16 *366:51 *3358:A 0
17 *370:30 *2806:A1 1.80219e-05
18 *600:61 *921:16 0.000126244
19 *600:69 *921:16 3.93309e-05
20 *764:64 *2806:A1 0.000136877
21 *917:6 *921:16 9.4879e-05
*RES
1 *3143:Q *921:16 15.54 
2 *921:16 *2806:A1 20.725 
3 *921:16 *3358:A 8.775 
*END

*D_NET *922 0.00459815
*CONN
*I *2728:B2 I *D sky130_fd_sc_hd__a22o_1
*I *3357:A I *D sky130_fd_sc_hd__dlygate4sd3_1
*I *3142:Q O *D sky130_fd_sc_hd__dfxtp_1
*CAP
1 *2728:B2 0.00132212
2 *3357:A 0.000131975
3 *3142:Q 0.000207965
4 *922:6 0.00166206
5 *2728:A1 *2728:B2 0.000115259
6 *2806:C1 *2728:B2 6.71882e-05
7 *2808:C *2728:B2 0.000157103
8 *2881:A1 *3357:A 0
9 *2883:A1 *3357:A 4.05358e-05
10 *2884:A *3357:A 7.23602e-05
11 *2894:A *2728:B2 5.30673e-05
12 *2937:B *2728:B2 3.00335e-05
13 *2940:S *2728:B2 2.49909e-05
14 *3161:CLK *2728:B2 1.55649e-05
15 *3161:D *2728:B2 0.000139387
16 *187:83 *2728:B2 0.000179263
17 *324:74 *2728:B2 1.11025e-05
18 *349:92 *3357:A 4.92206e-05
19 *356:97 *3357:A 3.35338e-05
20 *356:103 *3357:A 5.4256e-05
21 *402:8 *2728:B2 6.98693e-05
22 *901:12 *2728:B2 0.000161293
*RES
1 *3142:Q *922:6 3.775 
2 *922:6 *3357:A 9.02 
3 *922:6 *2728:B2 24.2 
*END

*D_NET *923 0.00237609
*CONN
*I *3424:A I *D sky130_fd_sc_hd__dlygate4sd3_1
*I *2803:B2 I *D sky130_fd_sc_hd__a22o_1
*I *3141:Q O *D sky130_fd_sc_hd__dfxtp_1
*CAP
1 *3424:A 0.000225265
2 *2803:B2 0.00056176
3 *3141:Q 6.05807e-05
4 *923:6 0.000847606
5 *2803:B1 *2803:B2 1.67131e-05
6 *2877:S *3424:A 0.000116853
7 *183:52 *2803:B2 9.54763e-06
8 *231:52 *2803:B2 0.000225922
9 *231:52 *923:6 4.35348e-05
10 *349:38 *3424:A 0.000122797
11 *500:91 *2803:B2 2.88995e-05
12 *500:91 *3424:A 0
13 *500:93 *2803:B2 2.91921e-05
14 *607:70 *3424:A 0
15 *742:10 *2803:B2 0
16 *742:10 *3424:A 8.74175e-05
*RES
1 *3141:Q *923:6 2.395 
2 *923:6 *2803:B2 13.34 
3 *923:6 *3424:A 10.16 
*END

*D_NET *924 0.00165901
*CONN
*I *2751:A I *D sky130_fd_sc_hd__and3_1
*I *3404:A I *D sky130_fd_sc_hd__dlygate4sd3_1
*I *3140:Q O *D sky130_fd_sc_hd__dfxtp_1
*CAP
1 *2751:A 0.000174322
2 *3404:A 8.15803e-05
3 *3140:Q 0.000139699
4 *924:6 0.000395601
5 *2896:A *2751:A 9.17456e-05
6 *221:12 *3404:A 0.000118246
7 *372:22 *3404:A 0.000222032
8 *374:45 *2751:A 4.69402e-05
9 *682:22 *2751:A 0.000194148
10 *682:22 *924:6 0.0001947
*RES
1 *3140:Q *924:6 3.43 
2 *924:6 *3404:A 8.255 
3 *924:6 *2751:A 8.555 
*END

*D_NET *925 0.00123264
*CONN
*I *2801:B2 I *D sky130_fd_sc_hd__a22o_1
*I *3331:A I *D sky130_fd_sc_hd__dlygate4sd3_1
*I *3139:Q O *D sky130_fd_sc_hd__dfxtp_1
*CAP
1 *2801:B2 0.000163093
2 *3331:A 0
3 *3139:Q 0.00019556
4 *925:12 0.000358654
5 *2871:A0 *2801:B2 0
6 *2871:A0 *925:12 4.35348e-05
7 *2871:A1 *925:12 8.65961e-05
8 *2871:S *2801:B2 2.50992e-05
9 *2871:S *925:12 0.000311288
10 *2872:A *925:12 0
11 *2945:A *2801:B2 3.7837e-05
12 *3162:D *2801:B2 1.09817e-05
13 *356:107 *925:12 0
*RES
1 *3139:Q *925:12 9.845 
2 *925:12 *3331:A 1.6 
3 *925:12 *2801:B2 4.405 
*END

*D_NET *926 0.00154488
*CONN
*I *2723:B2 I *D sky130_fd_sc_hd__a22o_1
*I *3327:A I *D sky130_fd_sc_hd__dlygate4sd3_1
*I *3138:Q O *D sky130_fd_sc_hd__dfxtp_1
*CAP
1 *2723:B2 2.75623e-05
2 *3327:A 0
3 *3138:Q 0.000232689
4 *926:8 0.000260251
5 *2723:B1 *2723:B2 1.75875e-05
6 *2956:S *926:8 8.40213e-05
7 *349:98 *926:8 0.000134938
8 *349:119 *2723:B2 5.06989e-05
9 *349:119 *926:8 0.000212034
10 *414:10 *2723:B2 6.42348e-05
11 *414:10 *926:8 0.000460865
*RES
1 *3138:Q *926:8 8.62 
2 *926:8 *3327:A 1.6 
3 *926:8 *2723:B2 2.755 
*END

*D_NET *927 0.0035493
*CONN
*I *2806:B2 I *D sky130_fd_sc_hd__a221o_1
*I *3350:A I *D sky130_fd_sc_hd__dlygate4sd3_1
*I *3127:Q O *D sky130_fd_sc_hd__dfxtp_1
*CAP
1 *2806:B2 0.000456748
2 *3350:A 0.000345973
3 *3127:Q 0
4 *927:6 0.000802722
5 *3350:A *3419:A 0.000119762
6 *2728:A2 *2806:B2 0.000113222
7 *2732:A1 *3350:A 0.000123256
8 *2732:A3 *2806:B2 0.000132752
9 *2806:A2 *2806:B2 1.98826e-05
10 *2806:B1 *2806:B2 3.67966e-05
11 *2806:C1 *2806:B2 6.61527e-06
12 *2808:C *2806:B2 1.21515e-05
13 *2809:A1 *2806:B2 2.53191e-06
14 *2831:A *3350:A 0.000239892
15 *2833:A0 *3350:A 0.00019637
16 *2833:A1 *3350:A 0.000125238
17 *3126:D *2806:B2 0.00013475
18 *3126:D *3350:A 9.12494e-06
19 *3408:A *2806:B2 0
20 *208:47 *2806:B2 8.23457e-05
21 *320:51 *3350:A 8.43862e-05
22 *401:34 *2806:B2 0.000431863
23 *401:34 *3350:A 7.29214e-05
24 *764:64 *2806:B2 0
*RES
1 *3127:Q *927:6 3.6 
2 *927:6 *3350:A 12.3 
3 *927:6 *2806:B2 13.515 
*END

*D_NET *928 0.000932854
*CONN
*I *2727:B2 I *D sky130_fd_sc_hd__a22o_1
*I *3437:A I *D sky130_fd_sc_hd__dlygate4sd3_1
*I *3126:Q O *D sky130_fd_sc_hd__dfxtp_1
*CAP
1 *2727:B2 0.000173502
2 *3437:A 5.06266e-05
3 *3126:Q 7.05709e-05
4 *928:8 0.000294699
5 *2730:A *3437:A 0.000122821
6 *2809:A2 *2727:B2 8.53011e-05
7 *2809:B1 *2727:B2 8.53011e-05
8 *2834:A *928:8 5.00317e-05
*RES
1 *3126:Q *928:8 4.98 
2 *928:8 *3437:A 4.74 
3 *928:8 *2727:B2 6.795 
*END

*D_NET *929 0.00181692
*CONN
*I *3417:A I *D sky130_fd_sc_hd__dlygate4sd3_1
*I *2789:B2 I *D sky130_fd_sc_hd__a22o_1
*I *3251:Q O *D sky130_fd_sc_hd__dfxtp_1
*CAP
1 *3417:A 0.000187676
2 *2789:B2 0.000252285
3 *3251:Q 0.000117905
4 *929:12 0.000557866
5 *2596:A *2789:B2 2.62303e-05
6 *2597:S *2789:B2 2.49909e-05
7 *3250:D *2789:B2 3.6227e-05
8 *3469:A *2789:B2 4.67041e-05
9 *183:10 *929:12 0.000198109
10 *211:122 *929:12 0.000199973
11 *327:64 *2789:B2 6.06863e-05
12 *327:64 *3417:A 9.68524e-05
13 *327:81 *2789:B2 1.14169e-05
*RES
1 *3251:Q *929:12 8.87 
2 *929:12 *2789:B2 9.41 
3 *929:12 *3417:A 4.045 
*END

*D_NET *930 0.00356257
*CONN
*I *2738:B2 I *D sky130_fd_sc_hd__a22o_1
*I *3344:A I *D sky130_fd_sc_hd__dlygate4sd3_1
*I *3250:Q O *D sky130_fd_sc_hd__dfxtp_1
*CAP
1 *2738:B2 0.000631754
2 *3344:A 0.0001756
3 *3250:Q 0
4 *930:4 0.000807355
5 *2595:A1 *2738:B2 0.000112087
6 *2621:A *2738:B2 0.000341552
7 *2738:B1 *2738:B2 0.000383942
8 *2755:B2 *3344:A 0.0001497
9 *183:27 *2738:B2 0.000233992
10 *352:100 *2738:B2 0.000638505
11 *409:84 *2738:B2 6.13706e-05
12 *631:20 *2738:B2 2.6712e-05
*RES
1 *3250:Q *930:4 1.6 
2 *930:4 *3344:A 4.735 
3 *930:4 *2738:B2 20.795 
*END

*D_NET *931 0.000539427
*CONN
*I *3381:A I *D sky130_fd_sc_hd__dlygate4sd3_1
*I *2795:B2 I *D sky130_fd_sc_hd__a22o_1
*I *3249:Q O *D sky130_fd_sc_hd__dfxtp_1
*CAP
1 *3381:A 8.14097e-05
2 *2795:B2 4.74637e-05
3 *3249:Q 4.65077e-05
4 *931:6 0.000175381
5 *202:16 *2795:B2 1.10085e-05
6 *202:22 *3381:A 0.000114649
7 *362:35 *3381:A 6.30072e-05
8 *601:70 *2795:B2 0
*RES
1 *3249:Q *931:6 2.05 
2 *931:6 *2795:B2 2.47 
3 *931:6 *3381:A 7.43 
*END

*D_NET *932 0.00217123
*CONN
*I *3419:A I *D sky130_fd_sc_hd__dlygate4sd3_1
*I *2717:B2 I *D sky130_fd_sc_hd__a22o_1
*I *3248:Q O *D sky130_fd_sc_hd__dfxtp_1
*CAP
1 *3419:A 0.000217306
2 *2717:B2 0.000146328
3 *3248:Q 0.000169157
4 *932:8 0.00053279
5 *2717:B1 *2717:B2 0.000216066
6 *2717:B1 *3419:A 0.000131524
7 *2833:A1 *3419:A 0.000123159
8 *3350:A *3419:A 0.000119762
9 *187:57 *2717:B2 9.28449e-05
10 *187:57 *3419:A 4.03554e-05
11 *320:51 *3419:A 4.91952e-05
12 *353:22 *932:8 0.000230435
13 *409:34 *2717:B2 0.00010231
*RES
1 *3248:Q *932:8 5.775 
2 *932:8 *2717:B2 7.515 
3 *932:8 *3419:A 8.445 
*END

*D_NET *933 0.00233717
*CONN
*I *3375:A I *D sky130_fd_sc_hd__dlygate4sd3_1
*I *2776:A I *D sky130_fd_sc_hd__and3_1
*I *3247:Q O *D sky130_fd_sc_hd__dfxtp_1
*CAP
1 *3375:A 7.81171e-05
2 *2776:A 0.000703911
3 *3247:Q 9.13862e-05
4 *933:10 0.000873414
5 *3375:A *3414:A 8.65905e-05
6 *2586:A *2776:A 0
7 *2586:A *933:10 0
8 *2587:A1 *2776:A 0.000149279
9 *2620:A1 *2776:A 7.00889e-06
10 *2776:B *2776:A 2.65814e-06
11 *3246:CLK *2776:A 0.000138544
12 *3247:D *2776:A 0.000113899
13 *3318:A *933:10 0
14 *511:102 *2776:A 2.4997e-05
15 *684:90 *933:10 6.73665e-05
*RES
1 *3247:Q *933:10 7.49 
2 *933:10 *2776:A 16.58 
3 *933:10 *3375:A 3.1 
*END

*D_NET *934 0.00267986
*CONN
*I *2748:A I *D sky130_fd_sc_hd__and3_1
*I *3414:A I *D sky130_fd_sc_hd__dlygate4sd3_1
*I *3246:Q O *D sky130_fd_sc_hd__dfxtp_1
*CAP
1 *2748:A 0.000535519
2 *3414:A 0.000441375
3 *3246:Q 0
4 *934:6 0.000976894
5 *2586:A *2748:A 0
6 *2586:A *3414:A 0
7 *3375:A *3414:A 8.65905e-05
8 *684:71 *2748:A 0.000481547
9 *684:90 *2748:A 5.20968e-05
10 *684:90 *3414:A 0.000105841
*RES
1 *3246:Q *934:6 3.6 
2 *934:6 *3414:A 9.915 
3 *934:6 *2748:A 12.42 
*END

*D_NET *935 0.0031378
*CONN
*I *2793:A1 I *D sky130_fd_sc_hd__a22o_1
*I *3429:A I *D sky130_fd_sc_hd__dlygate4sd3_1
*I *3245:Q O *D sky130_fd_sc_hd__dfxtp_1
*CAP
1 *2793:A1 0.000400963
2 *3429:A 7.207e-05
3 *3245:Q 0.000158242
4 *935:10 0.000631275
5 *2573:A *3429:A 0.000230649
6 *2578:B *2793:A1 7.21296e-06
7 *2579:S *3429:A 0.000194914
8 *2581:A0 *2793:A1 4.48122e-05
9 *2581:A0 *935:10 2.69443e-06
10 *2616:A *2793:A1 0.000263871
11 *2617:A1 *2793:A1 7.23602e-05
12 *2714:A1 *2793:A1 0
13 *2721:A2 *2793:A1 1.80524e-05
14 *2797:A2 *2793:A1 0.000293726
15 *2800:A3 *2793:A1 0.000340422
16 *218:20 *2793:A1 1.88602e-05
17 *218:36 *2793:A1 0.000137192
18 *327:99 *2793:A1 5.29497e-05
19 *327:101 *2793:A1 1.7994e-05
20 *358:16 *935:10 2.74281e-05
21 *527:16 *3429:A 3.83194e-05
22 *547:10 *2793:A1 0.000113797
*RES
1 *3245:Q *935:10 5.775 
2 *935:10 *3429:A 6.12 
3 *935:10 *2793:A1 14.61 
*END

*D_NET *936 0.00311146
*CONN
*I *2713:B2 I *D sky130_fd_sc_hd__a22o_1
*I *3338:A I *D sky130_fd_sc_hd__dlygate4sd3_1
*I *3244:Q O *D sky130_fd_sc_hd__dfxtp_1
*CAP
1 *2713:B2 0.000603361
2 *3338:A 0
3 *3244:Q 0.000259451
4 *936:10 0.000862811
5 *2713:A1 *2713:B2 5.00277e-05
6 *2714:B2 *2713:B2 0
7 *2714:C1 *2713:B2 0
8 *211:32 *2713:B2 0
9 *320:16 *936:10 0.000640982
10 *322:66 *2713:B2 0.000321664
11 *329:10 *2713:B2 0
12 *343:32 *936:10 0.000324308
13 *362:16 *2713:B2 4.88568e-05
*RES
1 *3244:Q *936:10 11.46 
2 *936:10 *3338:A 3.6 
3 *936:10 *2713:B2 13.65 
*END

*D_NET *937 0.00426234
*CONN
*I *2810:B1 I *D sky130_fd_sc_hd__o21a_1
*I *3309:A I *D sky130_fd_sc_hd__dlygate4sd3_1
*I *3271:Q O *D sky130_fd_sc_hd__dfrtp_1
*CAP
1 *2810:B1 0.000785367
2 *3309:A 7.95201e-05
3 *3271:Q 0.000137299
4 *937:10 0.00100219
5 *2541:A *2810:B1 3.79555e-05
6 *2584:B *2810:B1 0.000116165
7 *2623:A *2810:B1 5.83121e-06
8 *2755:B1 *2810:B1 1.88602e-05
9 *3271:RESET_B *937:10 3.07153e-05
10 *3298:A *2810:B1 7.89767e-05
11 *348:91 *2810:B1 0.000643787
12 *355:82 *2810:B1 8.58326e-05
13 *591:90 *2810:B1 0.000333593
14 *720:49 *2810:B1 0.000841853
15 *779:59 *2810:B1 0
16 *779:59 *937:10 0
17 *806:8 *2810:B1 5.11148e-06
18 *806:8 *937:10 5.92849e-05
*RES
1 *3271:Q *937:10 6.03 
2 *937:10 *3309:A 4.74 
3 *937:10 *2810:B1 25.11 
*END

*D_NET *938 0.000692118
*CONN
*I *3271:D I *D sky130_fd_sc_hd__dfrtp_1
*I *2670:X O *D sky130_fd_sc_hd__clkbuf_1
*CAP
1 *3271:D 0.000261882
2 *2670:X 0.000261882
3 *2670:A *3271:D 1.83847e-05
4 *3271:CLK *3271:D 7.15908e-05
5 *3305:A *3271:D 2.50602e-05
6 *675:39 *3271:D 5.33172e-05
*RES
1 *2670:X *3271:D 6.6875 
*END
